.Version 9.2.2 of ABINIT

 ABINIT is a project of the Universite Catholique de Louvain,
 Corning Inc. and other collaborators, see ~abinit/doc/developers/contributors.txt .
 acknowledgments of the ABINIT effort.

.Starting date : Tue 13 Sep 2022.
- ( at 08h19 )

- input  file    -> Cs2TiI6.in
- output file    -> Cs2TiI6.out
- root for input  files -> Cs2TiI6i
- root for output files -> Cs2TiI6o

- inpspheads : Reading pseudopotential header in XML form from
-   ../../../Psps_for_tests/ATOMICDATA/Cs.GGA_PBE-JTH.xml
- inpspheads : Reading pseudopotential header in XML form from
-   ../../../Psps_for_tests/ATOMICDATA/I.GGA_PBE-JTH.xml
- inpspheads : Reading pseudopotential header in XML form from
-   ../../../Psps_for_tests/ATOMICDATA/Hf.GGA_PBE-JTH.xml

 DATASET    1 : space group Fm -3 m (#225); Bravais cF (face-center cubic)
     intxc =       0    ionmov =       2      iscf =      17    lmnmax =      18
     lnmax =       6     mgfft =      64  mpssoang =       3    mqgrid =    3943
     natom =       9  nloc_mem =       2    nspden =       1   nspinor =       1
    nsppol =       1      nsym =      48    n1xccc =       1    ntypat =       3
    occopt =       1   xclevel =       2
-    mband =          42        mffmem =           1         mkmem =           2
       mpw =       10567          nfft =      262144          nkpt =          10
Pmy_natom=         2
 PAW method is used; the additional fine FFT grid is defined by:
   mgfftf=       100    nfftf =   1000000
  Rough estimation (10% accuracy) of disk space for files :

[...]

 DATASET    9 : space group Fm -3 m (#225); Bravais cF (face-center cubic)
     intxc =       0    ionmov =       2      iscf =      17    lmnmax =      18
     lnmax =       6     mgfft =      64  mpssoang =       3    mqgrid =    3908
     natom =       9  nloc_mem =       2    nspden =       1   nspinor =       1
    nsppol =       1      nsym =      48    n1xccc =       1    ntypat =       3
    occopt =       1   xclevel =       2
-    mband =          42        mffmem =           1         mkmem =           2
       mpw =       10287          nfft =      262144          nkpt =          10
Pmy_natom=         2
 PAW method is used; the additional fine FFT grid is defined by:
   mgfftf=        96    nfftf =    884736
  Rough estimation (10% accuracy) of disk space for files :

------------- Echo of variables that govern the present computation ------------
-
- outvars: echo of selected default values
-   iomode0 =  0 , fftalg0 =112 , wfoptalg0 = 10
-
- outvars: echo of global parameters not present in the input file
-  max_nthreads =    0
-
 -outvars: echo values of preprocessed input variables --------
            acell      1.6045663836E+01  1.6045663836E+01  1.6045663836E+01 Bohr
              amu      1.32905430E+02  1.26904470E+02  1.78490000E+02
           diemac      1.20000000E+01
          dilatmx      1.15000000E+00
             ecut      1.60000000E+01 Hartree
           ecutsm      5.00000000E-01 Hartree
-          fftalg         112
           ionmov           2
              ixc     -101130
           jdtset        1    2    3    4    5    6    7    8    9
              kpt     -1.25000000E-01 -2.50000000E-01  0.00000000E+00
                      -1.25000000E-01  5.00000000E-01  0.00000000E+00
                      -2.50000000E-01 -3.75000000E-01  0.00000000E+00
                      -1.25000000E-01 -3.75000000E-01  1.25000000E-01
                      -1.25000000E-01  2.50000000E-01  0.00000000E+00
                      -2.50000000E-01  3.75000000E-01  0.00000000E+00
                      -3.75000000E-01  5.00000000E-01  0.00000000E+00
                      -2.50000000E-01  5.00000000E-01  1.25000000E-01
                      -1.25000000E-01  0.00000000E+00  0.00000000E+00
                      -3.75000000E-01  0.00000000E+00  0.00000000E+00
         kptrlatt        4   -4    4     -4    4    4     -4   -4    4
          kptrlen1     8.34157751E+01
          kptrlen2     8.33250072E+01
          kptrlen3     8.32342392E+01
          kptrlen4     8.31434712E+01
          kptrlen5     8.30527032E+01
          kptrlen6     8.29619352E+01
          kptrlen7     8.28711673E+01
          kptrlen8     8.27803993E+01
          kptrlen9     8.26896313E+01
P           mkmem           2
            natom           9
            nband          42
           ndtset           9
            ngfft          64      64      64
          ngfftdg1        100     100     100
          ngfftdg2        100     100     100
          ngfftdg3        100     100     100
          ngfftdg4        100     100     100
          ngfftdg5        100     100     100
          ngfftdg6        100     100     100
          ngfftdg7         96      96      96
          ngfftdg8         96      96      96
          ngfftdg9         96      96      96
             nkpt          10
            nstep        2500
             nsym          48
            ntime        1000
           ntypat           3
              occ      2.000000  2.000000  2.000000  2.000000  2.000000  2.000000
                       2.000000  2.000000  2.000000  2.000000  2.000000  2.000000
                       2.000000  2.000000  2.000000  2.000000  2.000000  2.000000
                       2.000000  2.000000  2.000000  2.000000  2.000000  2.000000
                       2.000000  2.000000  2.000000  2.000000  2.000000  2.000000
                       2.000000  2.000000  2.000000  2.000000  2.000000  2.000000
                       0.000000  0.000000  0.000000  0.000000  0.000000  0.000000
        optforces           1
        pawecutdg      4.00000000E+01 Hartree
            prtwf           0
            rprim1     0.0000000000E+00  6.4983113191E-01  6.4983113191E-01
                       6.4983113191E-01  0.0000000000E+00  6.4983113191E-01
                       6.4983113191E-01  6.4983113191E-01  0.0000000000E+00
            rprim2     0.0000000000E+00  6.4912402513E-01  6.4912402513E-01
                       6.4912402513E-01  0.0000000000E+00  6.4912402513E-01
                       6.4912402513E-01  6.4912402513E-01  0.0000000000E+00
            rprim3     0.0000000000E+00  6.4841691835E-01  6.4841691835E-01
                       6.4841691835E-01  0.0000000000E+00  6.4841691835E-01
                       6.4841691835E-01  6.4841691835E-01  0.0000000000E+00
            rprim4     0.0000000000E+00  6.4770981157E-01  6.4770981157E-01
                       6.4770981157E-01  0.0000000000E+00  6.4770981157E-01
                       6.4770981157E-01  6.4770981157E-01  0.0000000000E+00
            rprim5     0.0000000000E+00  6.4700270479E-01  6.4700270479E-01
                       6.4700270479E-01  0.0000000000E+00  6.4700270479E-01
                       6.4700270479E-01  6.4700270479E-01  0.0000000000E+00
            rprim6     0.0000000000E+00  6.4629559801E-01  6.4629559801E-01
                       6.4629559801E-01  0.0000000000E+00  6.4629559801E-01
                       6.4629559801E-01  6.4629559801E-01  0.0000000000E+00
            rprim7     0.0000000000E+00  6.4558849123E-01  6.4558849123E-01
                       6.4558849123E-01  0.0000000000E+00  6.4558849123E-01
                       6.4558849123E-01  6.4558849123E-01  0.0000000000E+00
            rprim8     0.0000000000E+00  6.4488138445E-01  6.4488138445E-01
                       6.4488138445E-01  0.0000000000E+00  6.4488138445E-01
                       6.4488138445E-01  6.4488138445E-01  0.0000000000E+00
            rprim9     0.0000000000E+00  6.4417427766E-01  6.4417427766E-01
                       6.4417427766E-01  0.0000000000E+00  6.4417427766E-01
                       6.4417427766E-01  6.4417427766E-01  0.0000000000E+00
           shiftk      5.00000000E-01  5.00000000E-01  5.00000000E-01
          spgroup         225
           symrel      1  0  0   0  1  0   0  0  1      -1  0  0   0 -1  0   0  0 -1
                       0 -1  1   0 -1  0   1 -1  0       0  1 -1   0  1  0  -1  1  0
                      -1  0  0  -1  0  1  -1  1  0       1  0  0   1  0 -1   1 -1  0
                       0  1 -1   1  0 -1   0  0 -1       0 -1  1  -1  0  1   0  0  1
                      -1  0  0  -1  1  0  -1  0  1       1  0  0   1 -1  0   1  0 -1
                       0 -1  1   1 -1  0   0 -1  0       0  1 -1  -1  1  0   0  1  0
                       1  0  0   0  0  1   0  1  0      -1  0  0   0  0 -1   0 -1  0
                       0  1 -1   0  0 -1   1  0 -1       0 -1  1   0  0  1  -1  0  1
                      -1  0  1  -1  1  0  -1  0  0       1  0 -1   1 -1  0   1  0  0
                       0 -1  0   1 -1  0   0 -1  1       0  1  0  -1  1  0   0  1 -1
                       1  0 -1   0  0 -1   0  1 -1      -1  0  1   0  0  1   0 -1  1
                       0  1  0   0  0  1   1  0  0       0 -1  0   0  0 -1  -1  0  0
                       1  0 -1   0  1 -1   0  0 -1      -1  0  1   0 -1  1   0  0  1
                       0 -1  0   0 -1  1   1 -1  0       0  1  0   0  1 -1  -1  1  0
                      -1  0  1  -1  0  0  -1  1  0       1  0 -1   1  0  0   1 -1  0
                       0  1  0   1  0  0   0  0  1       0 -1  0  -1  0  0   0  0 -1
                       0  0 -1   0  1 -1   1  0 -1       0  0  1   0 -1  1  -1  0  1
                       1 -1  0   0 -1  1   0 -1  0      -1  1  0   0  1 -1   0  1  0
                       0  0  1   1  0  0   0  1  0       0  0 -1  -1  0  0   0 -1  0
                      -1  1  0  -1  0  0  -1  0  1       1 -1  0   1  0  0   1  0 -1
                       0  0  1   0  1  0   1  0  0       0  0 -1   0 -1  0  -1  0  0
                       1 -1  0   0 -1  0   0 -1  1      -1  1  0   0  1  0   0  1 -1
                       0  0 -1   1  0 -1   0  1 -1       0  0  1  -1  0  1   0 -1  1
                      -1  1  0  -1  0  1  -1  0  0       1 -1  0   1  0 -1   1  0  0
           toldff      1.00000000E-08
           tolmxf      1.00000000E-05
            typat      1  1  2  2  2  2  2  2  3
           useylm           1
              wtk        0.09375    0.09375    0.09375    0.18750    0.09375    0.09375
                         0.09375    0.18750    0.03125    0.03125
           xangst1     2.7588579402E+00  2.7588579402E+00  2.7588579402E+00
                       8.2765738205E+00  8.2765738205E+00  8.2765738205E+00
                       5.5177158803E+00  8.2145598854E+00  5.5177158803E+00
                       5.5177158803E+00  5.5177158803E+00  2.8208718752E+00
                       5.5177158803E+00  5.5177158803E+00  8.2145598854E+00
                       5.5177158803E+00  2.8208718752E+00  5.5177158803E+00
                       8.2145598854E+00  5.5177158803E+00  5.5177158803E+00
                       2.8208718752E+00  5.5177158803E+00  5.5177158803E+00
                      -2.2822223193E-18 -3.7564189046E-18 -2.0429772800E-19
           xangst2     2.7558559185E+00  2.7558559185E+00  2.7558559185E+00
                       8.2675677554E+00  8.2675677554E+00  8.2675677554E+00
                       5.5117118369E+00  8.2056213001E+00  5.5117118369E+00
                       5.5117118369E+00  5.5117118369E+00  2.8178023738E+00
[...]
                      -2.6091444019E-18 -3.7414756730E-18 -3.6242258194E-19
           xangst4     2.7498518751E+00  2.7498518751E+00  2.7498518751E+00
                       8.2495556252E+00  8.2495556252E+00  8.2495556252E+00
                       5.4997037501E+00  8.1982285481E+00  5.4997037501E+00
                       5.4997037501E+00  5.4997037501E+00  2.8011789522E+00
                       5.4997037501E+00  5.4997037501E+00  8.1982285481E+00
                       5.4997037501E+00  2.8011789522E+00  5.4997037501E+00
                       8.1982285481E+00  5.4997037501E+00  5.4997037501E+00
                       2.8011789522E+00  5.4997037501E+00  5.4997037501E+00
                      -2.5612168269E-18 -4.0021750726E-18  4.8874468230E-19
           xangst5     2.7468498534E+00  2.7468498534E+00  2.7468498534E+00
                       8.2405495601E+00  8.2405495601E+00  8.2405495601E+00
                       5.4936997067E+00  8.1874855278E+00  5.4936997067E+00
                       5.4936997067E+00  5.4936997067E+00  2.7999138856E+00
                       5.4936997067E+00  5.4936997067E+00  8.1874855278E+00
                       5.4936997067E+00  2.7999138856E+00  5.4936997067E+00
                       8.1874855278E+00  5.4936997067E+00  5.4936997067E+00
                       2.7999138856E+00  5.4936997067E+00  5.4936997067E+00
                      -2.2732648308E-18 -3.7395695993E-18 -2.0405294239E-19
           xangst6     2.7438478317E+00  2.7438478317E+00  2.7438478317E+00
                       8.2315434950E+00  8.2315434950E+00  8.2315434950E+00
                       5.4876956633E+00  8.1767787014E+00  5.4876956633E+00
                       5.4876956633E+00  5.4876956633E+00  2.7986126253E+00
                       5.4876956633E+00  5.4876956633E+00  8.1767787014E+00
                       5.4876956633E+00  2.7986126253E+00  5.4876956633E+00
                       8.1767787014E+00  5.4876956633E+00  5.4876956633E+00
                       2.7986126253E+00  5.4876956633E+00  5.4876956633E+00
                      -2.2695299180E-18 -3.7360820650E-18 -2.0288671005E-19
           xangst7     2.7408458100E+00  2.7408458100E+00  2.7408458100E+00
                       8.2225374299E+00  8.2225374299E+00  8.2225374299E+00
                       5.4816916199E+00  8.1660820283E+00  5.4816916199E+00
                       5.4816916199E+00  5.4816916199E+00  2.7973012116E+00
                       5.4816916199E+00  5.4816916199E+00  8.1660820283E+00
                       5.4816916199E+00  2.7973012116E+00  5.4816916199E+00
                       8.1660820283E+00  5.4816916199E+00  5.4816916199E+00
                       2.7973012116E+00  5.4816916199E+00  5.4816916199E+00
                      -2.2316335520E-18 -3.5529415050E-18 -1.9356371707E-19
           xangst8     2.7378437883E+00  2.7378437883E+00  2.7378437883E+00
                       8.2135313648E+00  8.2135313648E+00  8.2135313648E+00
                       5.4756875765E+00  8.1554567917E+00  5.4756875765E+00
                       5.4756875765E+00  5.4756875765E+00  2.7959183614E+00
                       5.4756875765E+00  5.4756875765E+00  8.1554567917E+00
                       5.4756875765E+00  2.7959183614E+00  5.4756875765E+00
                       8.1554567917E+00  5.4756875765E+00  5.4756875765E+00
                       2.7959183614E+00  5.4756875765E+00  5.4756875765E+00
                      -1.9781097303E-18 -3.8109225252E-18 -3.3356357732E-19
           xangst9     2.7348417666E+00  2.7348417666E+00  2.7348417666E+00
                       8.2045252997E+00  8.2045252997E+00  8.2045252997E+00
                       5.4696835331E+00  8.1447742619E+00  5.4696835331E+00
                       5.4696835331E+00  5.4696835331E+00  2.7945928044E+00
                       5.4696835331E+00  5.4696835331E+00  8.1447742619E+00
                       5.4696835331E+00  2.7945928044E+00  5.4696835331E+00
                       8.1447742619E+00  5.4696835331E+00  5.4696835331E+00
                       2.7945928044E+00  5.4696835331E+00  5.4696835331E+00
                      -2.2922732870E-18 -3.7319434697E-18 -1.9362964355E-19
            xcart1     5.2134859464E+00  5.2134859464E+00  5.2134859464E+00
                       1.5640457839E+01  1.5640457839E+01  1.5640457839E+01
                       1.0426971893E+01  1.5553412593E+01  1.0426971893E+01
                       1.0426971893E+01  1.0426971893E+01  5.3005311929E+00
                       1.0426971893E+01  1.0426971893E+01  1.5553412593E+01
                       1.0426971893E+01  5.3005311929E+00  1.0426971893E+01
                       1.5553412593E+01  1.0426971893E+01  1.0426971893E+01
                       5.3005311929E+00  1.0426971893E+01  1.0426971893E+01
                      -4.0900655430E-18 -7.1509209080E-18 -7.8883400328E-19
            xcart2     5.2078129476E+00  5.2078129476E+00  5.2078129476E+00
                       1.5623438843E+01  1.5623438843E+01  1.5623438843E+01
                       1.0415625895E+01  1.5533066979E+01  1.0415625895E+01
                       1.0415625895E+01  1.0415625895E+01  5.2981848112E+00
                       1.0415625895E+01  1.0415625895E+01  1.5533066979E+01
                       1.0415625895E+01  5.2981848112E+00  1.0415625895E+01
                       1.5533066979E+01  1.0415625895E+01  1.0415625895E+01
                       5.2981848112E+00  1.0415625895E+01  1.0415625895E+01
                      -4.3079557147E-18 -7.0919409908E-18 -3.8480705482E-19
            xcart3     5.2021399487E+00  5.2021399487E+00  5.2021399487E+00
                       1.5606419846E+01  1.5606419846E+01  1.5606419846E+01
                       1.0404279897E+01  1.5512739730E+01  1.0404279897E+01
                       1.0404279897E+01  1.0404279897E+01  5.2958200646E+00
                       1.0404279897E+01  1.0404279897E+01  1.5512739730E+01
                       1.0404279897E+01  5.2958200646E+00  1.0404279897E+01
                       1.5512739730E+01  1.0404279897E+01  1.0404279897E+01
                       5.2958200646E+00  1.0404279897E+01  1.0404279897E+01
                      -4.9305683608E-18 -7.0703643549E-18 -6.8487942425E-19
            xcart4     5.1964669499E+00  5.1964669499E+00  5.1964669499E+00
                       1.5589400850E+01  1.5589400850E+01  1.5589400850E+01
                       1.0392933900E+01  1.5492406731E+01  1.0392933900E+01
                       1.0392933900E+01  1.0392933900E+01  5.2934610688E+00
                       1.0392933900E+01  1.0392933900E+01  1.5492406731E+01
                       1.0392933900E+01  5.2934610688E+00  1.0392933900E+01
                       1.5492406731E+01  1.0392933900E+01  1.0392933900E+01
                       5.2934610688E+00  1.0392933900E+01  1.0392933900E+01
                      -4.8399983697E-18 -7.5630148231E-18  9.2359359845E-19
            xcart5     5.1907939510E+00  5.1907939510E+00  5.1907939510E+00
                       1.5572381853E+01  1.5572381853E+01  1.5572381853E+01
                       1.0381587902E+01  1.5472105365E+01  1.0381587902E+01
                       1.0381587902E+01  1.0381587902E+01  5.2910704394E+00
                       1.0381587902E+01  1.0381587902E+01  1.5472105365E+01
                       1.0381587902E+01  5.2910704394E+00  1.0381587902E+01
                       1.5472105365E+01  1.0381587902E+01  1.0381587902E+01
                       5.2910704394E+00  1.0381587902E+01  1.0381587902E+01
                      -4.2958479577E-18 -7.0667623976E-18 -3.8560417772E-19
            xcart6     5.1851209522E+00  5.1851209522E+00  5.1851209522E+00
                       1.5555362856E+01  1.5555362856E+01  1.5555362856E+01
                       1.0370241904E+01  1.5451872395E+01  1.0370241904E+01
                       1.0370241904E+01  1.0370241904E+01  5.2886114138E+00
                       1.0370241904E+01  1.0370241904E+01  1.5451872395E+01
                       1.0370241904E+01  5.2886114138E+00  1.0370241904E+01
                       1.5451872395E+01  1.0370241904E+01  1.0370241904E+01
                       5.2886114138E+00  1.0370241904E+01  1.0370241904E+01
                      -4.2887899953E-18 -7.0601719129E-18 -3.8340031799E-19
            xcart7     5.1794479533E+00  5.1794479533E+00  5.1794479533E+00
                       1.5538343860E+01  1.5538343860E+01  1.5538343860E+01
                       1.0358895907E+01  1.5431658612E+01  1.0358895907E+01
                       1.0358895907E+01  1.0358895907E+01  5.2861332010E+00
                       1.0358895907E+01  1.0358895907E+01  1.5431658612E+01
                       1.0358895907E+01  5.2861332010E+00  1.0358895907E+01
                       1.5431658612E+01  1.0358895907E+01  1.0358895907E+01
                       5.2861332010E+00  1.0358895907E+01  1.0358895907E+01
                      -4.2171762423E-18 -6.7140864106E-18 -3.6578241453E-19
            xcart8     5.1737749545E+00  5.1737749545E+00  5.1737749545E+00
                       1.5521324863E+01  1.5521324863E+01  1.5521324863E+01
                       1.0347549909E+01  1.5411579825E+01  1.0347549909E+01
                       1.0347549909E+01  1.0347549909E+01  5.2835199929E+00
                       1.0347549909E+01  1.0347549909E+01  1.5411579825E+01
                       1.0347549909E+01  5.2835199929E+00  1.0347549909E+01
                       1.5411579825E+01  1.0347549909E+01  1.0347549909E+01
                       5.2835199929E+00  1.0347549909E+01  1.0347549909E+01
                      -3.7380856511E-18 -7.2015998862E-18 -6.3034380904E-19
            xcart9     5.1681019556E+00  5.1681019556E+00  5.1681019556E+00
                       1.5504305867E+01  1.5504305867E+01  1.5504305867E+01
                       1.0336203911E+01  1.5391392769E+01  1.0336203911E+01
                       1.0336203911E+01  1.0336203911E+01  5.2810150532E+00
                       1.0336203911E+01  1.0336203911E+01  1.5391392769E+01
                       1.0336203911E+01  5.2810150532E+00  1.0336203911E+01
                       1.5391392769E+01  1.0336203911E+01  1.0336203911E+01
                       5.2810150532E+00  1.0336203911E+01  1.0336203911E+01
                      -4.3317687341E-18 -7.0523511011E-18 -3.6590699752E-19
             xred1     2.5000000000E-01  2.5000000000E-01  2.5000000000E-01
                       7.5000000000E-01  7.5000000000E-01  7.5000000000E-01
                       7.4582595756E-01  2.5417404244E-01  7.4582595756E-01
                       2.5417404244E-01  2.5417404244E-01  7.4582595756E-01
                       7.4582595756E-01  7.4582595756E-01  2.5417404244E-01
                       2.5417404244E-01  7.4582595756E-01  2.5417404244E-01
                       2.5417404244E-01  7.4582595756E-01  7.4582595756E-01
                       7.4582595756E-01  2.5417404244E-01  2.5417404244E-01
                      -1.8460246215E-19  1.0894924169E-19 -5.0120747208E-19
             xred2     2.5000000000E-01  2.5000000000E-01  2.5000000000E-01
                       7.5000000000E-01  7.5000000000E-01  7.5000000000E-01
                       7.4566171709E-01  2.5433828291E-01  7.4566171709E-01
                       2.5433828291E-01  2.5433828291E-01  7.4566171709E-01
                       7.4566171709E-01  7.4566171709E-01  2.5433828291E-01
                       2.5433828291E-01  7.4566171709E-01  2.5433828291E-01
                       2.5433828291E-01  7.4566171709E-01  7.4566171709E-01
                       7.4566171709E-01  2.5433828291E-01  2.5433828291E-01
                      -1.5211723053E-19  1.1517206193E-19 -5.2877713551E-19
             xred3     2.5000000000E-01  2.5000000000E-01  2.5000000000E-01
                       7.5000000000E-01  7.5000000000E-01  7.5000000000E-01
                       7.4549800098E-01  2.5450199902E-01  7.4549800098E-01
                       2.5450199902E-01  2.5450199902E-01  7.4549800098E-01
                       7.4549800098E-01  7.4549800098E-01  2.5450199902E-01
                       2.5450199902E-01  7.4549800098E-01  2.5450199902E-01
                       2.5450199902E-01  7.4549800098E-01  7.4549800098E-01
                       7.4549800098E-01  2.5450199902E-01  2.5450199902E-01
                      -1.3574583951E-19  6.9919138285E-20 -5.4381722729E-19
             xred4     2.5000000000E-01  2.5000000000E-01  2.5000000000E-01
                       7.5000000000E-01  7.5000000000E-01  7.5000000000E-01
                       7.4533365073E-01  2.5466634927E-01  7.4533365073E-01
                       2.5466634927E-01  2.5466634927E-01  7.4533365073E-01
                       7.4533365073E-01  7.4533365073E-01  2.5466634927E-01
                       2.5466634927E-01  7.4533365073E-01  2.5466634927E-01
                       2.5466634927E-01  7.4533365073E-01  7.4533365073E-01
                       7.4533365073E-01  2.5466634927E-01  2.5466634927E-01
                      -8.6569532353E-20  1.7543698858E-19 -6.4113785962E-19
             xred5     2.5000000000E-01  2.5000000000E-01  2.5000000000E-01
                       7.5000000000E-01  7.5000000000E-01  7.5000000000E-01
                       7.4517046480E-01  2.5482953520E-01  7.4517046480E-01
                       2.5482953520E-01  2.5482953520E-01  7.4517046480E-01
                       7.4517046480E-01  7.4517046480E-01  2.5482953520E-01
                       2.5482953520E-01  7.4517046480E-01  2.5482953520E-01
                       2.5482953520E-01  7.4517046480E-01  7.4517046480E-01
                       7.4517046480E-01  2.5482953520E-01  2.5482953520E-01
                      -1.5202484665E-19  1.1488176398E-19 -5.2867664760E-19
             xred6     2.5000000000E-01  2.5000000000E-01  2.5000000000E-01
                       7.5000000000E-01  7.5000000000E-01  7.5000000000E-01
                       7.4501021950E-01  2.5498978050E-01  7.4501021950E-01
                       2.5498978050E-01  2.5498978050E-01  7.4501021950E-01
                       7.4501021950E-01  7.4501021950E-01  2.5498978050E-01
                       2.5498978050E-01  7.4501021950E-01  2.5498978050E-01
                       2.5498978050E-01  7.4501021950E-01  7.4501021950E-01
                       7.4501021950E-01  2.5498978050E-01  2.5498978050E-01
                      -1.5210745635E-19  1.1513625341E-19 -5.2870326900E-19
             xred7     2.5000000000E-01  2.5000000000E-01  2.5000000000E-01
                       7.5000000000E-01  7.5000000000E-01  7.5000000000E-01
                       7.4485054929E-01  2.5514945071E-01  7.4485054929E-01
                       2.5514945071E-01  2.5514945071E-01  7.4485054929E-01
                       7.4485054929E-01  7.4485054929E-01  2.5514945071E-01
                       2.5514945071E-01  7.4485054929E-01  2.5514945071E-01
                       2.5514945071E-01  7.4485054929E-01  7.4485054929E-01
                       7.4485054929E-01  2.5514945071E-01  2.5514945071E-01
                      -1.3817556468E-19  1.0286461863E-19 -5.0997134895E-19
             xred8     2.5000000000E-01  2.5000000000E-01  2.5000000000E-01
                       7.5000000000E-01  7.5000000000E-01  7.5000000000E-01
                       7.4469705199E-01  2.5530294801E-01  7.4469705199E-01
                       2.5530294801E-01  2.5530294801E-01  7.4469705199E-01
                       7.4469705199E-01  7.4469705199E-01  2.5530294801E-01
                       2.5530294801E-01  7.4469705199E-01  2.5530294801E-01
                       2.5530294801E-01  7.4469705199E-01  7.4469705199E-01
                       7.4469705199E-01  2.5530294801E-01  2.5530294801E-01
                      -1.9781774817E-19  1.3690054414E-19 -4.9815375712E-19
             xred9     2.5000000000E-01  2.5000000000E-01  2.5000000000E-01
                       7.5000000000E-01  7.5000000000E-01  7.5000000000E-01
                       7.4453798036E-01  2.5546201964E-01  7.4453798036E-01
                       2.5546201964E-01  2.5546201964E-01  7.4453798036E-01
                       7.4453798036E-01  7.4453798036E-01  2.5546201964E-01
                       2.5546201964E-01  7.4453798036E-01  2.5546201964E-01
                       2.5546201964E-01  7.4453798036E-01  7.4453798036E-01
                       7.4453798036E-01  2.5546201964E-01  2.5546201964E-01
                      -1.4930478303E-19  1.1390426262E-19 -5.3299126702E-19
            znucl       55.00000   53.00000   72.00000

- Timing analysis has been suppressed with timopt=0

 Suggested references for the acknowledgment of ABINIT usage.

 Calculation completed.
.Delivered   0 WARNINGs and  34 COMMENTs to log file.