.Version 9.2.2 of ABINIT

 ABINIT is a project of the Universite Catholique de Louvain,
 Corning Inc. and other collaborators, see ~abinit/doc/developers/contributors.txt .
 acknowledgments of the ABINIT effort.

.Starting date : Fri 21 Oct 2022.
- ( at 08h50 )

- input  file    -> Cs2TiI6.in
- output file    -> Cs2TiI6.out
- root for input  files -> Cs2TiI6i
- root for output files -> Cs2TiI6o

- inpspheads : Reading pseudopotential header in XML form from
-   ../../../Psps_for_tests/ATOMICDATA/Cs.GGA_PBE-JTH.xml
- inpspheads : Reading pseudopotential header in XML form from
-   ../../../Psps_for_tests/ATOMICDATA/Br.GGA_PBE-JTH.xml
- inpspheads : Reading pseudopotential header in XML form from
-   ../../../Psps_for_tests/ATOMICDATA/Hf.GGA_PBE-JTH.xml

 DATASET    1 : space group Fm -3 m (#225); Bravais cF (face-center cubic)
     intxc =       0    ionmov =       2      iscf =      17    lmnmax =      18
     lnmax =       6     mgfft =      64  mpssoang =       3    mqgrid =    3969
     natom =       9  nloc_mem =       2    nspden =       1   nspinor =       1
    nsppol =       1      nsym =      48    n1xccc =       1    ntypat =       3
    occopt =       1   xclevel =       2
-    mband =          42        mffmem =           1         mkmem =           3
       mpw =       10792          nfft =      262144          nkpt =          10
Pmy_natom=         3
 PAW method is used; the additional fine FFT grid is defined by:
   mgfftf=       100    nfftf =   1000000
  Rough estimation (10% accuracy) of disk space for files :

[...]

 DATASET   10 : space group Fm -3 m (#225); Bravais cF (face-center cubic)
     intxc =       0    ionmov =       2      iscf =      17    lmnmax =      18
     lnmax =       6     mgfft =      60  mpssoang =       3    mqgrid =    3608
     natom =       9  nloc_mem =       2    nspden =       1   nspinor =       1
    nsppol =       1      nsym =      48    n1xccc =       1    ntypat =       3
    occopt =       1   xclevel =       2
-    mband =          42        mffmem =           1         mkmem =           3
       mpw =        8094          nfft =      216000          nkpt =          10
Pmy_natom=         3
 PAW method is used; the additional fine FFT grid is defined by:
   mgfftf=        90    nfftf =    729000
  Rough estimation (10% accuracy) of disk space for files :

------------- Echo of variables that govern the present computation ------------
-
- outvars: echo of selected default values
-   iomode0 =  0 , fftalg0 =112 , wfoptalg0 = 10
-
- outvars: echo of global parameters not present in the input file
-  max_nthreads =    0
-
 -outvars: echo values of preprocessed input variables --------
            acell1     1.4844908963E+01  1.4844908963E+01  1.4844908963E+01 Bohr
            acell2     1.4694960387E+01  1.4694960387E+01  1.4694960387E+01 Bohr
            acell3     1.4545011812E+01  1.4545011812E+01  1.4545011812E+01 Bohr
            acell4     1.4395063236E+01  1.4395063236E+01  1.4395063236E+01 Bohr
            acell5     1.4245114661E+01  1.4245114661E+01  1.4245114661E+01 Bohr
            acell6     1.4095166086E+01  1.4095166086E+01  1.4095166086E+01 Bohr
            acell7     1.3945217510E+01  1.3945217510E+01  1.3945217510E+01 Bohr
            acell8     1.3795268935E+01  1.3795268935E+01  1.3795268935E+01 Bohr
            acell9     1.3645320360E+01  1.3645320360E+01  1.3645320360E+01 Bohr
            acell10    1.3495371784E+01  1.3495371784E+01  1.3495371784E+01 Bohr
              amu      1.32905430E+02  7.99040000E+01  1.78490000E+02
           diemac      1.20000000E+01
          dilatmx      1.15000000E+00
             ecut      1.60000000E+01 Hartree
           ecutsm      5.00000000E-01 Hartree
-          fftalg         112
          getxred1          0
          getxred2         -1
          getxred3         -1
          getxred4         -1
          getxred5         -1
          getxred6         -1
          getxred7         -1
          getxred8         -1
          getxred9         -1
          getxred10        -1
           ionmov           2
              ixc     -101130
           jdtset        1    2    3    4    5    6    7    8    9   10
              kpt     -1.25000000E-01 -2.50000000E-01  0.00000000E+00
                      -1.25000000E-01  5.00000000E-01  0.00000000E+00
                      -2.50000000E-01 -3.75000000E-01  0.00000000E+00
                      -1.25000000E-01 -3.75000000E-01  1.25000000E-01
                      -1.25000000E-01  2.50000000E-01  0.00000000E+00
                      -2.50000000E-01  3.75000000E-01  0.00000000E+00
                      -3.75000000E-01  5.00000000E-01  0.00000000E+00
                      -2.50000000E-01  5.00000000E-01  1.25000000E-01
                      -1.25000000E-01  0.00000000E+00  0.00000000E+00
                      -3.75000000E-01  0.00000000E+00  0.00000000E+00
         kptrlatt        4   -4    4     -4    4    4     -4   -4    4
          kptrlen1     8.39754863E+01
          kptrlen2     8.31272491E+01
          kptrlen3     8.22790119E+01
          kptrlen4     8.14307746E+01
          kptrlen5     8.05825374E+01
          kptrlen6     7.97343002E+01
          kptrlen7     7.88860629E+01
          kptrlen8     7.80378257E+01
          kptrlen9     7.71895885E+01
          kptrlen10    7.63413512E+01
P           mkmem           3
            natom           9
            nband          42
           ndtset          10
            ngfft1         64      64      64
            ngfft2         64      64      64
            ngfft3         64      64      64
            ngfft4         60      60      60
            ngfft5         60      60      60
            ngfft6         60      60      60
            ngfft7         60      60      60
            ngfft8         60      60      60
            ngfft9         60      60      60
            ngfft10        60      60      60
          ngfftdg1        100     100     100
          ngfftdg2        100     100     100
          ngfftdg3         96      96      96
          ngfftdg4         96      96      96
          ngfftdg5         96      96      96
          ngfftdg6         96      96      96
          ngfftdg7         96      96      96
          ngfftdg8         96      96      96
          ngfftdg9         90      90      90
          ngfftdg10        90      90      90
             nkpt          10
            nstep        2500
             nsym          48
            ntime        1000
           ntypat           3
              occ      2.000000  2.000000  2.000000  2.000000  2.000000  2.000000
                       2.000000  2.000000  2.000000  2.000000  2.000000  2.000000
                       2.000000  2.000000  2.000000  2.000000  2.000000  2.000000
                       2.000000  2.000000  2.000000  2.000000  2.000000  2.000000
                       2.000000  2.000000  2.000000  2.000000  2.000000  2.000000
                       2.000000  2.000000  2.000000  2.000000  2.000000  2.000000
                       0.000000  0.000000  0.000000  0.000000  0.000000  0.000000
          optcell           3
        optforces           1
        pawecutdg      4.00000000E+01 Hartree
            prtwf           0
            rprim      0.0000000000E+00  7.0710678119E-01  7.0710678119E-01
                       7.0710678119E-01  0.0000000000E+00  7.0710678119E-01
                       7.0710678119E-01  7.0710678119E-01  0.0000000000E+00
           shiftk      5.00000000E-01  5.00000000E-01  5.00000000E-01
          spgroup         225
           symrel      1  0  0   0  1  0   0  0  1      -1  0  0   0 -1  0   0  0 -1
                       0 -1  1   0 -1  0   1 -1  0       0  1 -1   0  1  0  -1  1  0
                      -1  0  0  -1  0  1  -1  1  0       1  0  0   1  0 -1   1 -1  0
                       0  1 -1   1  0 -1   0  0 -1       0 -1  1  -1  0  1   0  0  1
                      -1  0  0  -1  1  0  -1  0  1       1  0  0   1 -1  0   1  0 -1
                       0 -1  1   1 -1  0   0 -1  0       0  1 -1  -1  1  0   0  1  0
                       1  0  0   0  0  1   0  1  0      -1  0  0   0  0 -1   0 -1  0
                       0  1 -1   0  0 -1   1  0 -1       0 -1  1   0  0  1  -1  0  1
                      -1  0  1  -1  1  0  -1  0  0       1  0 -1   1 -1  0   1  0  0
                       0 -1  0   1 -1  0   0 -1  1       0  1  0  -1  1  0   0  1 -1
                       1  0 -1   0  0 -1   0  1 -1      -1  0  1   0  0  1   0 -1  1
                       0  1  0   0  0  1   1  0  0       0 -1  0   0  0 -1  -1  0  0
                       1  0 -1   0  1 -1   0  0 -1      -1  0  1   0 -1  1   0  0  1
                       0 -1  0   0 -1  1   1 -1  0       0  1  0   0  1 -1  -1  1  0
                      -1  0  1  -1  0  0  -1  1  0       1  0 -1   1  0  0   1 -1  0
                       0  1  0   1  0  0   0  0  1       0 -1  0  -1  0  0   0  0 -1
                       0  0 -1   0  1 -1   1  0 -1       0  0  1   0 -1  1  -1  0  1
                       1 -1  0   0 -1  1   0 -1  0      -1  1  0   0  1 -1   0  1  0
                       0  0  1   1  0  0   0  1  0       0  0 -1  -1  0  0   0 -1  0
                      -1  1  0  -1  0  0  -1  0  1       1 -1  0   1  0  0   1  0 -1
                       0  0  1   0  1  0   1  0  0       0  0 -1   0 -1  0  -1  0  0
                       1 -1  0   0 -1  0   0 -1  1      -1  1  0   0  1  0   0  1 -1
                       0  0 -1   1  0 -1   0  1 -1       0  0  1  -1  0  1   0 -1  1
                      -1  1  0  -1  0  1  -1  0  0       1 -1  0   1  0 -1   1  0  0
           toldff      1.00000000E-08
           tolmxf      1.00000000E-06
            typat      1  1  2  2  2  2  2  2  3
           useylm           1
              wtk        0.09375    0.09375    0.09375    0.18750    0.09375    0.09375
                         0.09375    0.18750    0.03125    0.03125
           xangst1     2.7773695910E+00  2.7773695910E+00  2.7773695910E+00
                       8.3321087730E+00  8.3321087730E+00  8.3321087730E+00
                       5.5547391820E+00  8.5068957120E+00  5.5547391820E+00
                       5.5547391820E+00  5.5547391820E+00  2.6025826520E+00
                       5.5547391820E+00  5.5547391820E+00  8.5068957120E+00
                       5.5547391820E+00  2.6025826520E+00  5.5547391820E+00
                       8.5068957120E+00  5.5547391820E+00  5.5547391820E+00
                       2.6025826520E+00  5.5547391820E+00  5.5547391820E+00
                       1.5774312483E-18 -5.9125014559E-19  1.7824133067E-18
           xangst2     2.7493153527E+00  2.7493153527E+00  2.7493153527E+00
                       8.2479460581E+00  8.2479460581E+00  8.2479460581E+00
                       5.4986307054E+00  8.4209674725E+00  5.4986307054E+00
                       5.4986307054E+00  5.4986307054E+00  2.5762939384E+00
                       5.4986307054E+00  5.4986307054E+00  8.4209674725E+00
                       5.4986307054E+00  2.5762939384E+00  5.4986307054E+00
                       8.4209674725E+00  5.4986307054E+00  5.4986307054E+00
[...]
                       1.5100895768E-18 -6.2592297390E-19  1.6913841417E-18
           xangst7     2.6090441612E+00  2.6090441612E+00  2.6090441612E+00
                       7.8271324837E+00  7.8271324837E+00  7.8271324837E+00
                       5.2180883225E+00  7.8372712454E+00  5.2180883225E+00
                       5.2180883225E+00  5.2180883225E+00  2.5989053996E+00
                       5.2180883225E+00  5.2180883225E+00  7.8372712454E+00
                       5.2180883225E+00  2.5989053996E+00  5.2180883225E+00
                       7.8372712454E+00  5.2180883225E+00  5.2180883225E+00
                       2.5989053996E+00  5.2180883225E+00  5.2180883225E+00
                       1.7097781008E-18 -8.5819549502E-19  2.0426420495E-18
           xangst8     2.5809899230E+00  2.5809899230E+00  2.5809899230E+00
                       7.7429697689E+00  7.7429697689E+00  7.7429697689E+00
                       5.1619798459E+00  7.7325735212E+00  5.1619798459E+00
                       5.1619798459E+00  5.1619798459E+00  2.5913861707E+00
                       5.1619798459E+00  5.1619798459E+00  7.7325735212E+00
                       5.1619798459E+00  2.5913861707E+00  5.1619798459E+00
                       7.7325735212E+00  5.1619798459E+00  5.1619798459E+00
                       2.5913861707E+00  5.1619798459E+00  5.1619798459E+00
                       8.5123013862E-19 -5.8375370609E-19  1.8833759170E-18
           xangst9     2.5529356847E+00  2.5529356847E+00  2.5529356847E+00
                       7.6588070540E+00  7.6588070540E+00  7.6588070540E+00
                       5.1058713693E+00  7.6290647867E+00  5.1058713693E+00
                       5.1058713693E+00  5.1058713693E+00  2.5826779519E+00
                       5.1058713693E+00  5.1058713693E+00  7.6290647867E+00
                       5.1058713693E+00  2.5826779519E+00  5.1058713693E+00
                       7.6290647867E+00  5.1058713693E+00  5.1058713693E+00
                       2.5826779519E+00  5.1058713693E+00  5.1058713693E+00
                       1.1254356507E-18 -1.8686276121E-19  1.3365929032E-18
           xangst10    2.5248814464E+00  2.5248814464E+00  2.5248814464E+00
                       7.5746443391E+00  7.5746443391E+00  7.5746443391E+00
                       5.0497628927E+00  7.5267601659E+00  5.0497628927E+00
                       5.0497628927E+00  5.0497628927E+00  2.5727656195E+00
                       5.0497628927E+00  5.0497628927E+00  7.5267601659E+00
                       5.0497628927E+00  2.5727656195E+00  5.0497628927E+00
                       7.5267601659E+00  5.0497628927E+00  5.0497628927E+00
                       2.5727656195E+00  5.0497628927E+00  5.0497628927E+00
                       1.4446621889E-18 -5.5190565708E-19  1.6268654892E-18
            xcart1     5.2484678968E+00  5.2484678968E+00  5.2484678968E+00
                       1.5745403690E+01  1.5745403690E+01  1.5745403690E+01
                       1.0496935794E+01  1.6030690941E+01  1.0496935794E+01
                       1.0496935794E+01  1.0496935794E+01  4.9631806464E+00
                       1.0496935794E+01  1.0496935794E+01  1.6030690941E+01
                       1.0496935794E+01  4.9631806464E+00  1.0496935794E+01
                       1.6030690941E+01  1.0496935794E+01  1.0496935794E+01
                       4.9631806464E+00  1.0496935794E+01  1.0496935794E+01
                       2.6429930201E-18 -7.7938081862E-19  3.3282631976E-18
            xcart2     5.1954530696E+00  5.1954530696E+00  5.1954530696E+00
                       1.5586359209E+01  1.5586359209E+01  1.5586359209E+01
                       1.0390906139E+01  1.5824117498E+01  1.0390906139E+01
                       1.0390906139E+01  1.0390906139E+01  4.9576947805E+00
                       1.0390906139E+01  1.0390906139E+01  1.5824117498E+01
                       1.0390906139E+01  4.9576947805E+00  1.0390906139E+01
                       1.5824117498E+01  1.0390906139E+01  1.0390906139E+01
                       4.9576947805E+00  1.0390906139E+01  1.0390906139E+01
                       5.6799816044E-18 -3.2228533649E-18  3.0382666298E-18
            xcart3     5.1424382423E+00  5.1424382423E+00  5.1424382423E+00
                       1.5427314727E+01  1.5427314727E+01  1.5427314727E+01
                       1.0284876485E+01  1.5618835070E+01  1.0284876485E+01
                       1.0284876485E+01  1.0284876485E+01  4.9509178993E+00
                       1.0284876485E+01  1.0284876485E+01  1.5618835070E+01
                       1.0284876485E+01  4.9509178993E+00  1.0284876485E+01
                       1.5618835070E+01  1.0284876485E+01  1.0284876485E+01
                       4.9509178993E+00  1.0284876485E+01  1.0284876485E+01
                       6.4607850784E-18 -6.0767880254E-18  3.1043089212E-18
            xcart4     5.0894234151E+00  5.0894234151E+00  5.0894234151E+00
                       1.5268270245E+01  1.5268270245E+01  1.5268270245E+01
                       1.0178846830E+01  1.5414153888E+01  1.0178846830E+01
                       1.0178846830E+01  1.0178846830E+01  4.9435397725E+00
                       1.0178846830E+01  1.0178846830E+01  1.5414153888E+01
                       1.0178846830E+01  4.9435397725E+00  1.0178846830E+01
                       1.5414153888E+01  1.0178846830E+01  1.0178846830E+01
                       4.9435397725E+00  1.0178846830E+01  1.0178846830E+01
                       2.8905823541E-18 -1.0834432496E-18  3.2662041263E-18
            xcart5     5.0364085878E+00  5.0364085878E+00  5.0364085878E+00
                       1.5109225764E+01  1.5109225764E+01  1.5109225764E+01
                       1.0072817176E+01  1.5211231528E+01  1.0072817176E+01
                       1.0072817176E+01  1.0072817176E+01  4.9344028233E+00
                       1.0072817176E+01  1.0072817176E+01  1.5211231528E+01
                       1.0072817176E+01  4.9344028233E+00  1.0072817176E+01
                       1.5211231528E+01  1.0072817176E+01  1.0072817176E+01
                       4.9344028233E+00  1.0072817176E+01  1.0072817176E+01
                       2.5678649477E-18  2.3138393748E-18  3.2253476491E-18
            xcart6     4.9833937606E+00  4.9833937606E+00  4.9833937606E+00
                       1.4950181282E+01  1.4950181282E+01  1.4950181282E+01
                       9.9667875212E+00  1.5009846697E+01  9.9667875212E+00
                       9.9667875212E+00  9.9667875212E+00  4.9237283455E+00
                       9.9667875212E+00  9.9667875212E+00  1.5009846697E+01
                       9.9667875212E+00  4.9237283455E+00  9.9667875212E+00
                       1.5009846697E+01  9.9667875212E+00  9.9667875212E+00
                       4.9237283455E+00  9.9667875212E+00  9.9667875212E+00
                       2.8536557363E-18 -1.1828230009E-18  3.1962528134E-18
            xcart7     4.9303789334E+00  4.9303789334E+00  4.9303789334E+00
                       1.4791136800E+01  1.4791136800E+01  1.4791136800E+01
                       9.8607578667E+00  1.4810296283E+01  9.8607578667E+00
                       9.8607578667E+00  9.8607578667E+00  4.9112194505E+00
                       9.8607578667E+00  9.8607578667E+00  1.4810296283E+01
                       9.8607578667E+00  4.9112194505E+00  9.8607578667E+00
                       1.4810296283E+01  9.8607578667E+00  9.8607578667E+00
                       4.9112194505E+00  9.8607578667E+00  9.8607578667E+00
                       3.2310123586E-18 -1.6217544541E-18  3.8600340610E-18
            xcart8     4.8773641061E+00  4.8773641061E+00  4.8773641061E+00
                       1.4632092318E+01  1.4632092318E+01  1.4632092318E+01
                       9.7547282122E+00  1.4612446257E+01  9.7547282122E+00
                       9.7547282122E+00  9.7547282122E+00  4.8970101671E+00
                       9.7547282122E+00  9.7547282122E+00  1.4612446257E+01
                       9.7547282122E+00  4.8970101671E+00  9.7547282122E+00
                       1.4612446257E+01  9.7547282122E+00  9.7547282122E+00
                       4.8970101671E+00  9.7547282122E+00  9.7547282122E+00
                       1.6085918381E-18 -1.1031346336E-18  3.5590646884E-18
            xcart9     4.8243492789E+00  4.8243492789E+00  4.8243492789E+00
                       1.4473047837E+01  1.4473047837E+01  1.4473047837E+01
                       9.6486985578E+00  1.4416843097E+01  9.6486985578E+00
                       9.6486985578E+00  9.6486985578E+00  4.8805540186E+00
                       9.6486985578E+00  9.6486985578E+00  1.4416843097E+01
                       9.6486985578E+00  4.8805540186E+00  9.6486985578E+00
                       1.4416843097E+01  9.6486985578E+00  9.6486985578E+00
                       4.8805540186E+00  9.6486985578E+00  9.6486985578E+00
                       2.1267651600E-18 -3.5311944313E-19  2.5257945381E-18
            xcart10    4.7713344516E+00  4.7713344516E+00  4.7713344516E+00
                       1.4314003355E+01  1.4314003355E+01  1.4314003355E+01
                       9.5426689033E+00  1.4223515382E+01  9.5426689033E+00
                       9.5426689033E+00  9.5426689033E+00  4.8618224251E+00
                       9.5426689033E+00  9.5426689033E+00  1.4223515382E+01
                       9.5426689033E+00  4.8618224251E+00  9.5426689033E+00
                       1.4223515382E+01  9.5426689033E+00  9.5426689033E+00
                       4.8618224251E+00  9.5426689033E+00  9.5426689033E+00
                       2.7300158916E-18 -1.0429505431E-18  3.0743302295E-18
             xred1     2.5000000000E-01  2.5000000000E-01  2.5000000000E-01
                       7.5000000000E-01  7.5000000000E-01  7.5000000000E-01
                       7.6358907285E-01  2.3641092715E-01  7.6358907285E-01
                       2.3641092715E-01  2.3641092715E-01  7.6358907285E-01
                       7.6358907285E-01  7.6358907285E-01  2.3641092715E-01
                       2.3641092715E-01  7.6358907285E-01  2.3641092715E-01
                       2.3641092715E-01  7.6358907285E-01  7.6358907285E-01
                       7.6358907285E-01  2.3641092715E-01  2.3641092715E-01
                      -4.4827673062E-21  3.2155274497E-19 -6.9765645178E-20
             xred2     2.5000000000E-01  2.5000000000E-01  2.5000000000E-01
                       7.5000000000E-01  7.5000000000E-01  7.5000000000E-01
                       7.6144069083E-01  2.3855930917E-01  7.6144069083E-01
                       2.3855930917E-01  2.3855930917E-01  7.6144069083E-01
                       7.6144069083E-01  7.6144069083E-01  2.3855930917E-01
                       2.3855930917E-01  7.6144069083E-01  2.3855930917E-01
                       2.3855930917E-01  7.6144069083E-01  7.6144069083E-01
                       7.6144069083E-01  2.3855930917E-01  2.3855930917E-01
                      -2.8219715687E-19  5.7459385347E-19 -2.7963797506E-20
             xred3     2.5000000000E-01  2.5000000000E-01  2.5000000000E-01
                       7.5000000000E-01  7.5000000000E-01  7.5000000000E-01
                       7.5931077506E-01  2.4068922494E-01  7.5931077506E-01
                       2.4068922494E-01  2.4068922494E-01  7.5931077506E-01
                       7.5931077506E-01  7.5931077506E-01  2.4068922494E-01
                       2.4068922494E-01  7.5931077506E-01  2.4068922494E-01
                       2.4068922494E-01  7.5931077506E-01  7.5931077506E-01
                       7.5931077506E-01  2.4068922494E-01  2.4068922494E-01
                      -4.5859880751E-19  7.6043120442E-19 -1.3224815447E-19
             xred4     2.5000000000E-01  2.5000000000E-01  2.5000000000E-01
                       7.5000000000E-01  7.5000000000E-01  7.5000000000E-01
                       7.5716602013E-01  2.4283397987E-01  7.5716602013E-01
                       2.4283397987E-01  2.4283397987E-01  7.5716602013E-01
                       7.5716602013E-01  7.5716602013E-01  2.4283397987E-01
                       2.4283397987E-01  7.5716602013E-01  2.4283397987E-01
                       2.4283397987E-01  7.5716602013E-01  7.5716602013E-01
                       7.5716602013E-01  2.4283397987E-01  2.4283397987E-01
                      -3.4769237090E-20  3.5565078495E-19 -7.1671430278E-20
             xred5     2.5000000000E-01  2.5000000000E-01  2.5000000000E-01
                       7.5000000000E-01  7.5000000000E-01  7.5000000000E-01
                       7.5506341785E-01  2.4493658215E-01  7.5506341785E-01
                       2.4493658215E-01  2.4493658215E-01  7.5506341785E-01
                       7.5506341785E-01  7.5506341785E-01  2.4493658215E-01
                       2.4493658215E-01  7.5506341785E-01  2.4493658215E-01
                       2.4493658215E-01  7.5506341785E-01  7.5506341785E-01
                       7.5506341785E-01  2.4493658215E-01  2.4493658215E-01
                       1.4749210794E-19  1.7271102817E-19  8.2219137136E-20
             xred6     2.5000000000E-01  2.5000000000E-01  2.5000000000E-01
                       7.5000000000E-01  7.5000000000E-01  7.5000000000E-01
                       7.5299321195E-01  2.4700678805E-01  7.5299321195E-01
                       2.4700678805E-01  2.4700678805E-01  7.5299321195E-01
                       7.5299321195E-01  7.5299321195E-01  2.4700678805E-01
                       2.4700678805E-01  7.5299321195E-01  2.4700678805E-01
                       2.4700678805E-01  7.5299321195E-01  7.5299321195E-01
                       7.5299321195E-01  2.4700678805E-01  2.4700678805E-01
                      -4.2151291083E-20  3.6284166464E-19 -7.6525162933E-20
             xred7     2.5000000000E-01  2.5000000000E-01  2.5000000000E-01
                       7.5000000000E-01  7.5000000000E-01  7.5000000000E-01
                       7.5097150154E-01  2.4902849846E-01  7.5097150154E-01
                       2.4902849846E-01  2.4902849846E-01  7.5097150154E-01
                       7.5097150154E-01  7.5097150154E-01  2.4902849846E-01
                       2.4902849846E-01  7.5097150154E-01  2.4902849846E-01
                       2.4902849846E-01  7.5097150154E-01  7.5097150154E-01
                       7.5097150154E-01  2.4902849846E-01  2.4902849846E-01
                      -5.0337548342E-20  4.4179164479E-19 -1.1412794975E-19
             xred8     2.5000000000E-01  2.5000000000E-01  2.5000000000E-01
                       7.5000000000E-01  7.5000000000E-01  7.5000000000E-01
                       7.4899299803E-01  2.5100700197E-01  7.4899299803E-01
                       2.5100700197E-01  2.5100700197E-01  7.4899299803E-01
                       7.4899299803E-01  7.4899299803E-01  2.5100700197E-01
                       2.5100700197E-01  7.4899299803E-01  2.5100700197E-01
                       2.5100700197E-01  7.4899299803E-01  7.4899299803E-01
                       7.4899299803E-01  2.5100700197E-01  2.5100700197E-01
                       4.3432179672E-20  3.2142316134E-19 -1.5651935233E-19
             xred9     2.5000000000E-01  2.5000000000E-01  2.5000000000E-01
                       7.5000000000E-01  7.5000000000E-01  7.5000000000E-01
                       7.4708744452E-01  2.5291255548E-01  7.4708744452E-01
                       2.5291255548E-01  2.5291255548E-01  7.4708744452E-01
                       7.4708744452E-01  7.4708744452E-01  2.5291255548E-01
                       2.5291255548E-01  7.4708744452E-01  2.5291255548E-01
                       2.5291255548E-01  7.4708744452E-01  7.4708744452E-01
                       7.4708744452E-01  2.5291255548E-01  2.5291255548E-01
                       2.3790739629E-21  2.5939659692E-19 -3.8976698090E-20
             xred10    2.5000000000E-01  2.5000000000E-01  2.5000000000E-01
                       7.5000000000E-01  7.5000000000E-01  7.5000000000E-01
                       7.4525877014E-01  2.5474122986E-01  7.4525877014E-01
                       2.5474122986E-01  2.5474122986E-01  7.4525877014E-01
                       7.4525877014E-01  7.4525877014E-01  2.5474122986E-01
                       2.5474122986E-01  7.4525877014E-01  2.5474122986E-01
                       2.5474122986E-01  7.4525877014E-01  7.4525877014E-01
                       7.4525877014E-01  2.5474122986E-01  2.5474122986E-01
                      -3.6605912468E-20  3.5877262083E-19 -7.2687467994E-20
            znucl       55.00000   35.00000   72.00000

- Timing analysis has been suppressed with timopt=0

 Suggested references for the acknowledgment of ABINIT usage.

 Calculation completed.
.Delivered   0 WARNINGs and  50 COMMENTs to log file.