.Version 9.2.2 of ABINIT

 ABINIT is a project of the Universite Catholique de Louvain,
 Corning Inc. and other collaborators, see ~abinit/doc/developers/contributors.txt .
 acknowledgments of the ABINIT effort.

.Starting date : Mon 17 Jul 2023.
- ( at 13h43 )

- The starting date is more than 2 years after the initial release
- of this version of ABINIT, namely Nov 2020.
- Note that the use beyond 3 years after the release will not be supported.
- Action: please, switch to a more recent version of ABINIT.

- input  file    -> Cs2TiI6.in
- output file    -> Cs2TiI6.out
- root for input  files -> Cs2TiI6i
- root for output files -> Cs2TiI6o

 Symmetries : space group I4 m m (#107); Bravais tI (body-center tetrag.)
     intxc =       0    ionmov =       0      iscf =      17    lmnmax =       8
     lnmax =       8     mgfft =      60  mpssoang =       4    mqgrid =    3001
     natom =       9  nloc_mem =       1    nspden =       1   nspinor =       1
    nsppol =       1      nsym =       8    n1xccc =    2501    ntypat =       4
    occopt =       1   xclevel =       2
-    mband =          42        mffmem =           1         mkmem =           1
       mpw =        8424          nfft =      216000          nkpt =           4
  Rough estimation (10% accuracy) of disk space for files :

------------- Echo of variables that govern the present computation ------------
-
- outvars: echo of selected default values
-   iomode0 =  0 , fftalg0 =112 , wfoptalg0 =  0
-
- outvars: echo of global parameters not present in the input file
-  max_nthreads =    0
-
 -outvars: echo values of preprocessed input variables --------
            acell      1.3954825348E+01  1.4226742997E+01  1.3954825348E+01 Bohr
              amu      1.32905430E+02  1.26904470E+02  1.78490000E+02
                       3.54527000E+01
           diemac      1.20000000E+01
             ecut      2.00000000E+01 Hartree
-          fftalg         112
             iscf          17
           istwfk        1    1    1    1
              ixc        -428
              kpt      0.00000000E+00  0.00000000E+00  0.00000000E+00
                       5.00000000E-01  0.00000000E+00  0.00000000E+00
                       5.00000000E-01  5.00000000E-01  0.00000000E+00
                       5.00000000E-01  0.00000000E+00  5.00000000E-01
         kptns_hf      0.00000000E+00  0.00000000E+00  0.00000000E+00
                       5.00000000E-01  0.00000000E+00  0.00000000E+00
                       0.00000000E+00  5.00000000E-01  0.00000000E+00
                       5.00000000E-01  5.00000000E-01  0.00000000E+00
                       0.00000000E+00  0.00000000E+00  5.00000000E-01
                       5.00000000E-01  0.00000000E+00  5.00000000E-01
                       0.00000000E+00  5.00000000E-01  5.00000000E-01
                       5.00000000E-01  5.00000000E-01  5.00000000E-01
         kptrlatt        2    0    0      0    2    0      0    0    2
          kptrlen      2.79096507E+01
P           mkmem           1
            natom           9
            nband          42
          nbandhf          36
            ngfft          60      60      60
             nkpt           4
           nkpthf           8
-           npkpt           4
            nstep        2500
             nsym           8
           ntypat           4
              occ      2.000000  2.000000  2.000000  2.000000  2.000000  2.000000
                       2.000000  2.000000  2.000000  2.000000  2.000000  2.000000
                       2.000000  2.000000  2.000000  2.000000  2.000000  2.000000
                       2.000000  2.000000  2.000000  2.000000  2.000000  2.000000
                       2.000000  2.000000  2.000000  2.000000  2.000000  2.000000
                       2.000000  2.000000  2.000000  2.000000  2.000000  2.000000
                       0.000000  0.000000  0.000000  0.000000  0.000000  0.000000
            rprim      0.0000000000E+00  6.9305453748E-01  7.2088515596E-01
                       7.0710678119E-01  0.0000000000E+00  7.0710678119E-01
                       7.2088515596E-01  6.9305453748E-01  0.0000000000E+00
          spgroup         107
           symrel      1  0  0   0  1  0   0  0  1       0  0  1   0  1  0   1  0  0
                       0 -1  1   0 -1  0   1 -1  0       1 -1  0   0 -1  0   0 -1  1
                       0 -1  1  -1  0  1   0  0  1       0  0  1  -1  0  1   0 -1  1
                       1  0  0   1  0 -1   1 -1  0       1 -1  0   1  0 -1   1  0  0
           toldfe      1.00000000E-08 Hartree
            typat      1  1  2  4  4  4  4  4  3
          usefock           1
              wtk        0.12500    0.50000    0.25000    0.12500
           xangst      2.6617154392E+00  2.6190863347E+00  2.6617154392E+00
                       7.9851463175E+00  7.7369999089E+00  7.9851463175E+00
                       5.3234308783E+00  7.4524840186E+00  5.3234308783E+00
                       5.3234308783E+00  5.1335768850E+00  2.4510090185E+00
                       5.3234308783E+00  5.1335768850E+00  8.1958527382E+00
                       5.3234308783E+00  2.5204051654E+00  5.3234308783E+00
                       8.1958527382E+00  5.1335768850E+00  5.3234308783E+00
                       2.4510090185E+00  5.1335768850E+00  5.3234308783E+00
                      -1.5928982202E-13  8.0025626439E-02 -1.5928982202E-13
            xcart      5.0299132237E+00  4.9493558909E+00  5.0299132237E+00
                       1.5089739671E+01  1.4620810918E+01  1.5089739671E+01
                       1.0059826447E+01  1.4083153805E+01  1.0059826447E+01
                       1.0059826447E+01  9.7010543947E+00  4.6317357941E+00
                       1.0059826447E+01  9.7010543947E+00  1.5487917101E+01
                       1.0059826447E+01  4.7628755066E+00  1.0059826447E+01
                       1.5487917101E+01  9.7010543947E+00  1.0059826447E+01
                       4.6317357941E+00  9.7010543947E+00  1.0059826447E+01
                      -3.0101413936E-13  1.5122651758E-01 -3.0101413936E-13
             xred      2.5587441998E-01  2.4412558002E-01  2.5587441998E-01
                       7.5587441998E-01  7.4412558002E-01  7.5587441998E-01
                       7.2807833802E-01  2.7192166198E-01  7.2807833802E-01
                       2.3173977165E-01  2.2867928412E-01  7.7132071588E-01
                       7.7132071588E-01  7.6826022835E-01  2.3173977165E-01
                       2.4623365839E-01  7.5376634161E-01  2.4623365839E-01
                       2.3173977165E-01  7.6826022835E-01  7.7132071588E-01
                       7.7132071588E-01  2.2867928412E-01  2.3173977165E-01
                       7.8181885330E-03 -7.8181885330E-03  7.8181885330E-03
            znucl       55.00000   53.00000   72.00000   17.00000

 chkinp: Checking input parameters for consistency.

== DATASET  1 ==================================================================
-   mpi_nproc: 4, omp_nthreads: -1 (-1 if OMP is not activated)

--- !DatasetInfo
iteration_state: {dtset: 1, }
dimensions: {natom: 9, nkpt: 4, mband: 42, nsppol: 1, nspinor: 1, nspden: 1, mpw: 8424, }
cutoff_energies: {ecut:  20.0, pawecutdg:  -1.0, }
electrons: {nelect:   7.20000000E+01, charge:   0.00000000E+00, occopt:   1.00000000E+00, tsmear:   1.00000000E-02, }
meta: {optdriver: 0, ionmov: 0, optcell: 0, iscf: 17, paral_kgb: 0, }
...

 Real(R)+Recip(G) space primitive vectors, cartesian coordinates (Bohr,Bohr^-1):
 R(1)=  0.0000000  9.6714550 10.0598264  G(1)= -0.0497026  0.0516985  0.0497026
 R(2)= 10.0598264  0.0000000 10.0598264  G(2)=  0.0497026 -0.0516985  0.0497026
 R(3)= 10.0598264  9.6714550  0.0000000  G(3)=  0.0497026  0.0516985 -0.0497026
 Unit cell volume ucvol=  1.9575046E+03 bohr^3
 Angles (23,13,12)=  5.93533019E+01  6.12933962E+01  5.93533019E+01 degrees

 getcut: wavevector=  0.0000  0.0000  0.0000  ngfft=  60  60  60
         ecut(hartree)=     20.000   => boxcut(ratio)=   2.09491

--- Pseudopotential description ------------------------------------------------
- pspini: atom type   1  psp file is ../../../Psps_for_tests/ONCVPSP-PBE-PDv0.4/Cs-sp.psp8
- pspatm: opening atomic psp file    ../../../Psps_for_tests/ONCVPSP-PBE-PDv0.4/Cs-sp.psp8
- Cs    ONCVPSP-3.2.3.1  r_core=   2.27353   1.85623   2.01788   1.90105
- 55.00000   9.00000    170703                znucl, zion, pspdat
    8   32    3    4       600   0.00000      pspcod,pspxc,lmax,lloc,mmax,r2well
    5.99000000000000    5.00000000000000    0.00000000000000   rchrg,fchrg,qchrg
     nproj     2     2     2     2
     extension_switch     1
  pspatm : epsatm=   22.81663475
         --- l  ekb(1:nproj) -->
             0    6.176104    0.756334
             1    6.263084    0.786397
             2    3.737592    0.906929
             3   -9.272327   -2.535859
 pspatm: atomic psp has been read  and splines computed

- pspini: atom type   2  psp file is ../../../Psps_for_tests/ONCVPSP-PBE-PDv0.4/I.psp8
- pspatm: opening atomic psp file    ../../../Psps_for_tests/ONCVPSP-PBE-PDv0.4/I.psp8
- I     ONCVPSP-3.2.3.1  r_core=   2.02042   2.17032   2.27639
- 53.00000   7.00000    170510                znucl, zion, pspdat
    8   32    2    4       600   0.00000      pspcod,pspxc,lmax,lloc,mmax,r2well
    5.99000000000000    4.00000000000000    0.00000000000000   rchrg,fchrg,qchrg
     nproj     2     2     2
     extension_switch     1
  pspatm : epsatm=   19.17050482
         --- l  ekb(1:nproj) -->
             0    5.955518    0.916455
             1    4.011347    0.742302
             2    4.134838    0.711910
 pspatm: atomic psp has been read  and splines computed

- pspini: atom type   3  psp file is ../../../Psps_for_tests/ONCVPSP-PBE-PDv0.4/Hf-sp.psp8
- pspatm: opening atomic psp file    ../../../Psps_for_tests/ONCVPSP-PBE-PDv0.4/Hf-sp.psp8
- Hf    ONCVPSP-3.2.3.1  r_core=   1.71613   1.71613   1.71613   2.42541
- 72.00000  12.00000    170501                znucl, zion, pspdat
    8   32    3    4       600   0.00000      pspcod,pspxc,lmax,lloc,mmax,r2well
    5.99000000000000    5.40000000000000    0.00000000000000   rchrg,fchrg,qchrg
     nproj     2     2     2     2
     extension_switch     1
  pspatm : epsatm=   21.94432712
         --- l  ekb(1:nproj) -->
             0    5.751490   -0.631383
             1   -2.986358    2.305386
             2    1.422276    0.146986
             3    8.827595    0.343102
 pspatm: atomic psp has been read  and splines computed

- pspini: atom type   4  psp file is ../../../Psps_for_tests/ONCVPSP-PBE-PDv0.4/Cl.psp8
- pspatm: opening atomic psp file    ../../../Psps_for_tests/ONCVPSP-PBE-PDv0.4/Cl.psp8
- Cl    ONCVPSP-3.2.3.1  r_core=   1.56009   1.35202   1.75774
- 17.00000   7.00000    170504                znucl, zion, pspdat
    8   32    2    4       600   0.00000      pspcod,pspxc,lmax,lloc,mmax,r2well
    5.99000000000000    8.00000000000000    0.00000000000000   rchrg,fchrg,qchrg
     nproj     2     2     2
     extension_switch     1
  pspatm : epsatm=    9.12776994
         --- l  ekb(1:nproj) -->
             0    8.139296    0.698720
             1    3.821713    1.107519
             2   -2.938609   -0.805455
 pspatm: atomic psp has been read  and splines computed

   9.53186048E+03                                ecore*ucvol(ha*bohr**3)

_setup2: Arith. and geom. avg. npw (full set) are    8371.875    8371.840

--- !BeginCycle
iteration_state: {dtset: 1, }
solver: {iscf: 17, nstep: 2500, nline: 4, wfoptalg: 0, }
tolerances: {toldfe: 1.00E-08, }
...

     iter   Etot(hartree)      deltaE(h)  residm     nres2
 ETOT  1  -193.02565550106    -1.930E+02 1.850E-02 3.883E+00
 ETOT  2  -198.76881556626    -5.743E+00 8.171E-03 4.216E+00
 ETOT  3  -198.76048478405     8.331E-03 1.663E-03 1.430E+00
 ETOT  4  -198.73972054285     2.076E-02 6.943E-04 4.019E-02
 ETOT  5  -198.74187070368    -2.150E-03 4.377E-04 1.867E-02
 ETOT  6  -198.74187049370     2.100E-07 3.451E-04 4.962E-03
 ETOT  7  -198.74180987509     6.062E-05 7.128E-04 5.120E-04
 ETOT  8  -198.74181142777    -1.553E-06 4.267E-04 1.017E-04
 ETOT  9  -198.74181157547    -1.477E-07 6.970E-04 1.114E-05
 ETOT 10  -198.74181148516     9.031E-08 3.596E-04 8.303E-07
 ETOT 11  -198.74181153335    -4.819E-08 3.350E-04 4.285E-07
 ETOT 12  -198.74181152940     3.948E-09 1.492E-04 8.916E-08
 ETOT 13  -198.74181151726     1.214E-08 1.106E-04 1.145E-08
 ETOT 14  -198.74181151716     9.720E-11 9.474E-05 8.026E-10
 ETOT 15  -198.74181152881    -1.164E-08 1.019E-04 2.864E-10
 ETOT 16  -198.74181152880     7.105E-12 1.068E-04 9.376E-12
 ETOT 17  -198.74181152880    -2.643E-12 1.101E-04 2.556E-12

 At SCF step   17, etot is converged :
  for the second time, diff in etot=  2.643E-12 < toldfe=  1.000E-08

 Cartesian components of stress tensor (hartree/bohr^3)
  sigma(1 1)= -1.51053521E-05  sigma(3 2)=  4.92183596E-15
  sigma(2 2)= -1.73468905E-05  sigma(3 1)= -9.46273150E-15
  sigma(3 3)= -1.51053521E-05  sigma(2 1)=  4.92185718E-15

--- !ResultsGS
iteration_state: {dtset: 1, }
comment   : Summary of ground state results
lattice_vectors:
- [  0.0000000,   9.6714550,  10.0598264, ]
- [ 10.0598264,   0.0000000,  10.0598264, ]
- [ 10.0598264,   9.6714550,   0.0000000, ]
lattice_lengths: [  13.95483,   14.22674,   13.95483, ]
lattice_angles: [ 59.353,  61.293,  59.353, ] # degrees, (23, 13, 12)
lattice_volume:   1.9575046E+03
convergence: {deltae: -2.643E-12, res2:  2.556E-12, residm:  1.101E-04, diffor: null, }
etotal    :  -1.98741812E+02
entropy   :   0.00000000E+00
fermie    :   4.34568959E-02
cartesian_stress_tensor: # hartree/bohr^3
- [ -1.51053521E-05,   4.92185718E-15,  -9.46273150E-15, ]
- [  4.92185718E-15,  -1.73468905E-05,   4.92183596E-15, ]
- [ -9.46273150E-15,   4.92183596E-15,  -1.51053521E-05, ]
pressure_GPa:   4.6640E-01
xred      :
- [  2.5587E-01,   2.4413E-01,   2.5587E-01, Cs]
- [  7.5587E-01,   7.4413E-01,   7.5587E-01, Cs]
- [  7.2808E-01,   2.7192E-01,   7.2808E-01,  I]
- [  2.3174E-01,   2.2868E-01,   7.7132E-01, Cl]
- [  7.7132E-01,   7.6826E-01,   2.3174E-01, Cl]
- [  2.4623E-01,   7.5377E-01,   2.4623E-01, Cl]
- [  2.3174E-01,   7.6826E-01,   7.7132E-01, Cl]
- [  7.7132E-01,   2.2868E-01,   2.3174E-01, Cl]
- [  7.8182E-03,  -7.8182E-03,   7.8182E-03, Hf]
cartesian_forces: # hartree/bohr
- [ -5.22906897E-20,   4.72724935E-05,   8.22020530E-20, ]
- [ -5.22906897E-20,   4.72724935E-05,   8.22020530E-20, ]
- [ -4.38144505E-20,   1.41013882E-03,   7.37258137E-20, ]
- [  5.62505281E-15,   2.42352380E-04,  -2.93944730E-03, ]
- [ -5.62480756E-15,   2.42352380E-04,   2.93944730E-03, ]
- [  2.96126735E-20,  -3.09084092E-03,   2.98689803E-22, ]
- [  2.93944730E-03,   2.42352380E-04,  -5.62498043E-15, ]
- [ -2.93944730E-03,   2.42352380E-04,   5.62495763E-15, ]
- [ -1.50912765E-20,   6.16747596E-04,   4.50026398E-20, ]
force_length_stats: {min:   4.72724935E-05, max:   3.09084092E-03, mean:   1.88999521E-03, }
...

 Integrated electronic density in atomic spheres:
 Atom  Sphere_radius  Integrated_density
    1        2.00000          4.47251867
    2        2.00000          4.47251867
    3        2.00000          2.88728318
    4        2.00000          5.10417578
    5        2.00000          5.10417578
    6        2.00000          5.09362472
    7        2.00000          5.10417578
    8        2.00000          5.10417578
    9        2.00000          8.21789029

 ----iterations are completed or convergence reached----

 Mean square residual over all n,k,spin=   13.883E-07; max=  11.009E-05
 reduced coordinates (array xred) for    9 atoms
       0.255874419980      0.244125580020      0.255874419980
       0.755874419980      0.744125580020      0.755874419980
       0.728078338020      0.271921661980      0.728078338020
       0.231739771650      0.228679284120      0.771320715880
       0.771320715880      0.768260228350      0.231739771650
       0.246233658390      0.753766341610      0.246233658390
       0.231739771650      0.768260228350      0.771320715880
       0.771320715880      0.228679284120      0.231739771650
       0.007818188533     -0.007818188533      0.007818188533
 rms dE/dt=  1.8530E-02; max dE/dt=  2.9918E-02; dE/dt below (all hartree)
    1      -0.000431935080      0.000000000000     -0.000431935080
    2      -0.000431935080      0.000000000000     -0.000431935080
    3      -0.013612835451      0.000000000000     -0.013612835451
    4       0.027251688240      0.029570329668     -0.002318641428
    5      -0.031888971096     -0.029570329668     -0.002318641428
    6       0.029918187678      0.000000000000      0.029918187678
    7      -0.002318641428     -0.029570329668     -0.031888971096
    8      -0.002318641428      0.029570329668      0.027251688240
    9      -0.005939587923      0.000000000000     -0.005939587923

 cartesian coordinates (angstrom) at end:
    1      2.66171543916917     2.61908633465475     2.66171543916917
    2      7.98514631750775     7.73699990893752     7.98514631750775
    3      5.32343087833394     7.45248401858759     5.32343087833394
    4      5.32343087833305     5.13357688495648     2.45100901846148
    5      5.32343087834405     5.13357688495648     8.19585273821562
    6      5.32343087834375     2.52040516543898     5.32343087834375
    7      8.19585273821562     5.13357688495648     5.32343087834405
    8      2.45100901846148     5.13357688495648     5.32343087833305
    9     -0.00000000000016     0.08002562643869    -0.00000000000016

 cartesian forces (hartree/bohr) at end:
    1     -0.00000000000000     0.00004727249349     0.00000000000000
    2     -0.00000000000000     0.00004727249349     0.00000000000000
    3     -0.00000000000000     0.00141013881855     0.00000000000000
    4      0.00000000000001     0.00024235237988    -0.00293944729787
    5     -0.00000000000001     0.00024235237989     0.00293944729787
    6      0.00000000000000    -0.00309084092104     0.00000000000000
    7      0.00293944729787     0.00024235237989    -0.00000000000001
    8     -0.00293944729787     0.00024235237988     0.00000000000001
    9     -0.00000000000000     0.00061674759597     0.00000000000000
 frms,max,avg= 1.3154773E-03 3.0908409E-03   0.000E+00 -2.612E-06  0.000E+00 h/b

 cartesian forces (eV/Angstrom) at end:
    1     -0.00000000000000     0.00243084914770     0.00000000000000
    2     -0.00000000000000     0.00243084914770     0.00000000000000
    3     -0.00000000000000     0.07251224743746     0.00000000000000
    4      0.00000000000029     0.01246225939289    -0.15115244470105
    5     -0.00000000000029     0.01246225939349     0.15115244470105
    6      0.00000000000000    -0.15893741715901     0.00000000000000
    7      0.15115244470105     0.01246225939349    -0.00000000000029
    8     -0.15115244470105     0.01246225939289     0.00000000000029
    9     -0.00000000000000     0.03171443385339     0.00000000000000
 frms,max,avg= 6.7644558E-02 1.5893742E-01   0.000E+00 -1.343E-04  0.000E+00 e/A
 length scales= 13.954825348000 14.226742997000 13.954825348000 bohr
              =  7.384575524016  7.528468146480  7.384575524016 angstroms
 prteigrs : about to open file Cs2TiI6o_EIG
 Fermi (or HOMO) energy (hartree) =   0.04346   Average Vxc (hartree)=  -0.26036
 Eigenvalues (hartree) for nkpt=   4  k points:
 kpt#   1, nband= 42, wtk=  0.12500, kpt=  0.0000  0.0000  0.0000 (reduced coord)
  -2.36751   -1.15594   -1.15594   -1.15491   -0.73796   -0.73711   -0.54142   -0.52324
  -0.52238   -0.51998   -0.51998   -0.38759   -0.22769   -0.22713   -0.22713   -0.22085
  -0.22085   -0.21955   -0.13933   -0.09072   -0.08290   -0.07954   -0.07889   -0.07889
  -0.07344   -0.07344   -0.05867   -0.03685   -0.03172   -0.03172   -0.01654   -0.01654
  -0.01280    0.02213    0.04346    0.04346    0.18923    0.18923    0.19530    0.25842
   0.26858    0.27083
 prteigrs : prtvol=0 or 1, do not print more k-points.

--- !EnergyTerms
iteration_state     : {dtset: 1, }
comment             : Components of total free energy in Hartree
kinetic             :  5.57248013202156E+01
hartree             :  4.08869336027816E+01
xc                  : -4.89603936812262E+01
Ewald energy        : -1.28229251274200E+02
psp_core            :  4.86939368256524E+00
local_psp           : -1.39828303122792E+02
non_local_psp+x     :  1.67950086123505E+01
total_energy        : -1.98741810860305E+02
...

--- !EnergyTermsDC
iteration_state     : {dtset: 1, }
comment             : '"Double-counting" decomposition of free energy'
band_energy         : -2.50558654671181E+01
Ewald energy        : -1.28229251274200E+02
psp_core            :  4.86939368256524E+00
xc_dc               : -5.03260884700499E+01
total_energy_dc     : -1.98741811528803E+02
...

 Cartesian components of stress tensor (hartree/bohr^3)
  sigma(1 1)= -1.51053521E-05  sigma(3 2)=  4.92183596E-15
  sigma(2 2)= -1.73468905E-05  sigma(3 1)= -9.46273150E-15
  sigma(3 3)= -1.51053521E-05  sigma(2 1)=  4.92185718E-15

-Cartesian components of stress tensor (GPa)         [Pressure=  4.6640E-01 GPa]
- sigma(1 1)= -4.44414726E-01  sigma(3 2)=  1.44805389E-10
- sigma(2 2)= -5.10363053E-01  sigma(3 1)= -2.78403126E-10
- sigma(3 3)= -4.44414726E-01  sigma(2 1)=  1.44806013E-10

== END DATASET(S) ==============================================================

 -outvars: echo values of variables after computation  --------
            acell      1.3954825348E+01  1.4226742997E+01  1.3954825348E+01 Bohr
              amu      1.32905430E+02  1.26904470E+02  1.78490000E+02
                       3.54527000E+01
           diemac      1.20000000E+01
             ecut      2.00000000E+01 Hartree
           etotal     -1.9874181153E+02
            fcart     -5.2290689714E-20  4.7272493494E-05  8.2202052968E-20
                      -5.2290689714E-20  4.7272493494E-05  8.2202052968E-20
                      -4.3814450457E-20  1.4101388186E-03  7.3725813711E-20
                       5.6250528130E-15  2.4235237988E-04 -2.9394472979E-03
                      -5.6248075642E-15  2.4235237989E-04  2.9394472979E-03
                       2.9612673451E-20 -3.0908409210E-03  2.9868980296E-22
                       2.9394472979E-03  2.4235237989E-04 -5.6249804271E-15
                      -2.9394472979E-03  2.4235237988E-04  5.6249576313E-15
                      -1.5091276526E-20  6.1674759597E-04  4.5002639780E-20
-          fftalg         112
             iscf          17
           istwfk        1    1    1    1
              ixc        -428
              kpt      0.00000000E+00  0.00000000E+00  0.00000000E+00
                       5.00000000E-01  0.00000000E+00  0.00000000E+00
                       5.00000000E-01  5.00000000E-01  0.00000000E+00
                       5.00000000E-01  0.00000000E+00  5.00000000E-01
         kptns_hf      0.00000000E+00  0.00000000E+00  0.00000000E+00
                       5.00000000E-01  0.00000000E+00  0.00000000E+00
                       0.00000000E+00  5.00000000E-01  0.00000000E+00
                       5.00000000E-01  5.00000000E-01  0.00000000E+00
                       0.00000000E+00  0.00000000E+00  5.00000000E-01
                       5.00000000E-01  0.00000000E+00  5.00000000E-01
                       0.00000000E+00  5.00000000E-01  5.00000000E-01
                       5.00000000E-01  5.00000000E-01  5.00000000E-01
         kptrlatt        2    0    0      0    2    0      0    0    2
          kptrlen      2.79096507E+01
P           mkmem           1
            natom           9
            nband          42
          nbandhf          36
            ngfft          60      60      60
             nkpt           4
           nkpthf           8
-           npkpt           4
            nstep        2500
             nsym           8
           ntypat           4
              occ      2.000000  2.000000  2.000000  2.000000  2.000000  2.000000
                       2.000000  2.000000  2.000000  2.000000  2.000000  2.000000
                       2.000000  2.000000  2.000000  2.000000  2.000000  2.000000
                       2.000000  2.000000  2.000000  2.000000  2.000000  2.000000
                       2.000000  2.000000  2.000000  2.000000  2.000000  2.000000
                       2.000000  2.000000  2.000000  2.000000  2.000000  2.000000
                       0.000000  0.000000  0.000000  0.000000  0.000000  0.000000
            rprim      0.0000000000E+00  6.9305453748E-01  7.2088515596E-01
                       7.0710678119E-01  0.0000000000E+00  7.0710678119E-01
                       7.2088515596E-01  6.9305453748E-01  0.0000000000E+00
          spgroup         107
           strten     -1.5105352067E-05 -1.7346890519E-05 -1.5105352067E-05
                       4.9218359609E-15 -9.4627315033E-15  4.9218571792E-15
           symrel      1  0  0   0  1  0   0  0  1       0  0  1   0  1  0   1  0  0
                       0 -1  1   0 -1  0   1 -1  0       1 -1  0   0 -1  0   0 -1  1
                       0 -1  1  -1  0  1   0  0  1       0  0  1  -1  0  1   0 -1  1
                       1  0  0   1  0 -1   1 -1  0       1 -1  0   1  0 -1   1  0  0
           toldfe      1.00000000E-08 Hartree
            typat      1  1  2  4  4  4  4  4  3
          usefock           1
              wtk        0.12500    0.50000    0.25000    0.12500
           xangst      2.6617154392E+00  2.6190863347E+00  2.6617154392E+00
                       7.9851463175E+00  7.7369999089E+00  7.9851463175E+00
                       5.3234308783E+00  7.4524840186E+00  5.3234308783E+00
                       5.3234308783E+00  5.1335768850E+00  2.4510090185E+00
                       5.3234308783E+00  5.1335768850E+00  8.1958527382E+00
                       5.3234308783E+00  2.5204051654E+00  5.3234308783E+00
                       8.1958527382E+00  5.1335768850E+00  5.3234308783E+00
                       2.4510090185E+00  5.1335768850E+00  5.3234308783E+00
                      -1.5928982202E-13  8.0025626439E-02 -1.5928982202E-13
            xcart      5.0299132237E+00  4.9493558909E+00  5.0299132237E+00
                       1.5089739671E+01  1.4620810918E+01  1.5089739671E+01
                       1.0059826447E+01  1.4083153805E+01  1.0059826447E+01
                       1.0059826447E+01  9.7010543947E+00  4.6317357941E+00
                       1.0059826447E+01  9.7010543947E+00  1.5487917101E+01
                       1.0059826447E+01  4.7628755066E+00  1.0059826447E+01
                       1.5487917101E+01  9.7010543947E+00  1.0059826447E+01
                       4.6317357941E+00  9.7010543947E+00  1.0059826447E+01
                      -3.0101413936E-13  1.5122651758E-01 -3.0101413936E-13
             xred      2.5587441998E-01  2.4412558002E-01  2.5587441998E-01
                       7.5587441998E-01  7.4412558002E-01  7.5587441998E-01
                       7.2807833802E-01  2.7192166198E-01  7.2807833802E-01
                       2.3173977165E-01  2.2867928412E-01  7.7132071588E-01
                       7.7132071588E-01  7.6826022835E-01  2.3173977165E-01
                       2.4623365839E-01  7.5376634161E-01  2.4623365839E-01
                       2.3173977165E-01  7.6826022835E-01  7.7132071588E-01
                       7.7132071588E-01  2.2867928412E-01  2.3173977165E-01
                       7.8181885330E-03 -7.8181885330E-03  7.8181885330E-03
            znucl       55.00000   53.00000   72.00000   17.00000

- Timing analysis has been suppressed with timopt=0

 Suggested references for the acknowledgment of ABINIT usage.

 Calculation completed.
.Delivered   0 WARNINGs and   0 COMMENTs to log file.