.Version 9.2.2 of ABINIT

 ABINIT is a project of the Universite Catholique de Louvain,
 Corning Inc. and other collaborators, see ~abinit/doc/developers/contributors.txt .
 acknowledgments of the ABINIT effort.

.Starting date : Wed 26 Jul 2023.
- ( at 17h21 )

- The starting date is more than 2 years after the initial release
- of this version of ABINIT, namely Nov 2020.
- Note that the use beyond 3 years after the release will not be supported.
- Action: please, switch to a more recent version of ABINIT.

- input  file    -> Cs2TiI6.in
- output file    -> Cs2TiI6.out
- root for input  files -> Cs2TiI6i
- root for output files -> Cs2TiI6o

- inpspheads : Reading pseudopotential header in XML form from
-   ../../../Psps_for_tests/ATOMICDATA/Cs.GGA_PBE-JTH.xml
- inpspheads : Reading pseudopotential header in XML form from
-   ../../../Psps_for_tests/ATOMICDATA/I.GGA_PBE-JTH.xml
- inpspheads : Reading pseudopotential header in XML form from
-   ../../../Psps_for_tests/ATOMICDATA/Hf.GGA_PBE-JTH.xml

 DATASET    1 : space group Fm -3 m (#225); Bravais cF (face-center cubic)
     intxc =       0    ionmov =       2      iscf =      17    lmnmax =      18
     lnmax =       6     mgfft =      72  mpssoang =       3    mqgrid =    4294
     natom =       9  nloc_mem =       2    nspden =       1   nspinor =       1
    nsppol =       1      nsym =      48    n1xccc =       1    ntypat =       3
    occopt =       1   xclevel =       2
-    mband =          42        mffmem =           1         mkmem =           3
       mpw =       13653          nfft =      373248          nkpt =          10
Pmy_natom=         3
 PAW method is used; the additional fine FFT grid is defined by:
   mgfftf=       108    nfftf =   1259712
  Rough estimation (10% accuracy) of disk space for files :

[...]

 DATASET   40 : space group Fm -3 m (#225); Bravais cF (face-center cubic)
     intxc =       0    ionmov =       2      iscf =      17    lmnmax =      18
     lnmax =       6     mgfft =      75  mpssoang =       3    mqgrid =    4719
     natom =       9  nloc_mem =       2    nspden =       1   nspinor =       1
    nsppol =       1      nsym =      48    n1xccc =       1    ntypat =       3
    occopt =       1   xclevel =       2
-    mband =          42        mffmem =           1         mkmem =           3
       mpw =       18102          nfft =      421875          nkpt =          10
Pmy_natom=         3
 PAW method is used; the additional fine FFT grid is defined by:
   mgfftf=       120    nfftf =   1728000
  Rough estimation (10% accuracy) of disk space for files :

------------- Echo of variables that govern the present computation ------------
-
- outvars: echo of selected default values
-   iomode0 =  0 , fftalg0 =112 , wfoptalg0 = 10
-
- outvars: echo of global parameters not present in the input file
-  max_nthreads =    0
-
 -outvars: echo values of preprocessed input variables --------
            acell1     1.6061709500E+01  1.6061709500E+01  1.6061709500E+01 Bohr
            acell2     1.6077755164E+01  1.6077755164E+01  1.6077755164E+01 Bohr
            acell3     1.6093800828E+01  1.6093800828E+01  1.6093800828E+01 Bohr
            acell4     1.6109846491E+01  1.6109846491E+01  1.6109846491E+01 Bohr
            acell5     1.6125892155E+01  1.6125892155E+01  1.6125892155E+01 Bohr
            acell6     1.6141937819E+01  1.6141937819E+01  1.6141937819E+01 Bohr
            acell7     1.6157983483E+01  1.6157983483E+01  1.6157983483E+01 Bohr
            acell8     1.6174029147E+01  1.6174029147E+01  1.6174029147E+01 Bohr
            acell9     1.6190074811E+01  1.6190074811E+01  1.6190074811E+01 Bohr
            acell10    1.6206120474E+01  1.6206120474E+01  1.6206120474E+01 Bohr
            acell11    1.6238211802E+01  1.6238211802E+01  1.6238211802E+01 Bohr
            acell12    1.6270303130E+01  1.6270303130E+01  1.6270303130E+01 Bohr
            acell13    1.6302394457E+01  1.6302394457E+01  1.6302394457E+01 Bohr
            acell14    1.6334485785E+01  1.6334485785E+01  1.6334485785E+01 Bohr
            acell15    1.6366577113E+01  1.6366577113E+01  1.6366577113E+01 Bohr
            acell16    1.6398668440E+01  1.6398668440E+01  1.6398668440E+01 Bohr
            acell17    1.6430759768E+01  1.6430759768E+01  1.6430759768E+01 Bohr
            acell18    1.6462851096E+01  1.6462851096E+01  1.6462851096E+01 Bohr
            acell19    1.6494942423E+01  1.6494942423E+01  1.6494942423E+01 Bohr
            acell20    1.6527033751E+01  1.6527033751E+01  1.6527033751E+01 Bohr
            acell21    1.6575170743E+01  1.6575170743E+01  1.6575170743E+01 Bohr
            acell22    1.6623307734E+01  1.6623307734E+01  1.6623307734E+01 Bohr
            acell23    1.6671444726E+01  1.6671444726E+01  1.6671444726E+01 Bohr
            acell24    1.6719581717E+01  1.6719581717E+01  1.6719581717E+01 Bohr
            acell25    1.6767718709E+01  1.6767718709E+01  1.6767718709E+01 Bohr
            acell26    1.6815855700E+01  1.6815855700E+01  1.6815855700E+01 Bohr
            acell27    1.6863992692E+01  1.6863992692E+01  1.6863992692E+01 Bohr
            acell28    1.6912129683E+01  1.6912129683E+01  1.6912129683E+01 Bohr
            acell29    1.6960266675E+01  1.6960266675E+01  1.6960266675E+01 Bohr
            acell30    1.7008403666E+01  1.7008403666E+01  1.7008403666E+01 Bohr
            acell31    1.7072586322E+01  1.7072586322E+01  1.7072586322E+01 Bohr
            acell32    1.7136768977E+01  1.7136768977E+01  1.7136768977E+01 Bohr
            acell33    1.7200951632E+01  1.7200951632E+01  1.7200951632E+01 Bohr
            acell34    1.7265134288E+01  1.7265134288E+01  1.7265134288E+01 Bohr
            acell35    1.7329316943E+01  1.7329316943E+01  1.7329316943E+01 Bohr
            acell36    1.7393499598E+01  1.7393499598E+01  1.7393499598E+01 Bohr
            acell37    1.7457682254E+01  1.7457682254E+01  1.7457682254E+01 Bohr
            acell38    1.7521864909E+01  1.7521864909E+01  1.7521864909E+01 Bohr
            acell39    1.7586047564E+01  1.7586047564E+01  1.7586047564E+01 Bohr
            acell40    1.7650230220E+01  1.7650230220E+01  1.7650230220E+01 Bohr
              amu      1.32905430E+02  1.26904470E+02  1.78490000E+02
           diemac      1.20000000E+01
          dilatmx      1.15000000E+00
             ecut      1.60000000E+01 Hartree
           ecutsm      5.00000000E-01 Hartree
-          fftalg         112
          getxred1          0
          getxred2         -1
          getxred3         -1
          getxred4         -1
          getxred5         -1
          getxred6         -1
          getxred7         -1
          getxred8         -1
          getxred9         -1
          getxred10        -1
          getxred11        -1
          getxred12        -1
          getxred13        -1
          getxred14        -1
          getxred15        -1
          getxred16        -1
          getxred17        -1
          getxred18        -1
          getxred19        -1
          getxred20        -1
          getxred21        -1
          getxred22        -1
          getxred23        -1
          getxred24        -1
          getxred25        -1
          getxred26        -1
          getxred27        -1
          getxred28        -1
          getxred29        -1
          getxred30        -1
          getxred31        -1
          getxred32        -1
          getxred33        -1
          getxred34        -1
          getxred35        -1
          getxred36        -1
          getxred37        -1
          getxred38        -1
          getxred39        -1
          getxred40        -1
           ionmov           2
              ixc     -101130
           jdtset        1    2    3    4    5    6    7    8    9   10
                        11   12   13   14   15   16   17   18   19   20
                        21   22   23   24   25   26   27   28   29   30
                        31   32   33   34   35   36   37   38   39   40
              kpt     -1.25000000E-01 -2.50000000E-01  0.00000000E+00
                      -1.25000000E-01  5.00000000E-01  0.00000000E+00
                      -2.50000000E-01 -3.75000000E-01  0.00000000E+00
                      -1.25000000E-01 -3.75000000E-01  1.25000000E-01
                      -1.25000000E-01  2.50000000E-01  0.00000000E+00
                      -2.50000000E-01  3.75000000E-01  0.00000000E+00
                      -3.75000000E-01  5.00000000E-01  0.00000000E+00
                      -2.50000000E-01  5.00000000E-01  1.25000000E-01
                      -1.25000000E-01  0.00000000E+00  0.00000000E+00
                      -3.75000000E-01  0.00000000E+00  0.00000000E+00
         kptrlatt        4   -4    4     -4    4    4     -4   -4    4
          kptrlen1     9.08587496E+01
          kptrlen2     9.09495176E+01
          kptrlen3     9.10402856E+01
          kptrlen4     9.11310536E+01
          kptrlen5     9.12218216E+01
          kptrlen6     9.13125895E+01
          kptrlen7     9.14033575E+01
          kptrlen8     9.14941255E+01
          kptrlen9     9.15848935E+01
          kptrlen10    9.16756615E+01
          kptrlen11    9.18571974E+01
          kptrlen12    9.20387334E+01
          kptrlen13    9.22202694E+01
          kptrlen14    9.24018053E+01
          kptrlen15    9.25833413E+01
          kptrlen16    9.27648773E+01
          kptrlen17    9.29464132E+01
          kptrlen18    9.31279492E+01
          kptrlen19    9.33094851E+01
          kptrlen20    9.34910211E+01
          kptrlen21    9.37633251E+01
          kptrlen22    9.40356290E+01
          kptrlen23    9.43079329E+01
          kptrlen24    9.45802369E+01
          kptrlen25    9.48525408E+01
          kptrlen26    9.51248448E+01
          kptrlen27    9.53971487E+01
          kptrlen28    9.56694527E+01
          kptrlen29    9.59417566E+01
          kptrlen30    9.62140606E+01
          kptrlen31    9.65771325E+01
          kptrlen32    9.69402044E+01
          kptrlen33    9.73032763E+01
          kptrlen34    9.76663483E+01
          kptrlen35    9.80294202E+01
          kptrlen36    9.83924921E+01
          kptrlen37    9.87555640E+01
          kptrlen38    9.91186360E+01
          kptrlen39    9.94817079E+01
          kptrlen40    9.98447798E+01
P           mkmem           3
            natom           9
            nband          42
           ndtset          40
            ngfft1         72      72      72
            ngfft2         72      72      72
            ngfft3         72      72      72
            ngfft4         72      72      72
            ngfft5         72      72      72
            ngfft6         72      72      72
            ngfft7         72      72      72
            ngfft8         72      72      72
            ngfft9         72      72      72
            ngfft10        72      72      72
            ngfft11        72      72      72
            ngfft12        72      72      72
            ngfft13        72      72      72
            ngfft14        72      72      72
            ngfft15        72      72      72
            ngfft16        72      72      72
            ngfft17        72      72      72
[...]
                      -2.3271959170E-20  2.2022724280E-21  1.4927120860E-20
             xred17    2.5000000000E-01  2.5000000000E-01  2.5000000000E-01
                       7.5000000000E-01  7.5000000000E-01  7.5000000000E-01
                       7.6657363796E-01  2.3342636204E-01  7.6657363796E-01
                       2.3342636204E-01  2.3342636204E-01  7.6657363796E-01
                       7.6657363796E-01  7.6657363796E-01  2.3342636204E-01
                       2.3342636204E-01  7.6657363796E-01  2.3342636204E-01
                       2.3342636204E-01  7.6657363796E-01  7.6657363796E-01
                       7.6657363796E-01  2.3342636204E-01  2.3342636204E-01
                      -2.5158156886E-20 -1.1928834613E-21  1.7567797663E-20
             xred18    2.5000000000E-01  2.5000000000E-01  2.5000000000E-01
                       7.5000000000E-01  7.5000000000E-01  7.5000000000E-01
                       7.6700211080E-01  2.3299788920E-01  7.6700211080E-01
                       2.3299788920E-01  2.3299788920E-01  7.6700211080E-01
                       7.6700211080E-01  7.6700211080E-01  2.3299788920E-01
                       2.3299788920E-01  7.6700211080E-01  2.3299788920E-01
                       2.3299788920E-01  7.6700211080E-01  7.6700211080E-01
                       7.6700211080E-01  2.3299788920E-01  2.3299788920E-01
                       0.0000000000E+00  0.0000000000E+00  0.0000000000E+00
             xred19    2.5000000000E-01  2.5000000000E-01  2.5000000000E-01
                       7.5000000000E-01  7.5000000000E-01  7.5000000000E-01
                       7.6743083167E-01  2.3256916833E-01  7.6743083167E-01
                       2.3256916833E-01  2.3256916833E-01  7.6743083167E-01
                       7.6743083167E-01  7.6743083167E-01  2.3256916833E-01
                       2.3256916833E-01  7.6743083167E-01  2.3256916833E-01
                       2.3256916833E-01  7.6743083167E-01  7.6743083167E-01
                       7.6743083167E-01  2.3256916833E-01  2.3256916833E-01
                       0.0000000000E+00  0.0000000000E+00  0.0000000000E+00
             xred20    2.5000000000E-01  2.5000000000E-01  2.5000000000E-01
                       7.5000000000E-01  7.5000000000E-01  7.5000000000E-01
                       7.6784793850E-01  2.3215206150E-01  7.6784793850E-01
                       2.3215206150E-01  2.3215206150E-01  7.6784793850E-01
                       7.6784793850E-01  7.6784793850E-01  2.3215206150E-01
                       2.3215206150E-01  7.6784793850E-01  2.3215206150E-01
                       2.3215206150E-01  7.6784793850E-01  7.6784793850E-01
                       7.6784793850E-01  2.3215206150E-01  2.3215206150E-01
                       0.0000000000E+00  0.0000000000E+00  0.0000000000E+00
             xred21    2.5000000000E-01  2.5000000000E-01  2.5000000000E-01
                       7.5000000000E-01  7.5000000000E-01  7.5000000000E-01
                       7.6847562173E-01  2.3152437827E-01  7.6847562173E-01
                       2.3152437827E-01  2.3152437827E-01  7.6847562173E-01
                       7.6847562173E-01  7.6847562173E-01  2.3152437827E-01
                       2.3152437827E-01  7.6847562173E-01  2.3152437827E-01
                       2.3152437827E-01  7.6847562173E-01  7.6847562173E-01
                       7.6847562173E-01  2.3152437827E-01  2.3152437827E-01
                      -2.8108874886E-20  3.2037370616E-20 -1.8751056975E-20
             xred22    2.5000000000E-01  2.5000000000E-01  2.5000000000E-01
                       7.5000000000E-01  7.5000000000E-01  7.5000000000E-01
                       7.6910948066E-01  2.3089051934E-01  7.6910948066E-01
                       2.3089051934E-01  2.3089051934E-01  7.6910948066E-01
                       7.6910948066E-01  7.6910948066E-01  2.3089051934E-01
                       2.3089051934E-01  7.6910948066E-01  2.3089051934E-01
                       2.3089051934E-01  7.6910948066E-01  7.6910948066E-01
                       7.6910948066E-01  2.3089051934E-01  2.3089051934E-01
                      -3.0273376882E-22  2.4835429313E-22 -6.5993914685E-23
             xred23    2.5000000000E-01  2.5000000000E-01  2.5000000000E-01
                       7.5000000000E-01  7.5000000000E-01  7.5000000000E-01
                       7.6973577074E-01  2.3026422926E-01  7.6973577074E-01
                       2.3026422926E-01  2.3026422926E-01  7.6973577074E-01
                       7.6973577074E-01  7.6973577074E-01  2.3026422926E-01
                       2.3026422926E-01  7.6973577074E-01  2.3026422926E-01
                       2.3026422926E-01  7.6973577074E-01  7.6973577074E-01
                       7.6973577074E-01  2.3026422926E-01  2.3026422926E-01
                       9.4640315960E-24 -2.5788546584E-23 -1.6224385713E-23
             xred24    2.5000000000E-01  2.5000000000E-01  2.5000000000E-01
                       7.5000000000E-01  7.5000000000E-01  7.5000000000E-01
                       7.7035756141E-01  2.2964243859E-01  7.7035756141E-01
                       2.2964243859E-01  2.2964243859E-01  7.7035756141E-01
                       7.7035756141E-01  7.7035756141E-01  2.2964243859E-01
                       2.2964243859E-01  7.7035756141E-01  2.2964243859E-01
                       2.2964243859E-01  7.7035756141E-01  7.7035756141E-01
                       7.7035756141E-01  2.2964243859E-01  2.2964243859E-01
                       8.1933783873E-24  8.2045242506E-25  2.8259059047E-23
             xred25    2.5000000000E-01  2.5000000000E-01  2.5000000000E-01
                       7.5000000000E-01  7.5000000000E-01  7.5000000000E-01
                       7.7099409026E-01  2.2900590974E-01  7.7099409026E-01
                       2.2900590974E-01  2.2900590974E-01  7.7099409026E-01
                       7.7099409026E-01  7.7099409026E-01  2.2900590974E-01
                       2.2900590974E-01  7.7099409026E-01  2.2900590974E-01
                       2.2900590974E-01  7.7099409026E-01  7.7099409026E-01
                       7.7099409026E-01  2.2900590974E-01  2.2900590974E-01
                       0.0000000000E+00  0.0000000000E+00  0.0000000000E+00
             xred26    2.5000000000E-01  2.5000000000E-01  2.5000000000E-01
                       7.5000000000E-01  7.5000000000E-01  7.5000000000E-01
                       7.7162402231E-01  2.2837597769E-01  7.7162402231E-01
                       2.2837597769E-01  2.2837597769E-01  7.7162402231E-01
                       7.7162402231E-01  7.7162402231E-01  2.2837597769E-01
                       2.2837597769E-01  7.7162402231E-01  2.2837597769E-01
                       2.2837597769E-01  7.7162402231E-01  7.7162402231E-01
                       7.7162402231E-01  2.2837597769E-01  2.2837597769E-01
                      -3.9888526518E-21  1.3360190848E-20 -4.9886165361E-21
             xred27    2.5000000000E-01  2.5000000000E-01  2.5000000000E-01
                       7.5000000000E-01  7.5000000000E-01  7.5000000000E-01
                       7.7224528206E-01  2.2775471794E-01  7.7224528206E-01
                       2.2775471794E-01  2.2775471794E-01  7.7224528206E-01
                       7.7224528206E-01  7.7224528206E-01  2.2775471794E-01
                       2.2775471794E-01  7.7224528206E-01  2.2775471794E-01
                       2.2775471794E-01  7.7224528206E-01  7.7224528206E-01
                       7.7224528206E-01  2.2775471794E-01  2.2775471794E-01
                       0.0000000000E+00  0.0000000000E+00  0.0000000000E+00
             xred28    2.5000000000E-01  2.5000000000E-01  2.5000000000E-01
                       7.5000000000E-01  7.5000000000E-01  7.5000000000E-01
                       7.7286507223E-01  2.2713492777E-01  7.7286507223E-01
                       2.2713492777E-01  2.2713492777E-01  7.7286507223E-01
                       7.7286507223E-01  7.7286507223E-01  2.2713492777E-01
                       2.2713492777E-01  7.7286507223E-01  2.2713492777E-01
                       2.2713492777E-01  7.7286507223E-01  7.7286507223E-01
                       7.7286507223E-01  2.2713492777E-01  2.2713492777E-01
                      -6.2486567787E-21 -1.0540045151E-20  3.1382551441E-21
             xred29    2.5000000000E-01  2.5000000000E-01  2.5000000000E-01
                       7.5000000000E-01  7.5000000000E-01  7.5000000000E-01
                       7.7347716665E-01  2.2652283335E-01  7.7347716665E-01
                       2.2652283335E-01  2.2652283335E-01  7.7347716665E-01
                       7.7347716665E-01  7.7347716665E-01  2.2652283335E-01
                       2.2652283335E-01  7.7347716665E-01  2.2652283335E-01
                       2.2652283335E-01  7.7347716665E-01  7.7347716665E-01
                       7.7347716665E-01  2.2652283335E-01  2.2652283335E-01
                      -1.2168327626E-20  1.5426401881E-20  9.1841362713E-21
             xred30    2.5000000000E-01  2.5000000000E-01  2.5000000000E-01
                       7.5000000000E-01  7.5000000000E-01  7.5000000000E-01
                       7.7409335341E-01  2.2590664659E-01  7.7409335341E-01
                       2.2590664659E-01  2.2590664659E-01  7.7409335341E-01
                       7.7409335341E-01  7.7409335341E-01  2.2590664659E-01
                       2.2590664659E-01  7.7409335341E-01  2.2590664659E-01
                       2.2590664659E-01  7.7409335341E-01  7.7409335341E-01
                       7.7409335341E-01  2.2590664659E-01  2.2590664659E-01
                      -1.3456058861E-20 -8.3314560359E-21  5.4672205739E-20
             xred31    2.5000000000E-01  2.5000000000E-01  2.5000000000E-01
                       7.5000000000E-01  7.5000000000E-01  7.5000000000E-01
                       7.7491303850E-01  2.2508696150E-01  7.7491303850E-01
                       2.2508696150E-01  2.2508696150E-01  7.7491303850E-01
                       7.7491303850E-01  7.7491303850E-01  2.2508696150E-01
                       2.2508696150E-01  7.7491303850E-01  2.2508696150E-01
                       2.2508696150E-01  7.7491303850E-01  7.7491303850E-01
                       7.7491303850E-01  2.2508696150E-01  2.2508696150E-01
                       7.4610371843E-23  4.4251835069E-23 -9.5303937611E-23
             xred32    2.5000000000E-01  2.5000000000E-01  2.5000000000E-01
                       7.5000000000E-01  7.5000000000E-01  7.5000000000E-01
                       7.7573151229E-01  2.2426848771E-01  7.7573151229E-01
                       2.2426848771E-01  2.2426848771E-01  7.7573151229E-01
                       7.7573151229E-01  7.7573151229E-01  2.2426848771E-01
                       2.2426848771E-01  7.7573151229E-01  2.2426848771E-01
                       2.2426848771E-01  7.7573151229E-01  7.7573151229E-01
                       7.7573151229E-01  2.2426848771E-01  2.2426848771E-01
                       1.5709843391E-20  1.3895318350E-20 -5.9822070041E-20
             xred33    2.5000000000E-01  2.5000000000E-01  2.5000000000E-01
                       7.5000000000E-01  7.5000000000E-01  7.5000000000E-01
                       7.7655259274E-01  2.2344740726E-01  7.7655259274E-01
                       2.2344740726E-01  2.2344740726E-01  7.7655259274E-01
                       7.7655259274E-01  7.7655259274E-01  2.2344740726E-01
                       2.2344740726E-01  7.7655259274E-01  2.2344740726E-01
                       2.2344740726E-01  7.7655259274E-01  7.7655259274E-01
                       7.7655259274E-01  2.2344740726E-01  2.2344740726E-01
                       2.8497543104E-22  1.8434417815E-22 -8.2981583512E-22
             xred34    2.5000000000E-01  2.5000000000E-01  2.5000000000E-01
                       7.5000000000E-01  7.5000000000E-01  7.5000000000E-01
                       7.7735671400E-01  2.2264328600E-01  7.7735671400E-01
                       2.2264328600E-01  2.2264328600E-01  7.7735671400E-01
                       7.7735671400E-01  7.7735671400E-01  2.2264328600E-01
                       2.2264328600E-01  7.7735671400E-01  2.2264328600E-01
                       2.2264328600E-01  7.7735671400E-01  7.7735671400E-01
                       7.7735671400E-01  2.2264328600E-01  2.2264328600E-01
                       1.0643140917E-22 -2.0013490751E-22 -5.5788557339E-23
             xred35    2.5000000000E-01  2.5000000000E-01  2.5000000000E-01
                       7.5000000000E-01  7.5000000000E-01  7.5000000000E-01
                       7.7815599902E-01  2.2184400098E-01  7.7815599902E-01
                       2.2184400098E-01  2.2184400098E-01  7.7815599902E-01
                       7.7815599902E-01  7.7815599902E-01  2.2184400098E-01
                       2.2184400098E-01  7.7815599902E-01  2.2184400098E-01
                       2.2184400098E-01  7.7815599902E-01  7.7815599902E-01
                       7.7815599902E-01  2.2184400098E-01  2.2184400098E-01
                       7.2636577238E-20  1.1010806520E-20 -5.8483081861E-20
             xred36    2.5000000000E-01  2.5000000000E-01  2.5000000000E-01
                       7.5000000000E-01  7.5000000000E-01  7.5000000000E-01
                       7.7894576338E-01  2.2105423662E-01  7.7894576338E-01
                       2.2105423662E-01  2.2105423662E-01  7.7894576338E-01
                       7.7894576338E-01  7.7894576338E-01  2.2105423662E-01
                       2.2105423662E-01  7.7894576338E-01  2.2105423662E-01
                       2.2105423662E-01  7.7894576338E-01  7.7894576338E-01
                       7.7894576338E-01  2.2105423662E-01  2.2105423662E-01
                       8.3147099028E-20  7.3668540719E-22 -4.6658525591E-20
             xred37    2.5000000000E-01  2.5000000000E-01  2.5000000000E-01
                       7.5000000000E-01  7.5000000000E-01  7.5000000000E-01
                       7.7974189611E-01  2.2025810389E-01  7.7974189611E-01
                       2.2025810389E-01  2.2025810389E-01  7.7974189611E-01
                       7.7974189611E-01  7.7974189611E-01  2.2025810389E-01
                       2.2025810389E-01  7.7974189611E-01  2.2025810389E-01
                       2.2025810389E-01  7.7974189611E-01  7.7974189611E-01
                       7.7974189611E-01  2.2025810389E-01  2.2025810389E-01
                       1.3553469747E-21  7.6337263232E-23 -7.5332566164E-22
             xred38    2.5000000000E-01  2.5000000000E-01  2.5000000000E-01
                       7.5000000000E-01  7.5000000000E-01  7.5000000000E-01
                       7.8053487602E-01  2.1946512398E-01  7.8053487602E-01
                       2.1946512398E-01  2.1946512398E-01  7.8053487602E-01
                       7.8053487602E-01  7.8053487602E-01  2.1946512398E-01
                       2.1946512398E-01  7.8053487602E-01  2.1946512398E-01
                       2.1946512398E-01  7.8053487602E-01  7.8053487602E-01
                       7.8053487602E-01  2.1946512398E-01  2.1946512398E-01
                       5.7173117013E-22 -1.4334855194E-21  3.6069132515E-22
             xred39    2.5000000000E-01  2.5000000000E-01  2.5000000000E-01
                       7.5000000000E-01  7.5000000000E-01  7.5000000000E-01
                       7.8132582359E-01  2.1867417641E-01  7.8132582359E-01
                       2.1867417641E-01  2.1867417641E-01  7.8132582359E-01
                       7.8132582359E-01  7.8132582359E-01  2.1867417641E-01
                       2.1867417641E-01  7.8132582359E-01  2.1867417641E-01
                       2.1867417641E-01  7.8132582359E-01  7.8132582359E-01
                       7.8132582359E-01  2.1867417641E-01  2.1867417641E-01
                      -9.4768683342E-23  1.7727237640E-22 -1.5269910420E-22
             xred40    2.5000000000E-01  2.5000000000E-01  2.5000000000E-01
                       7.5000000000E-01  7.5000000000E-01  7.5000000000E-01
                       7.8210690313E-01  2.1789309687E-01  7.8210690313E-01
                       2.1789309687E-01  2.1789309687E-01  7.8210690313E-01
                       7.8210690313E-01  7.8210690313E-01  2.1789309687E-01
                       2.1789309687E-01  7.8210690313E-01  2.1789309687E-01
                       2.1789309687E-01  7.8210690313E-01  7.8210690313E-01
                       7.8210690313E-01  2.1789309687E-01  2.1789309687E-01
                      -5.2712203594E-24  4.9310503388E-23 -2.6764450441E-23
            znucl       55.00000   53.00000   72.00000

- Timing analysis has been suppressed with timopt=0

 Suggested references for the acknowledgment of ABINIT usage.

 Calculation completed.
.Delivered   0 WARNINGs and 143 COMMENTs to log file.