.Version 9.2.2 of ABINIT

 ABINIT is a project of the Universite Catholique de Louvain,
 Corning Inc. and other collaborators, see ~abinit/doc/developers/contributors.txt .
 acknowledgments of the ABINIT effort.

.Starting date : Thu 24 Nov 2022.
- ( at 08h31 )

- input  file    -> Cs2TiI6.in
- output file    -> Cs2TiI6.out
- root for input  files -> Cs2TiI6i
- root for output files -> Cs2TiI6o

- inpspheads : Reading pseudopotential header in XML form from
-   ../../../Psps_for_tests/ATOMICDATA/Cs.GGA_PBE-JTH.xml
- inpspheads : Reading pseudopotential header in XML form from
-   ../../../Psps_for_tests/ATOMICDATA/I.GGA_PBE-JTH.xml
- inpspheads : Reading pseudopotential header in XML form from
-   ../../../Psps_for_tests/ATOMICDATA/Zr.GGA_PBE-JTH.xml
- inpspheads : Reading pseudopotential header in XML form from
-   ../../../Psps_for_tests/ATOMICDATA/Br.GGA_PBE-JTH.xml

 DATASET    1 : space group I4/m m m (#139); Bravais tI (body-center tetrag.)
     intxc =       0    ionmov =       2      iscf =      17    lmnmax =      18
     lnmax =       6     mgfft =      72  mpssoang =       3    mqgrid =    4174
     natom =       9  nloc_mem =       2    nspden =       1   nspinor =       1
    nsppol =       1      nsym =      16    n1xccc =       1    ntypat =       4
    occopt =       1   xclevel =       2
-    mband =          42        mffmem =           1         mkmem =           4
       mpw =       12560          nfft =      373248          nkpt =          20
Pmy_natom=         2
 PAW method is used; the additional fine FFT grid is defined by:
   mgfftf=       108    nfftf =   1259712
  Rough estimation (10% accuracy) of disk space for files :

[...]

 DATASET    9 : space group I4/m m m (#139); Bravais tI (body-center tetrag.)
     intxc =       0    ionmov =       2      iscf =      17    lmnmax =      18
     lnmax =       6     mgfft =      64  mpssoang =       3    mqgrid =    3836
     natom =       9  nloc_mem =       2    nspden =       1   nspinor =       1
    nsppol =       1      nsym =      16    n1xccc =       1    ntypat =       4
    occopt =       1   xclevel =       2
-    mband =          42        mffmem =           1         mkmem =           4
       mpw =        9739          nfft =      262144          nkpt =          20
Pmy_natom=         2
 PAW method is used; the additional fine FFT grid is defined by:
   mgfftf=        96    nfftf =    884736
  Rough estimation (10% accuracy) of disk space for files :

------------- Echo of variables that govern the present computation ------------
-
- outvars: echo of selected default values
-   iomode0 =  0 , fftalg0 =112 , wfoptalg0 = 10
-
- outvars: echo of global parameters not present in the input file
-  max_nthreads =    0
-
 -outvars: echo values of preprocessed input variables --------
            acell1     1.5528347870E+01  1.5528347870E+01  1.5806767879E+01 Bohr
            acell2     1.5367865024E+01  1.5367865024E+01  1.5655420951E+01 Bohr
            acell3     1.5207865282E+01  1.5207865282E+01  1.5503009909E+01 Bohr
            acell4     1.5047895628E+01  1.5047895628E+01  1.5350570411E+01 Bohr
            acell5     1.4885539537E+01  1.4885539537E+01  1.5203762433E+01 Bohr
            acell6     1.4723634696E+01  1.4723634696E+01  1.5056021464E+01 Bohr
            acell7     1.4561788834E+01  1.4561788834E+01  1.4908262031E+01 Bohr
            acell8     1.4399103151E+01  1.4399103151E+01  1.4762662166E+01 Bohr
            acell9     1.4236893940E+01  1.4236893940E+01  1.4616076614E+01 Bohr
              amu      1.32905430E+02  1.26904470E+02  9.12240000E+01
                       7.99040000E+01
           diemac      1.20000000E+01
          dilatmx      1.15000000E+00
             ecut      1.60000000E+01 Hartree
           ecutsm      5.00000000E-01 Hartree
-          fftalg         112
          getxred1          0
          getxred2         -1
          getxred3         -1
          getxred4         -1
          getxred5         -1
          getxred6         -1
          getxred7         -1
          getxred8         -1
          getxred9         -1
           ionmov           2
              ixc     -101130
           jdtset        1    2    3    4    5    6    7    8    9
              kpt     -1.25000000E-01 -2.50000000E-01  0.00000000E+00
                      -1.25000000E-01  5.00000000E-01  0.00000000E+00
                      -2.50000000E-01 -3.75000000E-01  0.00000000E+00
                      -1.25000000E-01 -3.75000000E-01  1.25000000E-01
                      -1.25000000E-01  2.50000000E-01  0.00000000E+00
                      -2.50000000E-01  3.75000000E-01  0.00000000E+00
                      -1.25000000E-01  3.75000000E-01  1.25000000E-01
                      -3.75000000E-01  5.00000000E-01  0.00000000E+00
                      -2.50000000E-01  5.00000000E-01  1.25000000E-01
                      -1.25000000E-01  5.00000000E-01  2.50000000E-01
                      -1.25000000E-01  0.00000000E+00  0.00000000E+00
                      -1.25000000E-01  1.25000000E-01  1.25000000E-01
                      -1.25000000E-01  2.50000000E-01  2.50000000E-01
                      -1.25000000E-01  3.75000000E-01  3.75000000E-01
                      -3.75000000E-01  0.00000000E+00  0.00000000E+00
                      -2.50000000E-01  0.00000000E+00  1.25000000E-01
                      -3.75000000E-01  1.25000000E-01  1.25000000E-01
                      -2.50000000E-01  1.25000000E-01  2.50000000E-01
                      -3.75000000E-01  2.50000000E-01  2.50000000E-01
                      -2.50000000E-01  2.50000000E-01  3.75000000E-01
         kptrlatt        4   -4    4     -4    4    4     -4   -4    4
          kptrlen1     8.62378598E+01
          kptrlen2     8.52760873E+01
          kptrlen3     8.43260371E+01
          kptrlen4     8.33764118E+01
          kptrlen5     8.23658536E+01
          kptrlen6     8.13657530E+01
          kptrlen7     8.03661842E+01
          kptrlen8     7.93437380E+01
          kptrlen9     7.83323387E+01
P           mkmem           4
            natom           9
            nband          42
           ndtset           9
            ngfft1         72      72      72
            ngfft2         72      72      72
            ngfft3         72      72      72
            ngfft4         64      64      64
            ngfft5         64      64      64
            ngfft6         64      64      64
            ngfft7         64      64      64
            ngfft8         64      64      64
            ngfft9         64      64      64
          ngfftdg1        108     108     108
          ngfftdg2        108     108     108
          ngfftdg3        108     108     108
          ngfftdg4        108     108     108
          ngfftdg5        100     100     100
          ngfftdg6        100     100     100
          ngfftdg7        100     100     100
          ngfftdg8        100     100     100
          ngfftdg9         96      96      96
             nkpt          20
            nstep        2500
             nsym          16
            ntime        1000
           ntypat           4
              occ      2.000000  2.000000  2.000000  2.000000  2.000000  2.000000
                       2.000000  2.000000  2.000000  2.000000  2.000000  2.000000
                       2.000000  2.000000  2.000000  2.000000  2.000000  2.000000
                       2.000000  2.000000  2.000000  2.000000  2.000000  2.000000
                       2.000000  2.000000  2.000000  2.000000  2.000000  2.000000
                       2.000000  2.000000  2.000000  2.000000  2.000000  2.000000
                       0.000000  0.000000  0.000000  0.000000  0.000000  0.000000
          optcell           3
        optforces           1
        pawecutdg      4.00000000E+01 Hartree
            prtwf           0
            rprim1     0.0000000000E+00  7.1978505694E-01  6.9419699784E-01
                       7.1978505694E-01  0.0000000000E+00  6.9419699784E-01
                       7.0710678119E-01  7.0710678119E-01  0.0000000000E+00
            rprim2     0.0000000000E+00  7.2033781529E-01  6.9362340781E-01
                       7.2033781529E-01  0.0000000000E+00  6.9362340781E-01
                       7.0710678119E-01  7.0710678119E-01  0.0000000000E+00
            rprim3     0.0000000000E+00  7.2082986219E-01  6.9311204706E-01
                       7.2082986219E-01  0.0000000000E+00  6.9311204706E-01
                       7.0710678119E-01  7.0710678119E-01  0.0000000000E+00
            rprim4     0.0000000000E+00  7.2132959327E-01  6.9259195626E-01
                       7.2132959327E-01  0.0000000000E+00  6.9259195626E-01
                       7.0710678119E-01  7.0710678119E-01  0.0000000000E+00
            rprim5     0.0000000000E+00  7.2222330196E-01  6.9165996133E-01
                       7.2222330196E-01  0.0000000000E+00  6.9165996133E-01
                       7.0710678119E-01  7.0710678119E-01  0.0000000000E+00
            rprim6     0.0000000000E+00  7.2306975107E-01  6.9077502495E-01
                       7.2306975107E-01  0.0000000000E+00  6.9077502495E-01
                       7.0710678119E-01  7.0710678119E-01  0.0000000000E+00
            rprim7     0.0000000000E+00  7.2393119401E-01  6.8987218116E-01
                       7.2393119401E-01  0.0000000000E+00  6.8987218116E-01
                       7.0710678119E-01  7.0710678119E-01  0.0000000000E+00
            rprim8     0.0000000000E+00  7.2496032681E-01  6.8879062461E-01
                       7.2496032681E-01  0.0000000000E+00  6.8879062461E-01
                       7.0710678119E-01  7.0710678119E-01  0.0000000000E+00
            rprim9     0.0000000000E+00  7.2593972613E-01  6.8775832530E-01
                       7.2593972613E-01  0.0000000000E+00  6.8775832530E-01
                       7.0710678119E-01  7.0710678119E-01  0.0000000000E+00
           shiftk      5.00000000E-01  5.00000000E-01  5.00000000E-01
          spgroup         139
           symrel      1  0  0   0  1  0   0  0  1      -1  0  0   0 -1  0   0  0 -1
                      -1  0  1   0 -1  1   0  0  1       1  0 -1   0  1 -1   0  0 -1
                       0  1 -1   1  0 -1   0  0 -1       0 -1  1  -1  0  1   0  0  1
                       0 -1  0  -1  0  0   0  0 -1       0  1  0   1  0  0   0  0  1
                       1  0  0   1  0 -1   1 -1  0      -1  0  0  -1  0  1  -1  1  0
                       0 -1  0   0 -1  1   1 -1  0       0  1  0   0  1 -1  -1  1  0
                       0  1 -1   0  1  0  -1  1  0       0 -1  1   0 -1  0   1 -1  0
                      -1  0  1  -1  0  0  -1  1  0       1  0 -1   1  0  0   1 -1  0
           toldff      1.00000000E-08
           tolmxf      1.00000000E-05
            typat      1  1  4  4  2  2  2  2  3
           useylm           1
              wtk        0.03125    0.03125    0.03125    0.06250    0.03125    0.03125
                         0.06250    0.03125    0.06250    0.06250    0.03125    0.06250
                         0.06250    0.06250    0.03125    0.06250    0.06250    0.06250
                         0.06250    0.06250
[...]
                       0.0000000000E+00  0.0000000000E+00  0.0000000000E+00
           xangst4     2.8719360043E+00  2.8719360043E+00  2.7576309441E+00
                       8.6158080130E+00  8.6158080130E+00  8.2728928322E+00
                       5.7438720087E+00  5.7438720087E+00  2.6140348108E+00
                       5.7438720087E+00  5.7438720087E+00  8.4164889655E+00
                       8.6118847133E+00  5.7438720087E+00  5.5152618881E+00
                       5.7438720087E+00  8.6118847133E+00  5.5152618881E+00
                       5.7438720087E+00  2.8758593041E+00  5.5152618881E+00
                       2.8758593041E+00  5.7438720087E+00  5.5152618881E+00
                       1.1070871300E-21  2.2339182294E-21 -3.9598193612E-21
           xangst5     2.8445214530E+00  2.8445214530E+00  2.7241081778E+00
                       8.5335643591E+00  8.5335643591E+00  8.1723245335E+00
                       5.6890429061E+00  5.6890429061E+00  2.6105947142E+00
                       5.6890429060E+00  5.6890429060E+00  8.2858379971E+00
                       8.5101859505E+00  5.6890429061E+00  5.4482163556E+00
                       5.6890429061E+00  8.5101859505E+00  5.4482163556E+00
                       5.6890429060E+00  2.8678998616E+00  5.4482163556E+00
                       2.8678998616E+00  5.6890429060E+00  5.4482163556E+00
                       3.1794138849E-22 -3.0725210513E-22 -5.5884783059E-23
           xangst6     2.8168265623E+00  2.8168265623E+00  2.6911339003E+00
                       8.4504796868E+00  8.4504796868E+00  8.0734017008E+00
                       5.6336531246E+00  5.6336531246E+00  2.6061718534E+00
                       5.6336531245E+00  5.6336531245E+00  8.1583637477E+00
                       8.4086948746E+00  5.6336531246E+00  5.3822678005E+00
                       5.6336531246E+00  8.4086948746E+00  5.3822678005E+00
                       5.6336531245E+00  2.8586113745E+00  5.3822678005E+00
                       2.8586113745E+00  5.6336531245E+00  5.3822678005E+00
                       4.3502369703E-21 -3.3095015167E-21 -1.0994993169E-22
           xangst7     2.7892142201E+00  2.7892142201E+00  2.6580127841E+00
                       8.3676426604E+00  8.3676426604E+00  7.9740383524E+00
                       5.5784284403E+00  5.5784284403E+00  2.6009456253E+00
                       5.5784284403E+00  5.5784284403E+00  8.0311055113E+00
                       8.3086669595E+00  5.5784284403E+00  5.3160255683E+00
                       5.5784284403E+00  8.3086669595E+00  5.3160255683E+00
                       5.5784284403E+00  2.8481899211E+00  5.3160255683E+00
                       2.8481899211E+00  5.5784284403E+00  5.3160255683E+00
                       1.4794838460E-21 -1.2104395941E-21  2.4471591820E-22
           xangst8     2.7619906774E+00  2.7619906774E+00  2.6241643213E+00
                       8.2859720323E+00  8.2859720323E+00  7.8724929638E+00
                       5.5239813549E+00  5.5239813549E+00  2.5944005232E+00
                       5.5239813548E+00  5.5239813548E+00  7.9022567619E+00
                       8.2115248477E+00  5.5239813549E+00  5.2483286425E+00
                       5.5239813549E+00  8.2115248477E+00  5.2483286425E+00
                       5.5239813548E+00  2.8364378620E+00  5.2483286425E+00
                       2.8364378620E+00  5.5239813548E+00  5.2483286425E+00
                      -1.8827181294E-21  4.1840538999E-21 -1.0248482571E-20
           xangst9     2.7345840830E+00  2.7345840830E+00  2.5906788219E+00
                       8.2037522490E+00  8.2037522490E+00  7.7720364656E+00
                       5.4691681660E+00  5.4691681660E+00  2.5865860730E+00
                       5.4691681660E+00  5.4691681660E+00  7.7761292145E+00
                       8.1150453720E+00  5.4691681660E+00  5.1813576438E+00
                       5.4691681660E+00  8.1150453720E+00  5.1813576438E+00
                       5.4691681660E+00  2.8232909600E+00  5.1813576438E+00
                       2.8232909600E+00  5.4691681660E+00  5.1813576438E+00
                       1.3471744477E-21 -1.5067858449E-21 -9.6180574340E-22
            xcart1     5.5885363781E+00  5.5885363781E+00  5.3898662365E+00
                       1.6765609134E+01  1.6765609134E+01  1.6169598710E+01
                       1.1177072756E+01  1.1177072756E+01  4.9510040146E+00
                       1.1177072756E+01  1.1177072756E+01  1.6608460932E+01
                       1.6884962009E+01  1.1177072756E+01  1.0779732473E+01
                       1.1177072756E+01  1.6884962009E+01  1.0779732473E+01
                       1.1177072756E+01  5.4691835034E+00  1.0779732473E+01
                       5.4691835034E+00  1.1177072756E+01  1.0779732473E+01
                       0.0000000000E+00  0.0000000000E+00  0.0000000000E+00
            xcart2     5.5342234428E+00  5.5342234428E+00  5.3313036098E+00
                       1.6602670328E+01  1.6602670328E+01  1.5993910830E+01
                       1.1068446886E+01  1.1068446886E+01  4.9481845010E+00
                       1.1068446886E+01  1.1068446886E+01  1.6377029938E+01
                       1.6677803068E+01  1.1068446886E+01  1.0662607220E+01
                       1.1068446886E+01  1.6677803068E+01  1.0662607220E+01
                       1.1068446886E+01  5.4590907034E+00  1.0662607220E+01
                       5.4590907034E+00  1.1068446886E+01  1.0662607220E+01
                       4.5203862234E-21 -1.7668444595E-21 -1.0772522715E-21
            xcart3     5.4810932514E+00  5.4810932514E+00  5.2704705254E+00
                       1.6443279754E+01  1.6443279754E+01  1.5811411576E+01
                       1.0962186503E+01  1.0962186503E+01  4.9446131568E+00
                       1.0962186503E+01  1.0962186503E+01  1.6137268945E+01
                       1.6476462259E+01  1.0962186503E+01  1.0540941051E+01
                       1.0962186503E+01  1.6476462259E+01  1.0540941051E+01
                       1.0962186503E+01  5.4479107462E+00  1.0540941051E+01
                       5.4479107462E+00  1.0962186503E+01  1.0540941051E+01
                       0.0000000000E+00  0.0000000000E+00  0.0000000000E+00
            xcart4     5.4271725194E+00  5.4271725194E+00  5.2111672598E+00
                       1.6281517558E+01  1.6281517558E+01  1.5633501780E+01
                       1.0854345039E+01  1.0854345039E+01  4.9398098942E+00
                       1.0854345039E+01  1.0854345039E+01  1.5904859145E+01
                       1.6274103596E+01  1.0854345039E+01  1.0422334520E+01
                       1.0854345039E+01  1.6274103596E+01  1.0422334520E+01
                       1.0854345039E+01  5.4345864814E+00  1.0422334520E+01
                       5.4345864814E+00  1.0854345039E+01  1.0422334520E+01
                       2.0920914810E-21  4.2214936569E-21 -7.4829741283E-21
            xcart5     5.3753665253E+00  5.3753665253E+00  5.1478184124E+00
                       1.6126099576E+01  1.6126099576E+01  1.5443455237E+01
                       1.0750733051E+01  1.0750733051E+01  4.9333090538E+00
                       1.0750733051E+01  1.0750733051E+01  1.5657964596E+01
                       1.6081920786E+01  1.0750733051E+01  1.0295636825E+01
                       1.0750733051E+01  1.6081920786E+01  1.0295636825E+01
                       1.0750733051E+01  5.4195453149E+00  1.0295636825E+01
                       5.4195453149E+00  1.0750733051E+01  1.0295636825E+01
                       6.0082215055E-22 -5.8062233244E-22 -1.0560693498E-22
            xcart6     5.3230307665E+00  5.3230307665E+00  5.0855060584E+00
                       1.5969092300E+01  1.5969092300E+01  1.5256518175E+01
                       1.0646061533E+01  1.0646061533E+01  4.9249510581E+00
                       1.0646061533E+01  1.0646061533E+01  1.5417073176E+01
                       1.5890130448E+01  1.0646061533E+01  1.0171012117E+01
                       1.0646061533E+01  1.5890130448E+01  1.0171012117E+01
                       1.0646061533E+01  5.4019926182E+00  1.0171012117E+01
                       5.4019926182E+00  1.0646061533E+01  1.0171012117E+01
                       8.2207564871E-21 -6.2540515029E-21 -2.0777525923E-22
            xcart7     5.2708510020E+00  5.2708510020E+00  5.0229162197E+00
                       1.5812553006E+01  1.5812553006E+01  1.5068748659E+01
                       1.0541702004E+01  1.0541702004E+01  4.9150749183E+00
                       1.0541702004E+01  1.0541702004E+01  1.5176589961E+01
                       1.5701105083E+01  1.0541702004E+01  1.0045832439E+01
                       1.0541702004E+01  1.5701105083E+01  1.0045832439E+01
                       1.0541702004E+01  5.3822989253E+00  1.0045832439E+01
                       5.3822989253E+00  1.0541702004E+01  1.0045832439E+01
                       2.7958192870E-21 -2.2873993333E-21  4.6244606576E-22
            xcart8     5.2194059619E+00  5.2194059619E+00  4.9589518949E+00
                       1.5658217886E+01  1.5658217886E+01  1.4876855685E+01
                       1.0438811924E+01  1.0438811924E+01  4.9027064679E+00
                       1.0438811924E+01  1.0438811924E+01  1.4933101112E+01
                       1.5517533096E+01  1.0438811924E+01  9.9179037898E+00
                       1.0438811924E+01  1.5517533096E+01  9.9179037898E+00
                       1.0438811924E+01  5.3600907522E+00  9.9179037898E+00
                       5.3600907522E+00  1.0438811924E+01  9.9179037898E+00
                      -3.5578216499E-21  7.9067159961E-21 -1.9366825336E-20
            xcart9     5.1676150042E+00  5.1676150042E+00  4.8956734716E+00
                       1.5502845013E+01  1.5502845013E+01  1.4687020415E+01
                       1.0335230008E+01  1.0335230008E+01  4.8879392971E+00
                       1.0335230008E+01  1.0335230008E+01  1.4694754589E+01
                       1.5335213309E+01  1.0335230008E+01  9.7913469432E+00
                       1.0335230008E+01  1.5335213309E+01  9.7913469432E+00
                       1.0335230008E+01  5.3352467078E+00  9.7913469432E+00
                       5.3352467078E+00  1.0335230008E+01  9.7913469432E+00
                       2.5457907594E-21 -2.8474125877E-21 -1.8175494481E-21
             xred1     2.5000000000E-01  2.5000000000E-01  2.5000000000E-01
                       7.5000000000E-01  7.5000000000E-01  7.5000000000E-01
                       2.2964410420E-01  2.2964410420E-01  7.7035589580E-01
                       7.7035589580E-01  7.7035589580E-01  2.2964410420E-01
                       2.4466081696E-01  7.5533918305E-01  7.5533918304E-01
                       7.5533918305E-01  2.4466081695E-01  7.5533918304E-01
                       2.4466081695E-01  7.5533918305E-01  2.4466081696E-01
                       7.5533918305E-01  2.4466081695E-01  2.4466081696E-01
                       0.0000000000E+00  0.0000000000E+00  0.0000000000E+00
             xred2     2.5000000000E-01  2.5000000000E-01  2.5000000000E-01
                       7.5000000000E-01  7.5000000000E-01  7.5000000000E-01
                       2.3203445457E-01  2.3203445457E-01  7.6796554543E-01
                       7.6796554543E-01  7.6796554543E-01  2.3203445457E-01
                       2.4660599449E-01  7.5339400551E-01  7.5339400551E-01
                       7.5339400551E-01  2.4660599449E-01  7.5339400551E-01
                       2.4660599449E-01  7.5339400551E-01  2.4660599449E-01
                       7.5339400551E-01  2.4660599449E-01  2.4660599449E-01
                      -3.3453136458E-22  2.3350051450E-22  1.7490242316E-22
             xred3     2.5000000000E-01  2.5000000000E-01  2.5000000000E-01
                       7.5000000000E-01  7.5000000000E-01  7.5000000000E-01
                       2.3454325060E-01  2.3454325060E-01  7.6545674940E-01
                       7.6545674940E-01  7.6545674940E-01  2.3454325060E-01
                       2.4848650152E-01  7.5151349848E-01  7.5151349848E-01
                       7.5151349848E-01  2.4848650152E-01  7.5151349848E-01
                       2.4848650152E-01  7.5151349848E-01  2.4848650152E-01
                       7.5151349848E-01  2.4848650152E-01  2.4848650152E-01
                       0.0000000000E+00  0.0000000000E+00  0.0000000000E+00
             xred4     2.5000000000E-01  2.5000000000E-01  2.5000000000E-01
                       7.5000000000E-01  7.5000000000E-01  7.5000000000E-01
                       2.3698192976E-01  2.3698192976E-01  7.6301807024E-01
                       7.6301807024E-01  7.6301807024E-01  2.3698192976E-01
                       2.5034152047E-01  7.4965847953E-01  7.4965847953E-01
                       7.4965847953E-01  2.5034152047E-01  7.4965847953E-01
                       2.5034152047E-01  7.4965847953E-01  2.5034152047E-01
                       7.4965847953E-01  2.5034152047E-01  2.5034152047E-01
                      -2.6089757708E-22 -4.5707727915E-22  6.4981958405E-22
             xred5     2.5000000000E-01  2.5000000000E-01  2.5000000000E-01
                       7.5000000000E-01  7.5000000000E-01  7.5000000000E-01
                       2.3958251140E-01  2.3958251140E-01  7.6041748860E-01
                       7.6041748860E-01  7.6041748860E-01  2.3958251140E-01
                       2.5205468731E-01  7.4794531269E-01  7.4794531269E-01
                       7.4794531269E-01  2.5205468731E-01  7.4794531269E-01
                       2.5205468731E-01  7.4794531269E-01  2.5205468731E-01
                       7.4794531269E-01  2.5205468731E-01  2.5205468731E-01
                      -6.0075882114E-23  4.9818436482E-23  6.0681851769E-24
             xred6     2.5000000000E-01  2.5000000000E-01  2.5000000000E-01
                       7.5000000000E-01  7.5000000000E-01  7.5000000000E-01
                       2.4210722598E-01  2.4210722598E-01  7.5789277402E-01
                       7.5789277402E-01  7.5789277402E-01  2.4210722598E-01
                       2.5370850062E-01  7.4629149938E-01  7.4629149938E-01
                       7.4629149938E-01  2.5370850062E-01  7.4629149938E-01
                       2.5370850062E-01  7.4629149938E-01  2.5370850062E-01
                       7.4629149938E-01  2.5370850062E-01  2.5370850062E-01
                      -6.9003394346E-22  6.6960576415E-22  1.0258181541E-22
             xred7     2.5000000000E-01  2.5000000000E-01  2.5000000000E-01
                       7.5000000000E-01  7.5000000000E-01  7.5000000000E-01
                       2.4463253533E-01  2.4463253533E-01  7.5536746467E-01
                       7.5536746467E-01  7.5536746467E-01  2.4463253533E-01
                       2.5528604979E-01  7.4471395021E-01  7.4471395021E-01
                       7.4471395021E-01  2.5528604979E-01  7.4471395021E-01
                       2.5528604979E-01  7.4471395021E-01  2.5528604979E-01
                       7.4471395021E-01  2.5528604979E-01  2.5528604979E-01
                      -2.1808365860E-22  2.6411728185E-22  1.0978879521E-24
             xred8     2.5000000000E-01  2.5000000000E-01  2.5000000000E-01
                       7.5000000000E-01  7.5000000000E-01  7.5000000000E-01
                       2.4716444986E-01  2.4716444986E-01  7.5283555014E-01
                       7.5283555014E-01  7.5283555014E-01  2.4716444986E-01
                       2.5673854416E-01  7.4326145584E-01  7.4326145584E-01
                       7.4326145584E-01  2.5673854416E-01  7.4326145584E-01
                       2.5673854416E-01  7.4326145584E-01  2.5673854416E-01
                       7.4326145584E-01  2.5673854416E-01  2.5673854416E-01
                      -4.2722639981E-22 -1.5254871722E-21  1.1846608716E-21
             xred9     2.5000000000E-01  2.5000000000E-01  2.5000000000E-01
                       7.5000000000E-01  7.5000000000E-01  7.5000000000E-01
                       2.4960505053E-01  2.4960505053E-01  7.5039494947E-01
                       7.5039494947E-01  7.5039494947E-01  2.4960505053E-01
                       2.5810972293E-01  7.4189027707E-01  7.4189027707E-01
                       7.4189027707E-01  2.5810972293E-01  7.4189027707E-01
                       2.5810972293E-01  7.4189027707E-01  2.5810972293E-01
                       7.4189027707E-01  2.5810972293E-01  2.5810972293E-01
                      -3.5372762807E-22  1.6809949554E-22  7.8222140009E-23
            znucl       55.00000   53.00000   40.00000   35.00000

- Timing analysis has been suppressed with timopt=0

 Suggested references for the acknowledgment of ABINIT usage.

 Calculation completed.
.Delivered   0 WARNINGs and 118 COMMENTs to log file.