.Version 9.2.2 of ABINIT

 ABINIT is a project of the Universite Catholique de Louvain,
 Corning Inc. and other collaborators, see ~abinit/doc/developers/contributors.txt .
 acknowledgments of the ABINIT effort.

.Starting date : Mon  7 Nov 2022.
- ( at 01h21 )

- input  file    -> Cs2TiI6.in
- output file    -> Cs2TiI6.out
- root for input  files -> Cs2TiI6i
- root for output files -> Cs2TiI6o

- inpspheads : Reading pseudopotential header in XML form from
-   ../../../Psps_for_tests/ATOMICDATA/Cs.GGA_PBE-JTH.xml
- inpspheads : Reading pseudopotential header in XML form from
-   ../../../Psps_for_tests/ATOMICDATA/I.GGA_PBE-JTH.xml
- inpspheads : Reading pseudopotential header in XML form from
-   ../../../Psps_for_tests/ATOMICDATA/Hf.GGA_PBE-JTH.xml
- inpspheads : Reading pseudopotential header in XML form from
-   ../../../Psps_for_tests/ATOMICDATA/Cl.GGA_PBE-JTH.xml

 DATASET    1 : space group I4/m m m (#139); Bravais tI (body-center tetrag.)
     intxc =       0    ionmov =       2      iscf =      17    lmnmax =      18
     lnmax =       6     mgfft =      64  mpssoang =       3    mqgrid =    3863
     natom =       9  nloc_mem =       2    nspden =       1   nspinor =       1
    nsppol =       1      nsym =      16    n1xccc =       1    ntypat =       4
    occopt =       1   xclevel =       2
-    mband =          42        mffmem =           1         mkmem =           4
       mpw =        9974          nfft =      262144          nkpt =          20
Pmy_natom=         2
 PAW method is used; the additional fine FFT grid is defined by:
   mgfftf=       100    nfftf =   1000000
  Rough estimation (10% accuracy) of disk space for files :

[...]

 DATASET   10 : space group I4/m m m (#139); Bravais tI (body-center tetrag.)
     intxc =       0    ionmov =       2      iscf =      17    lmnmax =      18
     lnmax =       6     mgfft =      64  mpssoang =       3    mqgrid =    3828
     natom =       9  nloc_mem =       2    nspden =       1   nspinor =       1
    nsppol =       1      nsym =      16    n1xccc =       1    ntypat =       4
    occopt =       1   xclevel =       2
-    mband =          42        mffmem =           1         mkmem =           4
       mpw =        9689          nfft =      262144          nkpt =          20
Pmy_natom=         2
 PAW method is used; the additional fine FFT grid is defined by:
   mgfftf=        96    nfftf =    884736
  Rough estimation (10% accuracy) of disk space for files :

------------- Echo of variables that govern the present computation ------------
-
- outvars: echo of selected default values
-   iomode0 =  0 , fftalg0 =112 , wfoptalg0 = 10
-
- outvars: echo of global parameters not present in the input file
-  max_nthreads =    0
-
 -outvars: echo values of preprocessed input variables --------
            acell1     1.4334315003E+01  1.4738123519E+01  1.4334315003E+01 Bohr
            acell2     1.4319966340E+01  1.4723370642E+01  1.4319966340E+01 Bohr
            acell3     1.4305617676E+01  1.4708617766E+01  1.4305617676E+01 Bohr
            acell4     1.4291269012E+01  1.4693864889E+01  1.4291269012E+01 Bohr
            acell5     1.4276920349E+01  1.4679112013E+01  1.4276920349E+01 Bohr
            acell6     1.4262571685E+01  1.4664359137E+01  1.4262571685E+01 Bohr
            acell7     1.4248223021E+01  1.4649606260E+01  1.4248223021E+01 Bohr
            acell8     1.4233874358E+01  1.4634853384E+01  1.4233874358E+01 Bohr
            acell9     1.4219525694E+01  1.4620100507E+01  1.4219525694E+01 Bohr
            acell10    1.4205177030E+01  1.4605347631E+01  1.4205177030E+01 Bohr
              amu      1.32905430E+02  1.26904470E+02  1.78490000E+02
                       3.54527000E+01
           diemac      1.20000000E+01
          dilatmx      1.15000000E+00
             ecut      1.60000000E+01 Hartree
           ecutsm      5.00000000E-01 Hartree
-          fftalg         112
          getxred1          0
          getxred2         -1
          getxred3         -1
          getxred4         -1
          getxred5         -1
          getxred6         -1
          getxred7         -1
          getxred8         -1
          getxred9         -1
          getxred10        -1
           ionmov           2
              ixc     -101130
           jdtset        1    2    3    4    5    6    7    8    9   10
              kpt      0.00000000E+00 -1.25000000E-01  0.00000000E+00
                       0.00000000E+00 -3.75000000E-01  0.00000000E+00
                       1.25000000E-01 -2.50000000E-01  0.00000000E+00
                       1.25000000E-01 -1.25000000E-01  1.25000000E-01
                       1.25000000E-01  5.00000000E-01  0.00000000E+00
                       2.50000000E-01 -3.75000000E-01  0.00000000E+00
                       1.25000000E-01 -3.75000000E-01  1.25000000E-01
                       2.50000000E-01 -2.50000000E-01  1.25000000E-01
                       2.50000000E-01 -1.25000000E-01  2.50000000E-01
                       1.25000000E-01  2.50000000E-01  0.00000000E+00
                       2.50000000E-01  3.75000000E-01  0.00000000E+00
                       3.75000000E-01  5.00000000E-01  0.00000000E+00
                       1.25000000E-01  3.75000000E-01  1.25000000E-01
                       2.50000000E-01  5.00000000E-01  1.25000000E-01
                       3.75000000E-01 -3.75000000E-01  1.25000000E-01
                       2.50000000E-01 -3.75000000E-01  2.50000000E-01
                       3.75000000E-01 -2.50000000E-01  2.50000000E-01
                       3.75000000E-01 -1.25000000E-01  3.75000000E-01
                       5.00000000E-01  2.50000000E-01  1.25000000E-01
                      -3.75000000E-01  3.75000000E-01  1.25000000E-01
         kptrlatt        4    4   -4     -4    4    4      4   -4    4
          kptrlen1     7.87366016E+01
          kptrlen2     7.86577862E+01
          kptrlen3     7.85789707E+01
          kptrlen4     7.85001553E+01
          kptrlen5     7.84213399E+01
          kptrlen6     7.83425245E+01
          kptrlen7     7.82637091E+01
          kptrlen8     7.81848937E+01
          kptrlen9     7.81060782E+01
          kptrlen10    7.80272628E+01
P           mkmem           4
            natom           9
            nband          42
           ndtset          10
            ngfft          64      64      64
          ngfftdg1        100     100     100
          ngfftdg2        100     100     100
          ngfftdg3        100     100     100
          ngfftdg4        100     100     100
          ngfftdg5        100     100     100
          ngfftdg6        100     100     100
          ngfftdg7         96      96      96
          ngfftdg8         96      96      96
          ngfftdg9         96      96      96
          ngfftdg10        96      96      96
             nkpt          20
            nstep        2500
             nsym          16
            ntime        1000
           ntypat           4
              occ      2.000000  2.000000  2.000000  2.000000  2.000000  2.000000
                       2.000000  2.000000  2.000000  2.000000  2.000000  2.000000
                       2.000000  2.000000  2.000000  2.000000  2.000000  2.000000
                       2.000000  2.000000  2.000000  2.000000  2.000000  2.000000
                       2.000000  2.000000  2.000000  2.000000  2.000000  2.000000
                       2.000000  2.000000  2.000000  2.000000  2.000000  2.000000
                       0.000000  0.000000  0.000000  0.000000  0.000000  0.000000
          optcell           3
        optforces           1
        pawecutdg      4.00000000E+01 Hartree
            prtwf           0
            rprim      0.0000000000E+00  6.8660938421E-01  7.2702651501E-01
                       7.0710678119E-01  0.0000000000E+00  7.0710678119E-01
                       7.2702651501E-01  6.8660938421E-01  0.0000000000E+00
           shiftk     -5.00000000E-01  5.00000000E-01  5.00000000E-01
          spgroup         139
           symrel      1  0  0   0  1  0   0  0  1      -1  0  0   0 -1  0   0  0 -1
                       0  0 -1   0 -1  0  -1  0  0       0  0  1   0  1  0   1  0  0
                       0 -1  1   0 -1  0   1 -1  0       0  1 -1   0  1  0  -1  1  0
                      -1  1  0   0  1  0   0  1 -1       1 -1  0   0 -1  0   0 -1  1
                       0 -1  1  -1  0  1   0  0  1       0  1 -1   1  0 -1   0  0 -1
                       0  0 -1   1  0 -1   0  1 -1       0  0  1  -1  0  1   0 -1  1
                       1  0  0   1  0 -1   1 -1  0      -1  0  0  -1  0  1  -1  1  0
                      -1  1  0  -1  0  1  -1  0  0       1 -1  0   1  0 -1   1  0  0
           toldff      1.00000000E-08
           tolmxf      1.00000000E-05
            typat      1  1  2  4  4  2  4  4  3
           useylm           1
              wtk        0.03125    0.03125    0.06250    0.03125    0.06250    0.06250
                         0.03125    0.06250    0.03125    0.06250    0.06250    0.06250
                         0.03125    0.06250    0.06250    0.03125    0.06250    0.03125
                         0.06250    0.06250
           xangst1     2.7573908464E+00  2.6041009399E+00  2.7573908464E+00
                       8.2721725391E+00  7.8123028196E+00  8.2721725391E+00
                       5.5147816928E+00  7.5551530061E+00  5.5147816928E+00
                       5.5147816928E+00  5.2082018798E+00  2.4472872774E+00
                       5.5147816928E+00  5.2082018798E+00  8.5822761082E+00
                       5.5147816928E+00  2.8612507534E+00  5.5147816928E+00
                       8.5822761082E+00  5.2082018798E+00  5.5147816928E+00
                       2.4472872774E+00  5.2082018798E+00  5.5147816928E+00
                      -4.2975533775E-20 -3.1530710146E-20  6.3503660094E-20
           xangst2     2.7546306954E+00  2.6014942322E+00  2.7546306954E+00
                       8.2638920862E+00  7.8044826967E+00  8.2638920862E+00
                       5.5092613908E+00  7.5475902903E+00  5.5092613908E+00
                       5.5092613908E+00  5.2029884645E+00  2.4448375403E+00
                       5.5092613908E+00  5.2029884645E+00  8.5736852412E+00
                       5.5092613908E+00  2.8583866386E+00  5.5092613908E+00
                       8.5736852412E+00  5.2029884645E+00  5.5092613908E+00
                       2.4448375403E+00  5.2029884645E+00  5.5092613908E+00
                      -4.2932515222E-20 -3.1499147874E-20  6.3440092867E-20
           xangst3     2.7518705444E+00  2.5988875246E+00  2.7518705444E+00
                       8.2556116332E+00  7.7966625737E+00  8.2556116332E+00
                       5.5037410888E+00  7.5400275746E+00  5.5037410888E+00
                       5.5037410888E+00  5.1977750492E+00  2.4423878033E+00
                       5.5037410888E+00  5.1977750492E+00  8.5650943742E+00
                       5.5037410888E+00  2.8555225237E+00  5.5037410888E+00
                       8.5650943742E+00  5.1977750492E+00  5.5037410888E+00
                       2.4423878033E+00  5.1977750492E+00  5.5037410888E+00
[...]
                      -4.2810712484E-20 -3.1299261338E-20  6.3260108606E-20
           xangst7     2.7444431935E+00  2.5816493985E+00  2.7444431935E+00
                       8.2333295805E+00  7.7449481954E+00  8.2333295805E+00
                       5.4888863870E+00  7.4691530154E+00  5.4888863870E+00
                       5.4888863870E+00  5.1632987969E+00  2.4480419502E+00
                       5.4888863870E+00  5.1632987969E+00  8.5297308238E+00
                       5.4888863870E+00  2.8574445784E+00  5.4888863870E+00
                       8.5297308238E+00  5.1632987969E+00  5.4888863870E+00
                       2.4480419502E+00  5.1632987969E+00  5.4888863870E+00
                      -4.2471432559E-20 -3.0961159741E-20  6.3558779053E-20
           xangst8     2.7422084775E+00  2.5780544575E+00  2.7422084775E+00
                       8.2266254324E+00  7.7341633726E+00  8.2266254324E+00
                       5.4844169549E+00  7.4558053880E+00  5.4844169549E+00
                       5.4844169549E+00  5.1561089151E+00  2.4478104837E+00
                       5.4844169550E+00  5.1561089151E+00  8.5210234262E+00
                       5.4844169549E+00  2.8564124422E+00  5.4844169549E+00
                       8.5210234262E+00  5.1561089151E+00  5.4844169550E+00
                       2.4478104837E+00  5.1561089151E+00  5.4844169549E+00
                      -4.2528651598E-20 -3.0072457555E-20  6.2571976913E-20
           xangst9     2.7399164504E+00  2.5745677950E+00  2.7399164504E+00
                       8.2197493513E+00  7.7237033851E+00  8.2197493513E+00
                       5.4798329008E+00  7.4428488534E+00  5.4798329008E+00
                       5.4798329008E+00  5.1491355901E+00  2.4475889638E+00
                       5.4798329009E+00  5.1491355901E+00  8.5120768379E+00
                       5.4798329009E+00  2.8554223268E+00  5.4798329009E+00
                       8.5120768379E+00  5.1491355901E+00  5.4798329009E+00
                       2.4475889638E+00  5.1491355901E+00  5.4798329008E+00
                      -4.1086588663E-20 -3.0641246623E-20  6.3552794456E-20
           xangst10    2.7376727788E+00  2.5709907673E+00  2.7376727788E+00
                       8.2130183365E+00  7.7129723020E+00  8.2130183365E+00
                       5.4753455577E+00  7.4295464186E+00  5.4753455577E+00
                       5.4753455577E+00  5.1419815347E+00  2.4473463874E+00
                       5.4753455577E+00  5.1419815347E+00  8.5033447279E+00
                       5.4753455577E+00  2.8544166507E+00  5.4753455577E+00
                       8.5033447279E+00  5.1419815347E+00  5.4753455577E+00
                       2.4473463874E+00  5.1419815347E+00  5.4753455577E+00
                      -4.2415063274E-20 -3.1265711062E-20  6.4238474244E-20
            xcart1     5.2136206718E+00  4.9155511576E+00  5.2136206718E+00
                       1.5640862015E+01  1.4746653473E+01  1.5640862015E+01
                       1.0427241344E+01  1.4251583477E+01  1.0427241344E+01
                       1.0427241344E+01  9.8311023153E+00  4.6282642063E+00
                       1.0427241344E+01  9.8311023153E+00  1.6226218481E+01
                       1.0427241344E+01  5.4106211535E+00  1.0427241344E+01
                       1.6226218481E+01  9.8311023153E+00  1.0427241344E+01
                       4.6282642063E+00  9.8311023153E+00  1.0427241344E+01
                      -7.6756999853E-20 -5.9675843370E-20  1.1925749620E-19
            xcart2     5.2093174926E+00  4.9089045197E+00  5.2093174926E+00
                       1.5627952478E+01  1.4726713559E+01  1.5627952478E+01
                       1.0418634985E+01  1.4226890744E+01  1.0418634985E+01
                       1.0418634985E+01  9.8178090393E+00  4.6279643177E+00
                       1.0418634985E+01  9.8178090393E+00  1.6209305653E+01
                       1.0418634985E+01  5.4087273346E+00  1.0418634985E+01
                       1.6209305653E+01  9.8178090393E+00  1.0418634985E+01
                       4.6279643177E+00  9.8178090393E+00  1.0418634985E+01
                      -8.1218102018E-20 -6.7733809312E-20  1.1737451734E-19
            xcart3     5.2048658422E+00  4.9025384757E+00  5.2048658422E+00
                       1.5614597527E+01  1.4707615427E+01  1.5614597527E+01
                       1.0409731684E+01  1.4203235001E+01  1.0409731684E+01
                       1.0409731684E+01  9.8050769515E+00  4.6275952883E+00
                       1.0409731684E+01  9.8050769515E+00  1.6191868080E+01
                       1.0409731684E+01  5.4069189022E+00  1.0409731684E+01
                       1.6191868080E+01  9.8050769515E+00  1.0409731684E+01
                       4.6275952883E+00  9.8050769515E+00  1.0409731684E+01
                      -8.0162896528E-20 -5.8602314931E-20  1.1967020058E-19
            xcart4     5.2002291297E+00  4.8965215632E+00  5.2002291297E+00
                       1.5600687389E+01  1.4689564690E+01  1.5600687389E+01
                       1.0400458259E+01  1.4180942921E+01  1.0400458259E+01
                       1.0400458259E+01  9.7930431263E+00  4.6272094589E+00
                       1.0400458259E+01  9.7930431263E+00  1.6173707060E+01
                       1.0400458259E+01  5.4051433316E+00  1.0400458259E+01
                       1.6173707060E+01  9.7930431263E+00  1.0400458259E+01
                       4.6272094589E+00  9.7930431263E+00  1.0400458259E+01
                      -8.1048583625E-20 -5.9287564383E-20  1.1976306641E-19
            xcart5     5.1957567156E+00  4.8901957349E+00  5.1957567156E+00
                       1.5587270147E+01  1.4670587205E+01  1.5587270147E+01
                       1.0391513431E+01  1.4157404310E+01  1.0391513431E+01
                       1.0391513431E+01  9.7803914698E+00  4.6268492099E+00
                       1.0391513431E+01  9.7803914698E+00  1.6156177652E+01
                       1.0391513431E+01  5.4033786293E+00  1.0391513431E+01
                       1.6156177652E+01  9.7803914698E+00  1.0391513431E+01
                       4.6268492099E+00  9.7803914698E+00  1.0391513431E+01
                      -8.0978878459E-20 -5.9210970632E-20  1.1966006518E-19
            xcart6     5.1907292277E+00  4.8849150921E+00  5.1907292277E+00
                       1.5572187683E+01  1.4654745276E+01  1.5572187683E+01
                       1.0381458455E+01  1.4138111833E+01  1.0381458455E+01
                       1.0381458455E+01  9.7698301842E+00  4.6265145337E+00
                       1.0381458455E+01  9.7698301842E+00  1.6136402377E+01
                       1.0381458455E+01  5.4015485357E+00  1.0381458455E+01
                       1.6136402377E+01  9.7698301842E+00  1.0381458455E+01
                       4.6265145337E+00  9.7698301842E+00  1.0381458455E+01
                      -8.0900522149E-20 -5.9147032090E-20  1.1954428040E-19
            xcart7     5.1862460230E+00  4.8786103342E+00  5.1862460230E+00
                       1.5558738069E+01  1.4635831003E+01  1.5558738069E+01
                       1.0372492046E+01  1.4114653644E+01  1.0372492046E+01
                       1.0372492046E+01  9.7572206684E+00  4.6261288476E+00
                       1.0372492046E+01  9.7572206684E+00  1.6118855244E+01
                       1.0372492046E+01  5.3997876931E+00  1.0372492046E+01
                       1.6118855244E+01  9.7572206684E+00  1.0372492046E+01
                       4.6261288476E+00  9.7572206684E+00  1.0372492046E+01
                      -8.0259376008E-20 -5.8508112667E-20  1.2010868575E-19
            xcart8     5.1820230217E+00  4.8718168804E+00  5.1820230217E+00
                       1.5546069065E+01  1.4615450641E+01  1.5546069065E+01
                       1.0364046043E+01  1.4089430283E+01  1.0364046043E+01
                       1.0364046043E+01  9.7436337609E+00  4.6256914394E+00
                       1.0364046043E+01  9.7436337609E+00  1.6102400647E+01
                       1.0364046043E+01  5.3978372383E+00  1.0364046043E+01
                       1.6102400647E+01  9.7436337609E+00  1.0364046043E+01
                       4.6256914394E+00  9.7436337609E+00  1.0364046043E+01
                      -8.0367504322E-20 -5.6828708922E-20  1.1824389996E-19
            xcart9     5.1776917183E+00  4.8652280432E+00  5.1776917183E+00
                       1.5533075155E+01  1.4595684130E+01  1.5533075155E+01
                       1.0355383437E+01  1.4064945981E+01  1.0355383437E+01
                       1.0355383437E+01  9.7304560864E+00  4.6252728275E+00
                       1.0355383437E+01  9.7304560864E+00  1.6085494046E+01
                       1.0355383437E+01  5.3959661914E+00  1.0355383437E+01
                       1.6085494046E+01  9.7304560864E+00  1.0355383437E+01
                       4.6252728275E+00  9.7304560864E+00  1.0355383437E+01
                      -7.7642400308E-20 -5.7903564488E-20  1.2009737650E-19
            xcart10    5.1734517935E+00  4.8584684405E+00  5.1734517935E+00
                       1.5520355380E+01  1.4575405321E+01  1.5520355380E+01
                       1.0346903587E+01  1.4039808023E+01  1.0346903587E+01
                       1.0346903587E+01  9.7169368809E+00  4.6248144245E+00
                       1.0346903587E+01  9.7169368809E+00  1.6068992749E+01
                       1.0346903587E+01  5.3940657390E+00  1.0346903587E+01
                       1.6068992749E+01  9.7169368809E+00  1.0346903587E+01
                       4.6248144245E+00  9.7169368809E+00  1.0346903587E+01
                      -8.0152853497E-20 -5.9083631257E-20  1.2139312352E-19
             xred1     2.5000000000E-01  2.5000000000E-01  2.5000000000E-01
                       7.5000000000E-01  7.5000000000E-01  7.5000000000E-01
                       7.2482123673E-01  2.7517876327E-01  7.2482123673E-01
                       2.2193138405E-01  2.2193138405E-01  7.7806861595E-01
                       7.7806861595E-01  7.7806861595E-01  2.2193138405E-01
                       2.7517876327E-01  7.2482123673E-01  2.7517876327E-01
                       2.2193138405E-01  7.7806861595E-01  7.7806861595E-01
                       7.7806861595E-01  2.2193138405E-01  2.2193138405E-01
                       6.3641005613E-21  5.0730084759E-21 -1.2434207601E-20
             xred2     2.5000000000E-01  2.5000000000E-01  2.5000000000E-01
                       7.5000000000E-01  7.5000000000E-01  7.5000000000E-01
                       7.2454509387E-01  2.7545490613E-01  7.2454509387E-01
                       2.2210031949E-01  2.2210031949E-01  7.7789968051E-01
                       7.7789968051E-01  7.7789968051E-01  2.2210031949E-01
                       2.7545490613E-01  7.2454509387E-01  2.7545490613E-01
                       2.2210031949E-01  7.7789968051E-01  7.7789968051E-01
                       7.7789968051E-01  2.2210031949E-01  2.2210031949E-01
                       6.0811069037E-21  5.1847179868E-21 -1.2980182761E-20
             xred3     2.5000000000E-01  2.5000000000E-01  2.5000000000E-01
                       7.5000000000E-01  7.5000000000E-01  7.5000000000E-01
                       7.2427962937E-01  2.7572037063E-01  7.2427962937E-01
                       2.2227255363E-01  2.2227255363E-01  7.7772744637E-01
                       7.7772744637E-01  7.7772744637E-01  2.2227255363E-01
                       2.7572037063E-01  7.2427962937E-01  2.7572037063E-01
                       2.2227255363E-01  7.7772744637E-01  7.7772744637E-01
                       7.7772744637E-01  2.2227255363E-01  2.2227255363E-01
                       6.6100129762E-21  4.8859798321E-21 -1.2586744747E-20
             xred4     2.5000000000E-01  2.5000000000E-01  2.5000000000E-01
                       7.5000000000E-01  7.5000000000E-01  7.5000000000E-01
                       7.2403147510E-01  2.7596852490E-01  7.2403147510E-01
                       2.2245219122E-01  2.2245219122E-01  7.7754780878E-01
                       7.7754780878E-01  7.7754780878E-01  2.2245219122E-01
                       2.7596852490E-01  7.2403147510E-01  2.7596852490E-01
                       2.2245219122E-01  7.7754780878E-01  7.7754780878E-01
                       7.7754780878E-01  2.2245219122E-01  2.2245219122E-01
                       6.6269562913E-21  4.8882157739E-21 -1.2681005438E-20
             xred5     2.5000000000E-01  2.5000000000E-01  2.5000000000E-01
                       7.5000000000E-01  7.5000000000E-01  7.5000000000E-01
                       7.2376470584E-01  2.7623529416E-01  7.2376470584E-01
                       2.2262634026E-01  2.2262634026E-01  7.7737365974E-01
                       7.7737365974E-01  7.7737365974E-01  2.2262634026E-01
                       2.7623529416E-01  7.2376470584E-01  2.7623529416E-01
                       2.2262634026E-01  7.7737365974E-01  7.7737365974E-01
                       7.7737365974E-01  2.2262634026E-01  2.2262634026E-01
                       6.6269562913E-21  4.8882157739E-21 -1.2681005438E-20
             xred6     2.5000000000E-01  2.5000000000E-01  2.5000000000E-01
                       7.5000000000E-01  7.5000000000E-01  7.5000000000E-01
                       7.2355975315E-01  2.7644024685E-01  7.2355975315E-01
                       2.2282584637E-01  2.2282584637E-01  7.7717415363E-01
                       7.7717415363E-01  7.7717415363E-01  2.2282584637E-01
                       2.7644024685E-01  7.2355975315E-01  2.7644024685E-01
                       2.2282584637E-01  7.7717415363E-01  7.7717415363E-01
                       7.7717415363E-01  2.2282584637E-01  2.2282584637E-01
                       6.6269562913E-21  4.8882157739E-21 -1.2681005438E-20
             xred7     2.5000000000E-01  2.5000000000E-01  2.5000000000E-01
                       7.5000000000E-01  7.5000000000E-01  7.5000000000E-01
                       7.2329273486E-01  2.7670726514E-01  7.2329273486E-01
                       2.2299987443E-01  2.2299987443E-01  7.7700012557E-01
                       7.7700012557E-01  7.7700012557E-01  2.2299987443E-01
                       2.7670726514E-01  7.2329273486E-01  2.7670726514E-01
                       2.2299987443E-01  7.7700012557E-01  7.7700012557E-01
                       7.7700012557E-01  2.2299987443E-01  2.2299987443E-01
                       6.6604312915E-21  4.9191086319E-21 -1.2656822544E-20
             xred8     2.5000000000E-01  2.5000000000E-01  2.5000000000E-01
                       7.5000000000E-01  7.5000000000E-01  7.5000000000E-01
                       7.2300697200E-01  2.7699302800E-01  7.2300697200E-01
                       2.2316050218E-01  2.2316050218E-01  7.7683949782E-01
                       7.7683949782E-01  7.7683949782E-01  2.2316050218E-01
                       2.7699302800E-01  7.2300697200E-01  2.7699302800E-01
                       2.2316050218E-01  7.7683949782E-01  7.7683949782E-01
                       7.7683949782E-01  2.2316050218E-01  2.2316050218E-01
                       6.6655534936E-21  4.7434946199E-21 -1.2497947272E-20
             xred9     2.5000000000E-01  2.5000000000E-01  2.5000000000E-01
                       7.5000000000E-01  7.5000000000E-01  7.5000000000E-01
                       7.2272799222E-01  2.7727200778E-01  7.2272799222E-01
                       2.2332697074E-01  2.2332697074E-01  7.7667302926E-01
                       7.7667302926E-01  7.7667302926E-01  2.2332697074E-01
                       2.7727200778E-01  7.2272799222E-01  2.7727200778E-01
                       2.2332697074E-01  7.7667302926E-01  7.7667302926E-01
                       7.7667302926E-01  2.2332697074E-01  2.2332697074E-01
                       6.5723023839E-21  5.0252765215E-21 -1.2523057824E-20
             xred10    2.5000000000E-01  2.5000000000E-01  2.5000000000E-01
                       7.5000000000E-01  7.5000000000E-01  7.5000000000E-01
                       7.2244001350E-01  2.7755998650E-01  7.2244001350E-01
                       2.2348784763E-01  2.2348784763E-01  7.7651215237E-01
                       7.7651215237E-01  7.7651215237E-01  2.2348784763E-01
                       2.7755998650E-01  7.2244001350E-01  2.7755998650E-01
                       2.2348784763E-01  7.7651215237E-01  7.7651215237E-01
                       7.7651215237E-01  2.2348784763E-01  2.2348784763E-01
                       6.6991948473E-21  5.0331193176E-21 -1.2779673910E-20
            znucl       55.00000   53.00000   72.00000   17.00000

- Timing analysis has been suppressed with timopt=0

 Suggested references for the acknowledgment of ABINIT usage.

 Calculation completed.
.Delivered   0 WARNINGs and 133 COMMENTs to log file.