.Version 9.2.2 of ABINIT

 ABINIT is a project of the Universite Catholique de Louvain,
 Corning Inc. and other collaborators, see ~abinit/doc/developers/contributors.txt .
 acknowledgments of the ABINIT effort.

.Starting date : Tue 18 Jul 2023.
- ( at 09h58 )

- The starting date is more than 2 years after the initial release
- of this version of ABINIT, namely Nov 2020.
- Note that the use beyond 3 years after the release will not be supported.
- Action: please, switch to a more recent version of ABINIT.

- input  file    -> Cs2TiI6.in
- output file    -> Cs2TiI6.out
- root for input  files -> Cs2TiI6i
- root for output files -> Cs2TiI6o

 Symmetries : space group I4 m m (#107); Bravais tI (body-center tetrag.)
     intxc =       0    ionmov =       0      iscf =      17    lmnmax =       8
     lnmax =       8     mgfft =      60  mpssoang =       4    mqgrid =    3001
     natom =       9  nloc_mem =       1    nspden =       1   nspinor =       1
    nsppol =       1      nsym =       8    n1xccc =    2501    ntypat =       4
    occopt =       1   xclevel =       2
-    mband =          42        mffmem =           1         mkmem =           1
       mpw =        7896          nfft =      216000          nkpt =           4
  Rough estimation (10% accuracy) of disk space for files :

------------- Echo of variables that govern the present computation ------------
-
- outvars: echo of selected default values
-   iomode0 =  0 , fftalg0 =112 , wfoptalg0 =  0
-
- outvars: echo of global parameters not present in the input file
-  max_nthreads =    0
-
 -outvars: echo values of preprocessed input variables --------
            acell      1.3661227073E+01  1.3661227073E+01  1.3932727896E+01 Bohr
              amu      1.32905430E+02  1.26904470E+02  9.12240000E+01
                       3.54527000E+01
           diemac      1.20000000E+01
             ecut      2.00000000E+01 Hartree
-          fftalg         112
             iscf          17
           istwfk        1    1    1    1
              ixc        -428
              kpt      0.00000000E+00  0.00000000E+00  0.00000000E+00
                       5.00000000E-01  0.00000000E+00  0.00000000E+00
                       5.00000000E-01  5.00000000E-01  0.00000000E+00
                       5.00000000E-01  0.00000000E+00  5.00000000E-01
         kptns_hf      0.00000000E+00  0.00000000E+00  0.00000000E+00
                       5.00000000E-01  0.00000000E+00  0.00000000E+00
                       0.00000000E+00  5.00000000E-01  0.00000000E+00
                       5.00000000E-01  5.00000000E-01  0.00000000E+00
                       0.00000000E+00  0.00000000E+00  5.00000000E-01
                       5.00000000E-01  0.00000000E+00  5.00000000E-01
                       0.00000000E+00  5.00000000E-01  5.00000000E-01
                       5.00000000E-01  5.00000000E-01  5.00000000E-01
         kptrlatt        2    0    0      0    2    0      0    0    2
          kptrlen      2.73224541E+01
P           mkmem           1
            natom           9
            nband          42
          nbandhf          36
            ngfft          60      60      60
             nkpt           4
           nkpthf           8
-           npkpt           4
            nstep        2500
             nsym           8
           ntypat           4
              occ      2.000000  2.000000  2.000000  2.000000  2.000000  2.000000
                       2.000000  2.000000  2.000000  2.000000  2.000000  2.000000
                       2.000000  2.000000  2.000000  2.000000  2.000000  2.000000
                       2.000000  2.000000  2.000000  2.000000  2.000000  2.000000
                       2.000000  2.000000  2.000000  2.000000  2.000000  2.000000
                       2.000000  2.000000  2.000000  2.000000  2.000000  2.000000
                       0.000000  0.000000  0.000000  0.000000  0.000000  0.000000
            rprim      0.0000000000E+00  7.2115969691E-01  6.9276885868E-01
                       7.2115969691E-01  0.0000000000E+00  6.9276885868E-01
                       7.0710678119E-01  7.0710678119E-01  0.0000000000E+00
          spgroup         107
           symrel      1  0  0   0  1  0   0  0  1       1  0 -1   0  1 -1   0  0 -1
                       0  1 -1   1  0 -1   0  0 -1       0  1  0   1  0  0   0  0  1
                       1  0  0   1  0 -1   1 -1  0       0  1  0   0  1 -1  -1  1  0
                       0  1 -1   0  1  0  -1  1  0       1  0 -1   1  0  0   1 -1  0
           toldfe      1.00000000E-08 Hartree
            typat      1  1  2  4  4  4  4  4  3
          usefock           1
              wtk        0.12500    0.50000    0.12500    0.25000
           xangst      2.6067074493E+00  2.6067074493E+00  2.4494543337E+00
                       7.8201223480E+00  7.8201223480E+00  7.4576259004E+00
                       5.2134148987E+00  5.2134148987E+00  2.7616384297E+00
                       5.2134148986E+00  5.2134148986E+00  7.4747033423E+00
                       7.9645923253E+00  5.2134148987E+00  5.0021575641E+00
                       5.2134148987E+00  7.9645923253E+00  5.0021575641E+00
                       5.2134148986E+00  2.4622374720E+00  5.0021575641E+00
                       2.4622374720E+00  5.2134148986E+00  5.0021575641E+00
                       1.6179694976E-12  1.6179694976E-12 -8.6679728767E-02
            xcart      4.9259631878E+00  4.9259631878E+00  4.6287978657E+00
                       1.4777889563E+01  1.4777889563E+01  1.4092870553E+01
                       9.8519263756E+00  9.8519263756E+00  5.2187403101E+00
                       9.8519263755E+00  9.8519263755E+00  1.4125142242E+01
                       1.5050898255E+01  9.8519263757E+00  9.4527078696E+00
                       9.8519263757E+00  1.5050898255E+01  9.4527078696E+00
                       9.8519263755E+00  4.6529544962E+00  9.4527078696E+00
                       4.6529544962E+00  9.8519263755E+00  9.4527078696E+00
                       3.0575192418E-12  3.0575192418E-12 -1.6380094864E-01
             xred      2.4454576896E-01  2.4454576896E-01  2.5545423104E-01
                       7.4454576896E-01  7.4454576896E-01  7.5545423104E-01
                       2.7571324114E-01  2.7571324114E-01  7.2428675886E-01
                       7.4625072672E-01  7.4625072672E-01  2.5374927328E-01
                       2.3554398155E-01  7.6325518047E-01  7.6445601845E-01
                       7.6325518047E-01  2.3554398155E-01  7.6445601845E-01
                       2.3554398155E-01  7.6325518047E-01  2.3674481953E-01
                       7.6325518047E-01  2.3554398155E-01  2.3674481953E-01
                      -8.6538298072E-03 -8.6538298072E-03  8.6538298072E-03
            znucl       55.00000   53.00000   40.00000   17.00000

 chkinp: Checking input parameters for consistency.

== DATASET  1 ==================================================================
-   mpi_nproc: 4, omp_nthreads: -1 (-1 if OMP is not activated)

--- !DatasetInfo
iteration_state: {dtset: 1, }
dimensions: {natom: 9, nkpt: 4, mband: 42, nsppol: 1, nspinor: 1, nspden: 1, mpw: 7896, }
cutoff_energies: {ecut:  20.0, pawecutdg:  -1.0, }
electrons: {nelect:   7.20000000E+01, charge:   0.00000000E+00, occopt:   1.00000000E+00, tsmear:   1.00000000E-02, }
meta: {optdriver: 0, ionmov: 0, optcell: 0, iscf: 17, paral_kgb: 0, }
...

 Real(R)+Recip(G) space primitive vectors, cartesian coordinates (Bohr,Bohr^-1):
 R(1)=  0.0000000  9.8519264  9.4640727  G(1)= -0.0507515  0.0507515  0.0528314
 R(2)=  9.8519264  0.0000000  9.4640727  G(2)=  0.0507515 -0.0507515  0.0528314
 R(3)=  9.8519264  9.8519264  0.0000000  G(3)=  0.0507515  0.0507515 -0.0528314
 Unit cell volume ucvol=  1.8371744E+03 bohr^3
 Angles (23,13,12)=  5.93403724E+01  5.93403724E+01  6.13192551E+01 degrees

 getcut: wavevector=  0.0000  0.0000  0.0000  ngfft=  60  60  60
         ecut(hartree)=     20.000   => boxcut(ratio)=   2.13912

--- Pseudopotential description ------------------------------------------------
- pspini: atom type   1  psp file is ../../../Psps_for_tests/ONCVPSP-PBE-PDv0.4/Cs-sp.psp8
- pspatm: opening atomic psp file    ../../../Psps_for_tests/ONCVPSP-PBE-PDv0.4/Cs-sp.psp8
- Cs    ONCVPSP-3.2.3.1  r_core=   2.27353   1.85623   2.01788   1.90105
- 55.00000   9.00000    170703                znucl, zion, pspdat
    8   32    3    4       600   0.00000      pspcod,pspxc,lmax,lloc,mmax,r2well
    5.99000000000000    5.00000000000000    0.00000000000000   rchrg,fchrg,qchrg
     nproj     2     2     2     2
     extension_switch     1
  pspatm : epsatm=   22.81663475
         --- l  ekb(1:nproj) -->
             0    6.176104    0.756334
             1    6.263084    0.786397
             2    3.737592    0.906929
             3   -9.272327   -2.535859
 pspatm: atomic psp has been read  and splines computed

- pspini: atom type   2  psp file is ../../../Psps_for_tests/ONCVPSP-PBE-PDv0.4/I.psp8
- pspatm: opening atomic psp file    ../../../Psps_for_tests/ONCVPSP-PBE-PDv0.4/I.psp8
- I     ONCVPSP-3.2.3.1  r_core=   2.02042   2.17032   2.27639
- 53.00000   7.00000    170510                znucl, zion, pspdat
    8   32    2    4       600   0.00000      pspcod,pspxc,lmax,lloc,mmax,r2well
    5.99000000000000    4.00000000000000    0.00000000000000   rchrg,fchrg,qchrg
     nproj     2     2     2
     extension_switch     1
  pspatm : epsatm=   19.17050482
         --- l  ekb(1:nproj) -->
             0    5.955518    0.916455
             1    4.011347    0.742302
             2    4.134838    0.711910
 pspatm: atomic psp has been read  and splines computed

- pspini: atom type   3  psp file is ../../../Psps_for_tests/ONCVPSP-PBE-PDv0.4/Zr-sp.psp8
- pspatm: opening atomic psp file    ../../../Psps_for_tests/ONCVPSP-PBE-PDv0.4/Zr-sp.psp8
- Zr    ONCVPSP-3.2.3.1  r_core=   1.56507   1.56507   1.51006
- 40.00000  12.00000    170510                znucl, zion, pspdat
    8   32    2    4       600   0.00000      pspcod,pspxc,lmax,lloc,mmax,r2well
    5.99000000000000    5.00000000000000    0.00000000000000   rchrg,fchrg,qchrg
     nproj     2     2     2
     extension_switch     1
  pspatm : epsatm=   18.79873988
         --- l  ekb(1:nproj) -->
             0   10.621766    0.898805
             1    5.849837    0.750341
             2    1.531478    0.503023
 pspatm: atomic psp has been read  and splines computed

- pspini: atom type   4  psp file is ../../../Psps_for_tests/ONCVPSP-PBE-PDv0.4/Cl.psp8
- pspatm: opening atomic psp file    ../../../Psps_for_tests/ONCVPSP-PBE-PDv0.4/Cl.psp8
- Cl    ONCVPSP-3.2.3.1  r_core=   1.56009   1.35202   1.75774
- 17.00000   7.00000    170504                znucl, zion, pspdat
    8   32    2    4       600   0.00000      pspcod,pspxc,lmax,lloc,mmax,r2well
    5.99000000000000    8.00000000000000    0.00000000000000   rchrg,fchrg,qchrg
     nproj     2     2     2
     extension_switch     1
  pspatm : epsatm=    9.12776994
         --- l  ekb(1:nproj) -->
             0    8.139296    0.698720
             1    3.821713    1.107519
             2   -2.938609   -0.805455
 pspatm: atomic psp has been read  and splines computed

   9.30537820E+03                                ecore*ucvol(ha*bohr**3)

_setup2: Arith. and geom. avg. npw (full set) are    7855.375    7855.350

--- !BeginCycle
iteration_state: {dtset: 1, }
solver: {iscf: 17, nstep: 2500, nline: 4, wfoptalg: 0, }
tolerances: {toldfe: 1.00E-08, }
...

     iter   Etot(hartree)      deltaE(h)  residm     nres2
 ETOT  1  -187.16780736914    -1.872E+02 2.278E-02 4.496E+00
 ETOT  2  -192.93608480162    -5.768E+00 5.713E-03 4.328E+00
 ETOT  3  -192.93002842563     6.056E-03 3.772E-03 1.446E+00
 ETOT  4  -192.91117801671     1.885E-02 3.054E-03 5.204E-02
 ETOT  5  -192.91296152594    -1.784E-03 2.024E-03 4.968E-02
 ETOT  6  -192.91266954997     2.920E-04 2.030E-03 3.375E-03
 ETOT  7  -192.91265346069     1.609E-05 1.407E-03 8.401E-04
 ETOT  8  -192.91265184410     1.617E-06 2.050E-03 6.550E-05
 ETOT  9  -192.91265215430    -3.102E-07 1.335E-03 2.894E-06
 ETOT 10  -192.91265216667    -1.237E-08 7.470E-04 8.213E-07
 ETOT 11  -192.91265211463     5.204E-08 3.141E-04 4.154E-07
 ETOT 12  -192.91265210537     9.253E-09 1.510E-04 1.171E-08
 ETOT 13  -192.91265210656    -1.185E-09 6.767E-05 2.025E-09

 At SCF step   13, etot is converged :
  for the second time, diff in etot=  1.185E-09 < toldfe=  1.000E-08

 Cartesian components of stress tensor (hartree/bohr^3)
  sigma(1 1)= -3.06012802E-05  sigma(3 2)=  5.08912112E-14
  sigma(2 2)= -3.06012802E-05  sigma(3 1)=  5.08912803E-14
  sigma(3 3)= -3.41976530E-05  sigma(2 1)= -9.77749870E-14

--- !ResultsGS
iteration_state: {dtset: 1, }
comment   : Summary of ground state results
lattice_vectors:
- [  0.0000000,   9.8519264,   9.4640727, ]
- [  9.8519264,   0.0000000,   9.4640727, ]
- [  9.8519264,   9.8519264,   0.0000000, ]
lattice_lengths: [  13.66123,   13.66123,   13.93273, ]
lattice_angles: [ 59.340,  59.340,  61.319, ] # degrees, (23, 13, 12)
lattice_volume:   1.8371744E+03
convergence: {deltae: -1.185E-09, res2:  2.025E-09, residm:  6.767E-05, diffor: null, }
etotal    :  -1.92912652E+02
entropy   :   0.00000000E+00
fermie    :   6.82822531E-02
cartesian_stress_tensor: # hartree/bohr^3
- [ -3.06012802E-05,  -9.77749870E-14,   5.08912803E-14, ]
- [ -9.77749870E-14,  -3.06012802E-05,   5.08912112E-14, ]
- [  5.08912803E-14,   5.08912112E-14,  -3.41976530E-05, ]
pressure_GPa:   9.3559E-01
xred      :
- [  2.4455E-01,   2.4455E-01,   2.5545E-01, Cs]
- [  7.4455E-01,   7.4455E-01,   7.5545E-01, Cs]
- [  2.7571E-01,   2.7571E-01,   7.2429E-01,  I]
- [  7.4625E-01,   7.4625E-01,   2.5375E-01, Cl]
- [  2.3554E-01,   7.6326E-01,   7.6446E-01, Cl]
- [  7.6326E-01,   2.3554E-01,   7.6446E-01, Cl]
- [  2.3554E-01,   7.6326E-01,   2.3674E-01, Cl]
- [  7.6326E-01,   2.3554E-01,   2.3674E-01, Cl]
- [ -8.6538E-03,  -8.6538E-03,   8.6538E-03, Zr]
cartesian_forces: # hartree/bohr
- [  4.54852059E-20,  -1.38607223E-19,  -1.28978148E-04, ]
- [  7.00427095E-20,  -1.63164727E-19,  -1.28978148E-04, ]
- [  1.53944607E-20,  -1.08516478E-19,  -1.90561787E-03, ]
- [ -4.12719137E-19,   3.19597119E-19,   3.30604629E-03, ]
- [  3.55122113E-03,  -6.36781235E-14,  -2.40037833E-04, ]
- [ -6.36783699E-14,   3.55122113E-03,  -2.40037833E-04, ]
- [  6.36782472E-14,  -3.55122113E-03,  -2.40037833E-04, ]
- [ -3.55122113E-03,   6.36780599E-14,  -2.40037833E-04, ]
- [  5.70600120E-20,  -1.50182029E-19,  -1.82320796E-04, ]
force_length_stats: {min:   1.28978148E-04, max:   3.55932433E-03, mean:   2.20991540E-03, }
...

 Integrated electronic density in atomic spheres:
 Atom  Sphere_radius  Integrated_density
    1        2.00000          4.44513858
    2        2.00000          4.44513858
    3        2.00000          2.90112225
    4        2.00000          5.10582349
    5        2.00000          5.10913819
    6        2.00000          5.10913819
    7        2.00000          5.10913819
    8        2.00000          5.10913819
    9        2.00000          8.17639493

 ----iterations are completed or convergence reached----

 Mean square residual over all n,k,spin=   55.217E-08; max=  67.672E-06
 reduced coordinates (array xred) for    9 atoms
       0.244545768960      0.244545768960      0.255454231040
       0.744545768960      0.744545768960      0.755454231040
       0.275713241140      0.275713241140      0.724286758860
       0.746250726720      0.746250726720      0.253749273280
       0.235543981550      0.763255180470      0.764456018450
       0.763255180470      0.235543981550      0.764456018450
       0.235543981550      0.763255180470      0.236744819530
       0.763255180470      0.235543981550      0.236744819530
      -0.008653829807     -0.008653829807      0.008653829807
 rms dE/dt=  2.1477E-02; max dE/dt=  3.7135E-02; dE/dt below (all hartree)
    1       0.001098035952      0.001098035952      0.000000000000
    2       0.001098035952      0.001098035952      0.000000000000
    3       0.017912283393      0.017912283393      0.000000000000
    4      -0.031411285031     -0.031411285031      0.000000000000
    5       0.002149112884     -0.032837256247     -0.034986369131
    6      -0.032837256247      0.002149112884     -0.034986369131
    7       0.037135482015      0.002149112884      0.034986369131
    8       0.002149112884      0.037135482015      0.034986369131
    9       0.001602874654      0.001602874654      0.000000000000

 cartesian coordinates (angstrom) at end:
    1      2.60670744932754     2.60670744932754     2.44945433371487
    2      7.82012234798059     7.82012234798059     7.45762590039513
    3      5.21341489869498     5.21341489869498     2.76163842966921
    4      5.21341489860701     5.21341489860701     7.47470334234717
    5      7.96459232528875     5.21341489870249     5.00215756405264
    6      5.21341489870249     7.96459232528875     5.00215756405264
    7      5.21341489860383     2.46223747201757     5.00215756405264
    8      2.46223747201757     5.21341489860383     5.00215756405264
    9      0.00000000000162     0.00000000000162    -0.08667972876662

 cartesian forces (hartree/bohr) at end:
    1      0.00000000000000    -0.00000000000000    -0.00012897814802
    2      0.00000000000000    -0.00000000000000    -0.00012897814802
    3      0.00000000000000    -0.00000000000000    -0.00190561786715
    4     -0.00000000000000     0.00000000000000     0.00330604629188
    5      0.00355122113153    -0.00000000000006    -0.00024003783299
    6     -0.00000000000006     0.00355122113153    -0.00024003783299
    7      0.00000000000006    -0.00355122113153    -0.00024003783312
    8     -0.00355122113153     0.00000000000006    -0.00024003783312
    9      0.00000000000000    -0.00000000000000    -0.00018232079645
 frms,max,avg= 1.5551943E-03 3.5512211E-03   0.000E+00  0.000E+00  1.296E-05 h/b

 cartesian forces (eV/Angstrom) at end:
    1      0.00000000000000    -0.00000000000000    -0.00663232247811
    2      0.00000000000000    -0.00000000000000    -0.00663232247811
    3      0.00000000000000    -0.00000000000000    -0.09799080238495
    4     -0.00000000000000     0.00000000000000     0.17000372133750
    5      0.18261111743504    -0.00000000000327    -0.01234324061660
    6     -0.00000000000327     0.18261111743504    -0.01234324061660
    7      0.00000000000327    -0.18261111743504    -0.01234324062341
    8     -0.18261111743504     0.00000000000327    -0.01234324062341
    9      0.00000000000000    -0.00000000000000    -0.00937531151633
 frms,max,avg= 7.9971300E-02 1.8261112E-01   0.000E+00  0.000E+00  6.663E-04 e/A
 length scales= 13.661227073000 13.661227073000 13.932727896000 bohr
              =  7.229210008404  7.229210008404  7.372882056049 angstroms
 prteigrs : about to open file Cs2TiI6o_EIG
 Fermi (or HOMO) energy (hartree) =   0.06828   Average Vxc (hartree)=  -0.26976
 Eigenvalues (hartree) for nkpt=   4  k points:
 kpt#   1, nband= 42, wtk=  0.12500, kpt=  0.0000  0.0000  0.0000 (reduced coord)
  -1.86366   -1.00585   -1.00585   -1.00419   -0.71356   -0.71232   -0.51923   -0.50343
  -0.50121   -0.49920   -0.49920   -0.36806   -0.20747   -0.20692   -0.20692   -0.19861
  -0.19861   -0.19674   -0.10971   -0.07150   -0.06065   -0.05697   -0.05649   -0.05649
  -0.05299   -0.05299   -0.03855   -0.01788   -0.01201   -0.01201    0.00583    0.00583
   0.00774    0.04627    0.06828    0.06828    0.18813    0.18813    0.19377    0.28562
   0.28724    0.28812
 prteigrs : prtvol=0 or 1, do not print more k-points.

--- !EnergyTerms
iteration_state     : {dtset: 1, }
comment             : Components of total free energy in Hartree
kinetic             :  5.56968798162069E+01
hartree             :  3.68538725723508E+01
xc                  : -4.47672138657825E+01
Ewald energy        : -1.33316301892834E+02
psp_core            :  5.06504899589860E+00
local_psp           : -1.31896612697445E+02
non_local_psp+x     :  1.94516802141463E+01
total_energy        : -1.92912646857460E+02
...

--- !EnergyTermsDC
iteration_state     : {dtset: 1, }
comment             : '"Double-counting" decomposition of free energy'
band_energy         : -2.17744976179795E+01
Ewald energy        : -1.33316301892834E+02
psp_core            :  5.06504899589860E+00
xc_dc               : -4.28869015916444E+01
total_energy_dc     : -1.92912652106560E+02
...

 Cartesian components of stress tensor (hartree/bohr^3)
  sigma(1 1)= -3.06012802E-05  sigma(3 2)=  5.08912112E-14
  sigma(2 2)= -3.06012802E-05  sigma(3 1)=  5.08912803E-14
  sigma(3 3)= -3.41976530E-05  sigma(2 1)= -9.77749870E-14

-Cartesian components of stress tensor (GPa)         [Pressure=  9.3559E-01 GPa]
- sigma(1 1)= -9.00320595E-01  sigma(3 2)=  1.49727087E-09
- sigma(2 2)= -9.00320595E-01  sigma(3 1)=  1.49727291E-09
- sigma(3 3)= -1.00612952E+00  sigma(2 1)= -2.87663895E-09

== END DATASET(S) ==============================================================

 -outvars: echo values of variables after computation  --------
            acell      1.3661227073E+01  1.3661227073E+01  1.3932727896E+01 Bohr
              amu      1.32905430E+02  1.26904470E+02  9.12240000E+01
                       3.54527000E+01
           diemac      1.20000000E+01
             ecut      2.00000000E+01 Hartree
           etotal     -1.9291265211E+02
            fcart      4.5485205937E-20 -1.3860722329E-19 -1.2897814802E-04
                       7.0042709493E-20 -1.6316472685E-19 -1.2897814802E-04
                       1.5394460655E-20 -1.0851647801E-19 -1.9056178672E-03
                      -4.1271913674E-19  3.1959711939E-19  3.3060462919E-03
                       3.5512211315E-03 -6.3678123452E-14 -2.4003783299E-04
                      -6.3678369855E-14  3.5512211315E-03 -2.4003783299E-04
                       6.3678247170E-14 -3.5512211315E-03 -2.4003783312E-04
                      -3.5512211315E-03  6.3678059893E-14 -2.4003783312E-04
                       5.7060012043E-20 -1.5018202940E-19 -1.8232079645E-04
-          fftalg         112
             iscf          17
           istwfk        1    1    1    1
              ixc        -428
              kpt      0.00000000E+00  0.00000000E+00  0.00000000E+00
                       5.00000000E-01  0.00000000E+00  0.00000000E+00
                       5.00000000E-01  5.00000000E-01  0.00000000E+00
                       5.00000000E-01  0.00000000E+00  5.00000000E-01
         kptns_hf      0.00000000E+00  0.00000000E+00  0.00000000E+00
                       5.00000000E-01  0.00000000E+00  0.00000000E+00
                       0.00000000E+00  5.00000000E-01  0.00000000E+00
                       5.00000000E-01  5.00000000E-01  0.00000000E+00
                       0.00000000E+00  0.00000000E+00  5.00000000E-01
                       5.00000000E-01  0.00000000E+00  5.00000000E-01
                       0.00000000E+00  5.00000000E-01  5.00000000E-01
                       5.00000000E-01  5.00000000E-01  5.00000000E-01
         kptrlatt        2    0    0      0    2    0      0    0    2
          kptrlen      2.73224541E+01
P           mkmem           1
            natom           9
            nband          42
          nbandhf          36
            ngfft          60      60      60
             nkpt           4
           nkpthf           8
-           npkpt           4
            nstep        2500
             nsym           8
           ntypat           4
              occ      2.000000  2.000000  2.000000  2.000000  2.000000  2.000000
                       2.000000  2.000000  2.000000  2.000000  2.000000  2.000000
                       2.000000  2.000000  2.000000  2.000000  2.000000  2.000000
                       2.000000  2.000000  2.000000  2.000000  2.000000  2.000000
                       2.000000  2.000000  2.000000  2.000000  2.000000  2.000000
                       2.000000  2.000000  2.000000  2.000000  2.000000  2.000000
                       0.000000  0.000000  0.000000  0.000000  0.000000  0.000000
            rprim      0.0000000000E+00  7.2115969691E-01  6.9276885868E-01
                       7.2115969691E-01  0.0000000000E+00  6.9276885868E-01
                       7.0710678119E-01  7.0710678119E-01  0.0000000000E+00
          spgroup         107
           strten     -3.0601280203E-05 -3.0601280203E-05 -3.4197653011E-05
                       5.0891211187E-14  5.0891280255E-14 -9.7774987039E-14
           symrel      1  0  0   0  1  0   0  0  1       1  0 -1   0  1 -1   0  0 -1
                       0  1 -1   1  0 -1   0  0 -1       0  1  0   1  0  0   0  0  1
                       1  0  0   1  0 -1   1 -1  0       0  1  0   0  1 -1  -1  1  0
                       0  1 -1   0  1  0  -1  1  0       1  0 -1   1  0  0   1 -1  0
           toldfe      1.00000000E-08 Hartree
            typat      1  1  2  4  4  4  4  4  3
          usefock           1
              wtk        0.12500    0.50000    0.12500    0.25000
           xangst      2.6067074493E+00  2.6067074493E+00  2.4494543337E+00
                       7.8201223480E+00  7.8201223480E+00  7.4576259004E+00
                       5.2134148987E+00  5.2134148987E+00  2.7616384297E+00
                       5.2134148986E+00  5.2134148986E+00  7.4747033423E+00
                       7.9645923253E+00  5.2134148987E+00  5.0021575641E+00
                       5.2134148987E+00  7.9645923253E+00  5.0021575641E+00
                       5.2134148986E+00  2.4622374720E+00  5.0021575641E+00
                       2.4622374720E+00  5.2134148986E+00  5.0021575641E+00
                       1.6179694976E-12  1.6179694976E-12 -8.6679728767E-02
            xcart      4.9259631878E+00  4.9259631878E+00  4.6287978657E+00
                       1.4777889563E+01  1.4777889563E+01  1.4092870553E+01
                       9.8519263756E+00  9.8519263756E+00  5.2187403101E+00
                       9.8519263755E+00  9.8519263755E+00  1.4125142242E+01
                       1.5050898255E+01  9.8519263757E+00  9.4527078696E+00
                       9.8519263757E+00  1.5050898255E+01  9.4527078696E+00
                       9.8519263755E+00  4.6529544962E+00  9.4527078696E+00
                       4.6529544962E+00  9.8519263755E+00  9.4527078696E+00
                       3.0575192418E-12  3.0575192418E-12 -1.6380094864E-01
             xred      2.4454576896E-01  2.4454576896E-01  2.5545423104E-01
                       7.4454576896E-01  7.4454576896E-01  7.5545423104E-01
                       2.7571324114E-01  2.7571324114E-01  7.2428675886E-01
                       7.4625072672E-01  7.4625072672E-01  2.5374927328E-01
                       2.3554398155E-01  7.6325518047E-01  7.6445601845E-01
                       7.6325518047E-01  2.3554398155E-01  7.6445601845E-01
                       2.3554398155E-01  7.6325518047E-01  2.3674481953E-01
                       7.6325518047E-01  2.3554398155E-01  2.3674481953E-01
                      -8.6538298072E-03 -8.6538298072E-03  8.6538298072E-03
            znucl       55.00000   53.00000   40.00000   17.00000

- Timing analysis has been suppressed with timopt=0

 Suggested references for the acknowledgment of ABINIT usage.

 Calculation completed.
.Delivered   0 WARNINGs and   0 COMMENTs to log file.