.Version 9.2.2 of ABINIT

 ABINIT is a project of the Universite Catholique de Louvain,
 Corning Inc. and other collaborators, see ~abinit/doc/developers/contributors.txt .
 acknowledgments of the ABINIT effort.

.Starting date : Fri 16 Sep 2022.
- ( at 11h25 )

- input  file    -> Cs2TiI6.in
- output file    -> Cs2TiI6.out
- root for input  files -> Cs2TiI6i
- root for output files -> Cs2TiI6o

- inpspheads : Reading pseudopotential header in XML form from
-   ../../../Psps_for_tests/ATOMICDATA/Cs.GGA_PBE-JTH.xml
- inpspheads : Reading pseudopotential header in XML form from
-   ../../../Psps_for_tests/ATOMICDATA/I.GGA_PBE-JTH.xml
- inpspheads : Reading pseudopotential header in XML form from
-   ../../../Psps_for_tests/ATOMICDATA/Hf.GGA_PBE-JTH.xml

 Symmetries : space group Fm -3 m (#225); Bravais cF (face-center cubic)
     intxc =       0    ionmov =       2      iscf =      17    lmnmax =      18
     lnmax =       6     mgfft =      72  mpssoang =       3    mqgrid =    4290
     natom =       9  nloc_mem =       2    nspden =       1   nspinor =       1
    nsppol =       1      nsym =      48    n1xccc =       1    ntypat =       3
    occopt =       1   xclevel =       2
-    mband =          42        mffmem =           1         mkmem =           2
       mpw =       13606          nfft =      373248          nkpt =          10
Pmy_natom=         2
 PAW method is used; the additional fine FFT grid is defined by:
   mgfftf=       108    nfftf =   1259712
  Rough estimation (10% accuracy) of disk space for files :

------------- Echo of variables that govern the present computation ------------
-
- outvars: echo of selected default values
-   iomode0 =  0 , fftalg0 =112 , wfoptalg0 = 10
-
- outvars: echo of global parameters not present in the input file
-  max_nthreads =    0
-
 -outvars: echo values of preprocessed input variables --------
            acell      1.6045663836E+01  1.6045663836E+01  1.6045663836E+01 Bohr
              amu      1.32905430E+02  1.26904470E+02  1.78490000E+02
           diemac      1.20000000E+01
          dilatmx      1.15000000E+00
             ecut      1.60000000E+01 Hartree
           ecutsm      5.00000000E-01 Hartree
-          fftalg         112
           ionmov           2
              ixc     -101130
              kpt     -1.25000000E-01 -2.50000000E-01  0.00000000E+00
                      -1.25000000E-01  5.00000000E-01  0.00000000E+00
                      -2.50000000E-01 -3.75000000E-01  0.00000000E+00
                      -1.25000000E-01 -3.75000000E-01  1.25000000E-01
                      -1.25000000E-01  2.50000000E-01  0.00000000E+00
                      -2.50000000E-01  3.75000000E-01  0.00000000E+00
                      -3.75000000E-01  5.00000000E-01  0.00000000E+00
                      -2.50000000E-01  5.00000000E-01  1.25000000E-01
                      -1.25000000E-01  0.00000000E+00  0.00000000E+00
                      -3.75000000E-01  0.00000000E+00  0.00000000E+00
         kptrlatt        4   -4    4     -4    4    4     -4   -4    4
          kptrlen      9.07679817E+01
P           mkmem           2
            natom           9
            nband          42
            ngfft          72      72      72
          ngfftdg         108     108     108
             nkpt          10
            nstep        2500
             nsym          48
            ntime        1000
           ntypat           3
              occ      2.000000  2.000000  2.000000  2.000000  2.000000  2.000000
                       2.000000  2.000000  2.000000  2.000000  2.000000  2.000000
                       2.000000  2.000000  2.000000  2.000000  2.000000  2.000000
                       2.000000  2.000000  2.000000  2.000000  2.000000  2.000000
                       2.000000  2.000000  2.000000  2.000000  2.000000  2.000000
                       2.000000  2.000000  2.000000  2.000000  2.000000  2.000000
                       0.000000  0.000000  0.000000  0.000000  0.000000  0.000000
          optcell           2
        optforces           1
        pawecutdg      4.00000000E+01 Hartree
            prtwf           0
            rprim      0.0000000000E+00  7.0710678119E-01  7.0710678119E-01
                       7.0710678119E-01  0.0000000000E+00  7.0710678119E-01
                       7.0710678119E-01  7.0710678119E-01  0.0000000000E+00
           shiftk      5.00000000E-01  5.00000000E-01  5.00000000E-01
          spgroup         225
           symrel      1  0  0   0  1  0   0  0  1      -1  0  0   0 -1  0   0  0 -1
                       0 -1  1   0 -1  0   1 -1  0       0  1 -1   0  1  0  -1  1  0
                      -1  0  0  -1  0  1  -1  1  0       1  0  0   1  0 -1   1 -1  0
                       0  1 -1   1  0 -1   0  0 -1       0 -1  1  -1  0  1   0  0  1
                      -1  0  0  -1  1  0  -1  0  1       1  0  0   1 -1  0   1  0 -1
                       0 -1  1   1 -1  0   0 -1  0       0  1 -1  -1  1  0   0  1  0
                       1  0  0   0  0  1   0  1  0      -1  0  0   0  0 -1   0 -1  0
                       0  1 -1   0  0 -1   1  0 -1       0 -1  1   0  0  1  -1  0  1
                      -1  0  1  -1  1  0  -1  0  0       1  0 -1   1 -1  0   1  0  0
                       0 -1  0   1 -1  0   0 -1  1       0  1  0  -1  1  0   0  1 -1
                       1  0 -1   0  0 -1   0  1 -1      -1  0  1   0  0  1   0 -1  1
                       0  1  0   0  0  1   1  0  0       0 -1  0   0  0 -1  -1  0  0
                       1  0 -1   0  1 -1   0  0 -1      -1  0  1   0 -1  1   0  0  1
                       0 -1  0   0 -1  1   1 -1  0       0  1  0   0  1 -1  -1  1  0
                      -1  0  1  -1  0  0  -1  1  0       1  0 -1   1  0  0   1 -1  0
                       0  1  0   1  0  0   0  0  1       0 -1  0  -1  0  0   0  0 -1
                       0  0 -1   0  1 -1   1  0 -1       0  0  1   0 -1  1  -1  0  1
                       1 -1  0   0 -1  1   0 -1  0      -1  1  0   0  1 -1   0  1  0
                       0  0  1   1  0  0   0  1  0       0  0 -1  -1  0  0   0 -1  0
                      -1  1  0  -1  0  0  -1  0  1       1 -1  0   1  0  0   1  0 -1
                       0  0  1   0  1  0   1  0  0       0  0 -1   0 -1  0  -1  0  0
                       1 -1  0   0 -1  0   0 -1  1      -1  1  0   0  1  0   0  1 -1
                       0  0 -1   1  0 -1   0  1 -1       0  0  1  -1  0  1   0 -1  1
                      -1  1  0  -1  0  1  -1  0  0       1 -1  0   1  0 -1   1  0  0
           toldff      1.00000000E-08
           tolmxf      1.00000000E-06
            typat      1  1  2  2  2  2  2  2  3
           useylm           1
              wtk        0.09375    0.09375    0.09375    0.18750    0.09375    0.09375
                         0.09375    0.18750    0.03125    0.03125
           xangst      3.0020216977E+00  3.0020216977E+00  3.0020216977E+00
                       9.0060650930E+00  9.0060650930E+00  9.0060650930E+00
                       6.0040433953E+00  9.1441770366E+00  6.0040433953E+00
                       6.0040433953E+00  6.0040433953E+00  2.8639097541E+00
                       6.0040433953E+00  6.0040433953E+00  9.1441770366E+00
                       6.0040433953E+00  2.8639097541E+00  6.0040433953E+00
                       9.1441770366E+00  6.0040433953E+00  6.0040433953E+00
                       2.8639097541E+00  6.0040433953E+00  6.0040433953E+00
                       0.0000000000E+00  0.0000000000E+00  0.0000000000E+00
            xcart      5.6729988536E+00  5.6729988536E+00  5.6729988536E+00
                       1.7018996561E+01  1.7018996561E+01  1.7018996561E+01
                       1.1345997707E+01  1.7279990310E+01  1.1345997707E+01
                       1.1345997707E+01  1.1345997707E+01  5.4120051045E+00
                       1.1345997707E+01  1.1345997707E+01  1.7279990310E+01
                       1.1345997707E+01  5.4120051045E+00  1.1345997707E+01
                       1.7279990310E+01  1.1345997707E+01  1.1345997707E+01
                       5.4120051045E+00  1.1345997707E+01  1.1345997707E+01
                       0.0000000000E+00  0.0000000000E+00  0.0000000000E+00
             xred      2.5000000000E-01  2.5000000000E-01  2.5000000000E-01
                       7.5000000000E-01  7.5000000000E-01  7.5000000000E-01
                       7.6150157773E-01  2.3849842227E-01  7.6150157773E-01
                       2.3849842227E-01  2.3849842227E-01  7.6150157773E-01
                       7.6150157773E-01  7.6150157773E-01  2.3849842227E-01
                       2.3849842227E-01  7.6150157773E-01  2.3849842227E-01
                       2.3849842227E-01  7.6150157773E-01  7.6150157773E-01
                       7.6150157773E-01  2.3849842227E-01  2.3849842227E-01
                       0.0000000000E+00  0.0000000000E+00  0.0000000000E+00
            znucl       55.00000   53.00000   72.00000

 chkinp: Checking input parameters for consistency.

== DATASET  1 ==================================================================
-   mpi_nproc: 6, omp_nthreads: -1 (-1 if OMP is not activated)

--- !DatasetInfo
iteration_state: {dtset: 1, }
dimensions: {natom: 9, nkpt: 10, mband: 42, nsppol: 1, nspinor: 1, nspden: 1, mpw: 13606, }
cutoff_energies: {ecut:  16.0, pawecutdg:  40.0, }
electrons: {nelect:   7.20000000E+01, charge:   0.00000000E+00, occopt:   1.00000000E+00, tsmear:   1.00000000E-02, }
meta: {optdriver: 0, ionmov: 2, optcell: 2, iscf: 17, paral_kgb: 0, }
...

 Real(R)+Recip(G) space primitive vectors, cartesian coordinates (Bohr,Bohr^-1):
 R(1)=  0.0000000 11.3459977 11.3459977  G(1)= -0.0440684  0.0440684  0.0440684
 R(2)= 11.3459977  0.0000000 11.3459977  G(2)=  0.0440684 -0.0440684  0.0440684
 R(3)= 11.3459977 11.3459977  0.0000000  G(3)=  0.0440684  0.0440684 -0.0440684
 Unit cell volume ucvol=  2.9211783E+03 bohr^3
 Angles (23,13,12)=  6.00000000E+01  6.00000000E+01  6.00000000E+01 degrees

 Coarse grid specifications (used for wave-functions):

 getcut: wavevector=  0.0000  0.0000  0.0000  ngfft=  72  72  72
         ecut(hartree)=     21.160   => boxcut(ratio)=   2.16696

 Fine grid specifications (used for densities):

 getcut: wavevector=  0.0000  0.0000  0.0000  ngfft= 108 108 108
         ecut(hartree)=     52.900   => boxcut(ratio)=   2.05576

--- Pseudopotential description ------------------------------------------------
- pspini: atom type   1  psp file is ../../../Psps_for_tests/ATOMICDATA/Cs.GGA_PBE-JTH.xml
- pspatm: opening atomic psp file    ../../../Psps_for_tests/ATOMICDATA/Cs.GGA_PBE-JTH.xml
- pspatm : Reading pseudopotential header in XML form from ../../../Psps_for_tests/ATOMICDATA/Cs.GGA_PBE-JTH.xml
 Pseudopotential format is: paw10
 basis_size (lnmax)=  6 (lmn_size= 18), orbitals=   0   0   1   1   2   2
 Spheres core radius: rc_sph= 2.20660278
 1 radial meshes are used:
  - mesh 1: r(i)=AA*[exp(BB*(i-1))-1], size=1500 , AA= 0.15922E-03 BB= 0.87573E-02
 Shapefunction is SIN type: shapef(r)=[sin(pi*r/rshp)/(pi*r/rshp)]**2
 Radius for shape functions =  2.00394208
 mmax= 1500
 Radial grid used for partial waves is grid 1
 Radial grid used for projectors is grid 1
[...]
 Reduced forces (fred)
  7.81111346024049E-23 -2.63315357906136E-23 -6.95301636264654E-22
  7.92140420858090E-23 -2.85373507574218E-23 -6.94198728781250E-22
 -1.05493113470050E-05 -2.74344432740177E-23 -1.05493113470050E-05
  1.05493113470050E-05  1.05493113470050E-05 -6.94750182522952E-22
 -1.05493113470050E-05 -1.05493113470050E-05 -6.94750182522952E-22
  1.05493113470050E-05 -2.74344432740177E-23  1.05493113470050E-05
  7.86625883441069E-23 -1.05493113470050E-05 -1.05493113470050E-05
  7.86625883441070E-23  1.05493113470050E-05  1.05493113470050E-05
  7.86625883441070E-23 -2.74344432740177E-23 -6.94750182522952E-22
 Scale of Primitive Cell (acell) [bohr]
  1.60452175367907E+01  1.60452175367907E+01  1.60452175367907E+01
 Real space primitive translations (rprimd) [bohr]
  0.00000000000000E+00  1.13456821258780E+01  1.13456821258780E+01
  1.13456821258781E+01  0.00000000000000E+00  1.13456821258781E+01
  1.13456821258780E+01  1.13456821258780E+01  0.00000000000000E+00
 Unitary Cell Volume (ucvol) [Bohr^3]=  2.92093458346346E+03
 Angles (23,13,12)= [degrees]
  6.00000000000000E+01  6.00000000000000E+01  6.00000000000000E+01
 Lengths [Bohr]
  1.60452175367907E+01  1.60452175367907E+01  1.60452175367907E+01
 Stress tensor in cartesian coordinates (strten) [Ha/bohr^3]
  2.84046058635773E-09  0.00000000000000E+00  0.00000000000000E+00
  0.00000000000000E+00  2.84046058549037E-09  0.00000000000000E+00
  0.00000000000000E+00  0.00000000000000E+00  2.84046058028620E-09
 Total energy (etotal) [Ha]= -1.61347570102448E+02

 Difference of energy with previous step (new-old):
           Absolute (Ha)=-1.37288E-09
           Relative     =-8.50885E-12

 At Broyd/MD step   5, gradients are converged :
  max grad (force/stress) = 9.2981E-07 < tolmxf= 1.0000E-06 ha/bohr (free atoms)

 ----iterations are completed or convergence reached----

 Mean square residual over all n,k,spin=   36.862E-11; max=  15.417E-08
 reduced coordinates (array xred) for    9 atoms
       0.250000000000      0.250000000000      0.250000000000
       0.750000000000      0.750000000000      0.750000000000
       0.761493697659      0.238506302341      0.761493697659
       0.238506302341      0.238506302341      0.761493697659
       0.761493697659      0.761493697659      0.238506302341
       0.238506302341      0.761493697659      0.238506302341
       0.238506302341      0.761493697659      0.761493697659
       0.761493697659      0.238506302341      0.238506302341
       0.000000000000      0.000000000000      0.000000000000
 rms dE/dt=  7.0329E-06; max dE/dt=  1.0549E-05; dE/dt below (all hartree)
    1      -0.000000000000      0.000000000000     -0.000000000000
    2       0.000000000000     -0.000000000000      0.000000000000
    3      -0.000010549311      0.000000000000     -0.000010549311
    4       0.000010549311      0.000010549311      0.000000000000
    5      -0.000010549311     -0.000010549311      0.000000000000
    6       0.000010549311      0.000000000000      0.000010549311
    7       0.000000000000     -0.000010549311     -0.000010549311
    8      -0.000000000000      0.000010549311      0.000010549311
    9       0.000000000000      0.000000000000      0.000000000000

 cartesian coordinates (angstrom) at end:
    1      3.00193819846080     3.00193819846080     3.00193819846080
    2      9.00581459538241     9.00581459538240     9.00581459538241
    3      6.00387639692160     9.14382807555454     6.00387639692160
    4      6.00387639692160     6.00387639692160     2.86392471828866
    5      6.00387639692160     6.00387639692160     9.14382807555454
    6      6.00387639692160     2.86392471828866     6.00387639692160
    7      9.14382807555454     6.00387639692160     6.00387639692160
    8      2.86392471828866     6.00387639692160     6.00387639692160
    9      0.00000000000000     0.00000000000000     0.00000000000000

 cartesian forces (hartree/bohr) at end:
    1      0.00000000000000     0.00000000000000    -0.00000000000000
    2      0.00000000000000     0.00000000000000    -0.00000000000000
    3     -0.00000000000000     0.00000092980847     0.00000000000000
    4      0.00000000000000    -0.00000000000000    -0.00000092980847
    5     -0.00000000000000     0.00000000000000     0.00000092980847
    6     -0.00000000000000    -0.00000092980847     0.00000000000000
    7      0.00000092980847    -0.00000000000000     0.00000000000000
    8     -0.00000092980847    -0.00000000000000     0.00000000000000
    9      0.00000000000000     0.00000000000000    -0.00000000000000
 frms,max,avg= 4.3831592E-07 9.2980847E-07   0.000E+00  0.000E+00  0.000E+00 h/b

 cartesian forces (eV/Angstrom) at end:
    1      0.00000000000000     0.00000000000000    -0.00000000000000
    2      0.00000000000000     0.00000000000000    -0.00000000000000
    3     -0.00000000000000     0.00004781266994     0.00000000000000
    4      0.00000000000000    -0.00000000000000    -0.00004781266994
    5     -0.00000000000000     0.00000000000000     0.00004781266994
    6     -0.00000000000000    -0.00004781266994     0.00000000000000
    7      0.00004781266994    -0.00000000000000     0.00000000000000
    8     -0.00004781266994    -0.00000000000000     0.00000000000000
    9      0.00000000000000     0.00000000000000    -0.00000000000000
 frms,max,avg= 2.2539109E-05 4.7812670E-05   0.000E+00  0.000E+00  0.000E+00 e/A
 length scales= 16.045217536791 16.045217536791 16.045217536791 bohr
              =  8.490763427338  8.490763427338  8.490763427338 angstroms
 prteigrs : about to open file Cs2TiI6o_EIG
 Fermi (or HOMO) energy (hartree) =  -0.14223   Average Vxc (hartree)=  -0.27860
 Eigenvalues (hartree) for nkpt=  10  k points:
 kpt#   1, nband= 42, wtk=  0.09375, kpt= -0.1250 -0.2500  0.0000 (reduced coord)
  -2.44208   -1.28525   -1.28525   -1.28525   -0.89818   -0.89812   -0.56925   -0.55200
  -0.55068   -0.55037   -0.54858   -0.54785   -0.41389   -0.41382   -0.41345   -0.41293
  -0.41293   -0.41256   -0.27367   -0.22551   -0.22236   -0.22027   -0.21986   -0.21729
  -0.21669   -0.20858   -0.20699   -0.17489   -0.17325   -0.16810   -0.16390   -0.15351
  -0.15337   -0.14879   -0.14851   -0.14279   -0.05718   -0.05251   -0.05210    0.02083
   0.02183    0.03600
 prteigrs : prtvol=0 or 1, do not print more k-points.

--- !EnergyTerms
iteration_state     : {dtset: 1, itime: 5, icycle: 1, }
comment             : Components of total free energy in Hartree
kinetic             :  3.61563794026138E+01
hartree             :  3.61977917152495E+01
xc                  : -5.86902526161897E+01
Ewald energy        : -1.12151774341068E+02
psp_core            :  1.71510955459951E+01
local_psp           : -6.95404341070705E+01
spherical_terms     : -1.04703756987474E+01
total_energy        : -1.61347570099217E+02
total_energy_eV     : -4.39049066484806E+03
...

--- !EnergyTermsDC
iteration_state     : {dtset: 1, itime: 5, icycle: 1, }
comment             : '"Double-counting" decomposition of free energy'
band_energy         : -3.47276900895922E+01
Ewald energy        : -1.12151774341068E+02
psp_core            :  1.71510955459951E+01
xc_dc               : -5.82374001067563E+01
spherical_terms     :  2.66181988889736E+01
total_energy_dc     : -1.61347570102448E+02
total_energy_dc_eV  : -4.39049066493597E+03
...

 rms coord change=  6.4341E-06   atom, delta coord (reduced):
     1        0.000000000000      0.000000000000      0.000000000000
     2        0.000000000000      0.000000000000      0.000000000000
     3       -0.000007880071      0.000007880071     -0.000007880071
     4        0.000007880071      0.000007880071     -0.000007880071
     5       -0.000007880071     -0.000007880071      0.000007880071
     6        0.000007880071     -0.000007880071      0.000007880071
     7        0.000007880071     -0.000007880071     -0.000007880071
     8       -0.000007880071      0.000007880071      0.000007880071
     9        0.000000000000      0.000000000000      0.000000000000

 Cartesian components of stress tensor (hartree/bohr^3)
  sigma(1 1)=  2.84046059E-09  sigma(3 2)=  0.00000000E+00
  sigma(2 2)=  2.84046059E-09  sigma(3 1)=  0.00000000E+00
  sigma(3 3)=  2.84046058E-09  sigma(2 1)=  0.00000000E+00

-Cartesian components of stress tensor (GPa)         [Pressure= -8.3569E-05 GPa]
- sigma(1 1)=  8.35692216E-05  sigma(3 2)=  0.00000000E+00
- sigma(2 2)=  8.35692216E-05  sigma(3 1)=  0.00000000E+00
- sigma(3 3)=  8.35692214E-05  sigma(2 1)=  0.00000000E+00

== END DATASET(S) ==============================================================

 -outvars: echo values of variables after computation  --------
            acell      1.6045217537E+01  1.6045217537E+01  1.6045217537E+01 Bohr
              amu      1.32905430E+02  1.26904470E+02  1.78490000E+02
           diemac      1.20000000E+01
          dilatmx      1.15000000E+00
             ecut      1.60000000E+01 Hartree
           ecutsm      5.00000000E-01 Hartree
           etotal     -1.6134757010E+02
            fcart      3.5244434746E-23  2.6038935311E-23 -3.2923592728E-23
                       3.5341644192E-23  2.5844516417E-23 -3.2826383282E-23
                      -1.0456087080E-22  9.2980847074E-07  1.0697892227E-22
                       1.6964189249E-22 -1.0840712715E-22 -9.2980847074E-07
                      -2.0493493196E-22  2.6616969729E-22  9.2980847074E-07
                      -2.7106319798E-23 -9.2980847074E-07  2.9524371262E-23
                       9.2980847074E-07 -3.9255329241E-23  3.2322067100E-23
                      -9.2980847074E-07 -1.4233675181E-22  1.3540348967E-22
                       3.5293039469E-23  2.5941725864E-23 -3.2874988005E-23
-          fftalg         112
           ionmov           2
              ixc     -101130
              kpt     -1.25000000E-01 -2.50000000E-01  0.00000000E+00
                      -1.25000000E-01  5.00000000E-01  0.00000000E+00
                      -2.50000000E-01 -3.75000000E-01  0.00000000E+00
                      -1.25000000E-01 -3.75000000E-01  1.25000000E-01
                      -1.25000000E-01  2.50000000E-01  0.00000000E+00
                      -2.50000000E-01  3.75000000E-01  0.00000000E+00
                      -3.75000000E-01  5.00000000E-01  0.00000000E+00
                      -2.50000000E-01  5.00000000E-01  1.25000000E-01
                      -1.25000000E-01  0.00000000E+00  0.00000000E+00
                      -3.75000000E-01  0.00000000E+00  0.00000000E+00
         kptrlatt        4   -4    4     -4    4    4     -4   -4    4
          kptrlen      9.07679817E+01
P           mkmem           2
            natom           9
            nband          42
            ngfft          72      72      72
          ngfftdg         108     108     108
             nkpt          10
            nstep        2500
             nsym          48
            ntime        1000
           ntypat           3
              occ      2.000000  2.000000  2.000000  2.000000  2.000000  2.000000
                       2.000000  2.000000  2.000000  2.000000  2.000000  2.000000
                       2.000000  2.000000  2.000000  2.000000  2.000000  2.000000
                       2.000000  2.000000  2.000000  2.000000  2.000000  2.000000
                       2.000000  2.000000  2.000000  2.000000  2.000000  2.000000
                       2.000000  2.000000  2.000000  2.000000  2.000000  2.000000
                       0.000000  0.000000  0.000000  0.000000  0.000000  0.000000
          optcell           2
        optforces           1
        pawecutdg      4.00000000E+01 Hartree
            prtwf           0
            rprim      0.0000000000E+00  7.0710678119E-01  7.0710678119E-01
                       7.0710678119E-01  0.0000000000E+00  7.0710678119E-01
                       7.0710678119E-01  7.0710678119E-01  0.0000000000E+00
           shiftk      5.00000000E-01  5.00000000E-01  5.00000000E-01
          spgroup         225
           strten      2.8404605864E-09  2.8404605855E-09  2.8404605803E-09
                       0.0000000000E+00  0.0000000000E+00  0.0000000000E+00
           symrel      1  0  0   0  1  0   0  0  1      -1  0  0   0 -1  0   0  0 -1
                       0 -1  1   0 -1  0   1 -1  0       0  1 -1   0  1  0  -1  1  0
                      -1  0  0  -1  0  1  -1  1  0       1  0  0   1  0 -1   1 -1  0
                       0  1 -1   1  0 -1   0  0 -1       0 -1  1  -1  0  1   0  0  1
                      -1  0  0  -1  1  0  -1  0  1       1  0  0   1 -1  0   1  0 -1
                       0 -1  1   1 -1  0   0 -1  0       0  1 -1  -1  1  0   0  1  0
                       1  0  0   0  0  1   0  1  0      -1  0  0   0  0 -1   0 -1  0
                       0  1 -1   0  0 -1   1  0 -1       0 -1  1   0  0  1  -1  0  1
                      -1  0  1  -1  1  0  -1  0  0       1  0 -1   1 -1  0   1  0  0
                       0 -1  0   1 -1  0   0 -1  1       0  1  0  -1  1  0   0  1 -1
                       1  0 -1   0  0 -1   0  1 -1      -1  0  1   0  0  1   0 -1  1
                       0  1  0   0  0  1   1  0  0       0 -1  0   0  0 -1  -1  0  0
                       1  0 -1   0  1 -1   0  0 -1      -1  0  1   0 -1  1   0  0  1
                       0 -1  0   0 -1  1   1 -1  0       0  1  0   0  1 -1  -1  1  0
                      -1  0  1  -1  0  0  -1  1  0       1  0 -1   1  0  0   1 -1  0
                       0  1  0   1  0  0   0  0  1       0 -1  0  -1  0  0   0  0 -1
                       0  0 -1   0  1 -1   1  0 -1       0  0  1   0 -1  1  -1  0  1
                       1 -1  0   0 -1  1   0 -1  0      -1  1  0   0  1 -1   0  1  0
                       0  0  1   1  0  0   0  1  0       0  0 -1  -1  0  0   0 -1  0
                      -1  1  0  -1  0  0  -1  0  1       1 -1  0   1  0  0   1  0 -1
                       0  0  1   0  1  0   1  0  0       0  0 -1   0 -1  0  -1  0  0
                       1 -1  0   0 -1  0   0 -1  1      -1  1  0   0  1  0   0  1 -1
                       0  0 -1   1  0 -1   0  1 -1       0  0  1  -1  0  1   0 -1  1
                      -1  1  0  -1  0  1  -1  0  0       1 -1  0   1  0 -1   1  0  0
           toldff      1.00000000E-08
           tolmxf      1.00000000E-06
            typat      1  1  2  2  2  2  2  2  3
           useylm           1
              wtk        0.09375    0.09375    0.09375    0.18750    0.09375    0.09375
                         0.09375    0.18750    0.03125    0.03125
           xangst      3.0019381985E+00  3.0019381985E+00  3.0019381985E+00
                       9.0058145954E+00  9.0058145954E+00  9.0058145954E+00
                       6.0038763969E+00  9.1438280756E+00  6.0038763969E+00
                       6.0038763969E+00  6.0038763969E+00  2.8639247183E+00
                       6.0038763969E+00  6.0038763969E+00  9.1438280756E+00
                       6.0038763969E+00  2.8639247183E+00  6.0038763969E+00
                       9.1438280756E+00  6.0038763969E+00  6.0038763969E+00
                       2.8639247183E+00  6.0038763969E+00  6.0038763969E+00
                       0.0000000000E+00  0.0000000000E+00  0.0000000000E+00
            xcart      5.6728410629E+00  5.6728410629E+00  5.6728410629E+00
                       1.7018523189E+01  1.7018523189E+01  1.7018523189E+01
                       1.1345682126E+01  1.7279330869E+01  1.1345682126E+01
                       1.1345682126E+01  1.1345682126E+01  5.4120333828E+00
                       1.1345682126E+01  1.1345682126E+01  1.7279330869E+01
                       1.1345682126E+01  5.4120333828E+00  1.1345682126E+01
                       1.7279330869E+01  1.1345682126E+01  1.1345682126E+01
                       5.4120333828E+00  1.1345682126E+01  1.1345682126E+01
                       0.0000000000E+00  0.0000000000E+00  0.0000000000E+00
             xred      2.5000000000E-01  2.5000000000E-01  2.5000000000E-01
                       7.5000000000E-01  7.5000000000E-01  7.5000000000E-01
                       7.6149369766E-01  2.3850630234E-01  7.6149369766E-01
                       2.3850630234E-01  2.3850630234E-01  7.6149369766E-01
                       7.6149369766E-01  7.6149369766E-01  2.3850630234E-01
                       2.3850630234E-01  7.6149369766E-01  2.3850630234E-01
                       2.3850630234E-01  7.6149369766E-01  7.6149369766E-01
                       7.6149369766E-01  2.3850630234E-01  2.3850630234E-01
                       0.0000000000E+00  0.0000000000E+00  0.0000000000E+00
            znucl       55.00000   53.00000   72.00000

- Timing analysis has been suppressed with timopt=0

 Suggested references for the acknowledgment of ABINIT usage.

 Calculation completed.
.Delivered   0 WARNINGs and   5 COMMENTs to log file.