.Version 9.2.2 of ABINIT

 ABINIT is a project of the Universite Catholique de Louvain,
 Corning Inc. and other collaborators, see ~abinit/doc/developers/contributors.txt .
 acknowledgments of the ABINIT effort.

.Starting date : Tue  6 Dec 2022.
- ( at 14h02 )

- The starting date is more than 2 years after the initial release
- of this version of ABINIT, namely Nov 2020.
- Note that the use beyond 3 years after the release will not be supported.
- Action: please, switch to a more recent version of ABINIT.

- input  file    -> Cs2TiI6.in
- output file    -> Cs2TiI6.out
- root for input  files -> Cs2TiI6i
- root for output files -> Cs2TiI6o

- inpspheads : Reading pseudopotential header in XML form from
-   ../../../Psps_for_tests/ATOMICDATA/Cs.GGA_PBE-JTH.xml
- inpspheads : Reading pseudopotential header in XML form from
-   ../../../Psps_for_tests/ATOMICDATA/I.GGA_PBE-JTH.xml
- inpspheads : Reading pseudopotential header in XML form from
-   ../../../Psps_for_tests/ATOMICDATA/Zr.GGA_PBE-JTH.xml
- inpspheads : Reading pseudopotential header in XML form from
-   ../../../Psps_for_tests/ATOMICDATA/Cl.GGA_PBE-JTH.xml

 DATASET    1 : space group I4 m m (#107); Bravais tI (body-center tetrag.)
     intxc =       0    ionmov =       2      iscf =      17    lmnmax =      18
     lnmax =       6     mgfft =      64  mpssoang =       3    mqgrid =    4074
     natom =       9  nloc_mem =       2    nspden =       1   nspinor =       1
    nsppol =       1      nsym =       8    n1xccc =       1    ntypat =       4
    occopt =       1   xclevel =       2
-    mband =          42        mffmem =           1         mkmem =           4
       mpw =       11661          nfft =      262144          nkpt =          20
Pmy_natom=         2
 PAW method is used; the additional fine FFT grid is defined by:
   mgfftf=       100    nfftf =   1000000
  Rough estimation (10% accuracy) of disk space for files :

 DATASET    2 : space group I4 m m (#107); Bravais tI (body-center tetrag.)
     intxc =       0    ionmov =       2      iscf =      17    lmnmax =      18
     lnmax =       6     mgfft =      64  mpssoang =       3    mqgrid =    4074
     natom =       9  nloc_mem =       2    nspden =       1   nspinor =       1
    nsppol =       1      nsym =       8    n1xccc =       1    ntypat =       4
    occopt =       1   xclevel =       2
-    mband =          42        mffmem =           1         mkmem =           4
       mpw =       11661          nfft =      262144          nkpt =          20
Pmy_natom=         2
 PAW method is used; the additional fine FFT grid is defined by:
   mgfftf=       100    nfftf =   1000000
  Rough estimation (10% accuracy) of disk space for files :

------------- Echo of variables that govern the present computation ------------
-
- outvars: echo of selected default values
-   iomode0 =  0 , fftalg0 =112 , wfoptalg0 = 10
-
- outvars: echo of global parameters not present in the input file
-  max_nthreads =    0
-
 -outvars: echo values of preprocessed input variables --------
            acell1     1.5233602722E+01  1.5233602722E+01  1.5243697338E+01 Bohr
            acell2     1.5233602712E+01  1.5233602712E+01  1.5243697339E+01 Bohr
              amu      1.32905430E+02  1.26904470E+02  9.12240000E+01
                       3.54527000E+01
           diemac      1.20000000E+01
          dilatmx      1.15000000E+00
             ecut      1.60000000E+01 Hartree
           ecutsm      5.00000000E-01 Hartree
-          fftalg         112
           ionmov           2
              ixc     -101130
           jdtset        1    2
              kpt     -1.25000000E-01 -2.50000000E-01  0.00000000E+00
                      -1.25000000E-01  5.00000000E-01  0.00000000E+00
                      -2.50000000E-01 -3.75000000E-01  0.00000000E+00
                      -1.25000000E-01 -3.75000000E-01  1.25000000E-01
                      -1.25000000E-01  2.50000000E-01  0.00000000E+00
                      -2.50000000E-01  3.75000000E-01  0.00000000E+00
                      -1.25000000E-01  3.75000000E-01  1.25000000E-01
                      -3.75000000E-01  5.00000000E-01  0.00000000E+00
                      -2.50000000E-01  5.00000000E-01  1.25000000E-01
                      -1.25000000E-01  5.00000000E-01  2.50000000E-01
                      -1.25000000E-01  0.00000000E+00  0.00000000E+00
                      -1.25000000E-01  1.25000000E-01  1.25000000E-01
                      -1.25000000E-01  2.50000000E-01  2.50000000E-01
                      -1.25000000E-01  3.75000000E-01  3.75000000E-01
                      -3.75000000E-01  0.00000000E+00  0.00000000E+00
                      -2.50000000E-01  0.00000000E+00  1.25000000E-01
                      -3.75000000E-01  1.25000000E-01  1.25000000E-01
                      -2.50000000E-01  1.25000000E-01  2.50000000E-01
                      -3.75000000E-01  2.50000000E-01  2.50000000E-01
                      -2.50000000E-01  2.50000000E-01  3.75000000E-01
         kptrlatt        4   -4    4     -4    4    4     -4   -4    4
          kptrlen1     8.61171287E+01
          kptrlen2     8.61171285E+01
P           mkmem           4
            natom           9
            nband          42
           ndtset           2
            ngfft          64      64      64
          ngfftdg         100     100     100
             nkpt          20
            nstep        2500
             nsym           8
            ntime        1000
           ntypat           4
              occ      2.000000  2.000000  2.000000  2.000000  2.000000  2.000000
                       2.000000  2.000000  2.000000  2.000000  2.000000  2.000000
                       2.000000  2.000000  2.000000  2.000000  2.000000  2.000000
                       2.000000  2.000000  2.000000  2.000000  2.000000  2.000000
                       2.000000  2.000000  2.000000  2.000000  2.000000  2.000000
                       2.000000  2.000000  2.000000  2.000000  2.000000  2.000000
                       0.000000  0.000000  0.000000  0.000000  0.000000  0.000000
          optcell           2
        optforces           1
        pawecutdg      4.00000000E+01 Hartree
            prtwf           0
            rprim1     0.0000000000E+00  7.0757534872E-01  7.0663790294E-01
                       7.0757534872E-01  0.0000000000E+00  7.0663790294E-01
                       7.0710678119E-01  7.0710678119E-01  0.0000000000E+00
            rprim2     0.0000000000E+00  7.0757534921E-01  7.0663790246E-01
                       7.0757534921E-01  0.0000000000E+00  7.0663790246E-01
                       7.0710678119E-01  7.0710678119E-01  0.0000000000E+00
           shiftk      5.00000000E-01  5.00000000E-01  5.00000000E-01
          spgroup         107
           symrel      1  0  0   0  1  0   0  0  1       1  0 -1   0  1 -1   0  0 -1
                       0  1 -1   1  0 -1   0  0 -1       0  1  0   1  0  0   0  0  1
                       1  0  0   1  0 -1   1 -1  0       0  1  0   0  1 -1  -1  1  0
                       0  1 -1   0  1  0  -1  1  0       1  0 -1   1  0  0   1 -1  0
           toldff      1.00000000E-08
           tolmxf      1.00000000E-05
            typat1     1  1  2  4  4  4  4  4  3
            typat2     1  1  4  2  4  4  4  4  3
           useylm           1
              wtk        0.03125    0.03125    0.03125    0.06250    0.03125    0.03125
                         0.06250    0.03125    0.06250    0.06250    0.03125    0.06250
                         0.06250    0.06250    0.03125    0.06250    0.06250    0.06250
                         0.06250    0.06250
           xangst1     2.8519798638E+00  2.8519798638E+00  2.8221110366E+00
                       8.5559395914E+00  8.5559395914E+00  8.5185137557E+00
                       5.7039597276E+00  5.7039597276E+00  2.8575295251E+00
                       5.7039597276E+00  5.7039597276E+00  8.6975332794E+00
                       8.7651849262E+00  5.7039597276E+00  5.6832842452E+00
                       5.7039597276E+00  8.7651849262E+00  5.6832842452E+00
                       5.7039597276E+00  2.6427345290E+00  5.6832842452E+00
                       2.6427345290E+00  5.7039597276E+00  5.6832842452E+00
                      -4.6378268575E-13 -4.6378268575E-13 -5.7602824806E-02
           xangst2     2.8519798640E+00  2.8519798640E+00  2.8742916802E+00
                       8.5559395919E+00  8.5559395919E+00  8.5706943916E+00
                       5.7039597279E+00  5.7039597279E+00  2.6952721568E+00
                       5.7039597279E+00  5.7039597279E+00  8.5352758982E+00
                       8.7651849259E+00  5.7039597279E+00  5.7095211854E+00
                       5.7039597279E+00  8.7651849259E+00  5.7095211854E+00
                       5.7039597279E+00  2.6427345299E+00  5.7095211854E+00
                       2.6427345299E+00  5.7039597279E+00  5.7095211854E+00
                      -3.8811018971E-13 -3.8811018971E-13  5.7602823434E-02
            xcart1     5.3894608791E+00  5.3894608791E+00  5.3330169757E+00
                       1.6168382637E+01  1.6168382637E+01  1.6097658057E+01
                       1.0778921758E+01  1.0778921758E+01  5.3999482191E+00
                       1.0778921758E+01  1.0778921758E+01  1.6435955930E+01
                       1.6563799015E+01  1.0778921758E+01  1.0739850759E+01
                       1.0778921758E+01  1.6563799015E+01  1.0739850759E+01
                       1.0778921758E+01  4.9940445018E+00  1.0739850759E+01
                       4.9940445018E+00  1.0778921758E+01  1.0739850759E+01
                      -8.7642226124E-13 -8.7642226124E-13 -1.0885356336E-01
            xcart2     5.3894608794E+00  5.3894608794E+00  5.4316241015E+00
                       1.6168382638E+01  1.6168382638E+01  1.6196265169E+01
                       1.0778921759E+01  1.0778921759E+01  5.0933262299E+00
                       1.0778921759E+01  1.0778921759E+01  1.6129333916E+01
                       1.6563799014E+01  1.0778921759E+01  1.0789431390E+01
                       1.0778921759E+01  1.6563799014E+01  1.0789431390E+01
                       1.0778921759E+01  4.9940445034E+00  1.0789431390E+01
                       4.9940445034E+00  1.0778921759E+01  1.0789431390E+01
                      -7.3342196793E-13 -7.3342196793E-13  1.0885356077E-01
             xred1     2.4770992991E-01  2.4770992991E-01  2.5229007009E-01
                       7.4770992991E-01  7.4770992991E-01  7.5229007009E-01
                       2.5081877687E-01  2.5081877687E-01  7.4918122313E-01
                       7.6342331365E-01  7.6342331365E-01  2.3657668635E-01
                       2.3050641812E-01  7.6719064185E-01  7.6949358188E-01
                       7.6719064185E-01  2.3050641812E-01  7.6949358188E-01
                       2.3050641812E-01  7.6719064185E-01  2.3280935815E-01
                       7.6719064185E-01  2.3050641812E-01  2.3280935815E-01
                      -5.0560702646E-03 -5.0560702646E-03  5.0560702646E-03
             xred2     2.5229007022E-01  2.5229007022E-01  2.4770992978E-01
[...]
    1       0.000012854919      0.000012854919      0.000000000000
    2       0.000012854919      0.000012854919      0.000000000000
    3       0.000055419122      0.000055419122      0.000000000000
    4       0.000027652711      0.000027652711      0.000000000000
    5       0.000015366847      0.000006198205     -0.000009168642
    6       0.000006198205      0.000015366847     -0.000009168642
    7       0.000024535488      0.000015366847      0.000009168642
    8       0.000015366847      0.000024535488      0.000009168642
    9       0.000032959180      0.000032959180      0.000000000000

 cartesian coordinates (angstrom) at end:
    1      2.78960820918480     2.78960820918480     2.81512782649969
    2      8.36882462755550     8.36882462755550     8.28449252497384
    3      5.57921641839058     5.57921641839058     2.54611355911302
    4      5.57921641835291     5.57921641835291     8.08424868691418
    5      8.67884262253666     5.57921641839124     5.48644256211440
    6      5.57921641839125     8.67884262253667     5.48644256211440
    7      5.57921641834991     2.47959021420449     5.48644256211440
    8      2.47959021420449     5.57921641834991     5.48644256211440
    9     -0.00000000000054    -0.00000000000054     0.07916474173921

 cartesian forces (hartree/bohr) at end:
    1      0.00000000000000    -0.00000000000000     0.00000094080387
    2      0.00000000000000    -0.00000000000000     0.00000094080387
    3     -0.00000000000000     0.00000000000000    -0.00000317740859
    4     -0.00000000000000     0.00000000000000    -0.00000049092623
    5      0.00000086962684    -0.00000000000000     0.00000069776748
    6     -0.00000000000000     0.00000086962684     0.00000069776748
    7      0.00000000000000    -0.00000086962684     0.00000069776748
    8     -0.00000086962684     0.00000000000000     0.00000069776748
    9      0.00000000000000    -0.00000000000000    -0.00000100434283
 frms,max,avg= 8.1849870E-07 3.1774086E-06   0.000E+00  0.000E+00 -2.185E-06 h/b

 cartesian forces (eV/Angstrom) at end:
    1      0.00000000000000    -0.00000000000000     0.00004837807628
    2      0.00000000000000    -0.00000000000000     0.00004837807628
    3     -0.00000000000000     0.00000000000000    -0.00016338890548
    4     -0.00000000000000     0.00000000000000    -0.00002524443985
    5      0.00004471800645    -0.00000000000000     0.00003588064332
    6     -0.00000000000000     0.00004471800645     0.00003588064332
    7      0.00000000000000    -0.00004471800645     0.00003588064332
    8     -0.00004471800645     0.00000000000000     0.00003588064332
    9      0.00000000000000    -0.00000000000000    -0.00005164538052
 frms,max,avg= 4.2088892E-05 1.6338891E-04   0.000E+00  0.000E+00 -1.123E-04 e/A
 length scales= 14.764265447021 14.764265447021 14.910323797487 bohr
              =  7.812912776137  7.812912776137  7.890203526327 angstroms
 prteigrs : about to open file Cs2TiI6o_DS2_EIG
 Fermi (or HOMO) energy (hartree) =  -0.01958   Average Vxc (hartree)=  -0.27969
 Eigenvalues (hartree) for nkpt=  20  k points:
 kpt#   1, nband= 42, wtk=  0.03125, kpt= -0.1250 -0.2500  0.0000 (reduced coord)
  -1.82054   -1.01220   -1.01220   -1.01145   -0.75405   -0.75386   -0.53140   -0.52108
  -0.51998   -0.51606   -0.51589   -0.40797   -0.27132   -0.27121   -0.27049   -0.26914
  -0.26906   -0.26865   -0.14531   -0.12906   -0.12231   -0.12141   -0.11448   -0.11416
  -0.10658   -0.10473   -0.09703   -0.07737   -0.07286   -0.07173   -0.06616   -0.06520
  -0.05595   -0.04178   -0.02417   -0.02348    0.08398    0.08433    0.08582    0.16381
   0.17173    0.18579
 prteigrs : prtvol=0 or 1, do not print more k-points.

--- !EnergyTerms
iteration_state     : {dtset: 2, itime: 42, icycle: 1, }
comment             : Components of total free energy in Hartree
kinetic             :  5.85497172774897E+01
hartree             :  4.84298965820466E+01
xc                  : -5.41921214769787E+01
Ewald energy        : -1.17478702688188E+02
psp_core            :  6.95895288979268E+00
local_psp           : -1.59808719128884E+02
spherical_terms     :  4.12176979835334E+01
total_energy        : -1.76323278561189E+02
total_energy_eV     : -4.79800041638222E+03
...

--- !EnergyTermsDC
iteration_state     : {dtset: 2, itime: 42, icycle: 1, }
comment             : '"Double-counting" decomposition of free energy'
band_energy         : -2.51419319620393E+01
Ewald energy        : -1.17478702688188E+02
psp_core            :  6.95895288979268E+00
xc_dc               : -5.74667725679948E+01
spherical_terms     :  1.68051757665686E+01
total_energy_dc     : -1.76323278561861E+02
total_energy_dc_eV  : -4.79800041640051E+03
...

 rms coord change=  7.6775E-03   atom, delta coord (reduced):
     1        0.005064118218      0.005064118218     -0.005064118218
     2        0.005064118218      0.005064118218     -0.005064118218
     3       -0.003815323930     -0.003815323930      0.003815323930
     4       -0.010132984817     -0.010132984817      0.010132984817
     5       -0.009031420780      0.009850939121      0.009031420780
     6        0.009850939121     -0.009031420780      0.009031420780
     7       -0.009031420780      0.009850939121     -0.009850939121
     8        0.009850939121     -0.009031420780     -0.009850939121
     9        0.002181035629      0.002181035629     -0.002181035629

 Cartesian components of stress tensor (hartree/bohr^3)
  sigma(1 1)= -2.45222890E-08  sigma(3 2)=  2.05951067E-14
  sigma(2 2)= -2.45222890E-08  sigma(3 1)=  2.05957003E-14
  sigma(3 3)=  1.12561826E-08  sigma(2 1)= -4.03800832E-14

-Cartesian components of stress tensor (GPa)         [Pressure=  3.7059E-04 GPa]
- sigma(1 1)= -7.21470531E-04  sigma(3 2)=  6.05928857E-10
- sigma(2 2)= -7.21470531E-04  sigma(3 1)=  6.05946321E-10
- sigma(3 3)=  3.31168269E-04  sigma(2 1)= -1.18802287E-09

== END DATASET(S) ==============================================================

 -outvars: echo values of variables after computation  --------
            acell1     1.4764265814E+01  1.4764265814E+01  1.4910323255E+01 Bohr
            acell2     1.4764265447E+01  1.4764265447E+01  1.4910323797E+01 Bohr
              amu      1.32905430E+02  1.26904470E+02  9.12240000E+01
                       3.54527000E+01
           diemac      1.20000000E+01
          dilatmx      1.15000000E+00
             ecut      1.60000000E+01 Hartree
           ecutsm      5.00000000E-01 Hartree
           etotal1    -1.7632327856E+02
           etotal2    -1.7632327856E+02
            fcart1     1.0561195950E-22 -4.9548115984E-23 -9.3941482634E-07
                       8.0072177894E-23 -2.4008334379E-23 -9.3941482634E-07
                       7.5759491158E-23 -1.9695647643E-23  4.9087482705E-07
                      -7.8328600338E-23  1.3439244385E-22  3.1762349043E-06
                       8.7033827731E-07  6.9333576242E-18 -6.9779500098E-07
                       6.9335273362E-18  8.7033827731E-07 -6.9779500098E-07
                      -6.9334348393E-18 -8.7033827731E-07 -6.9779500097E-07
                      -8.7033827731E-07 -6.9335790115E-18 -6.9779500097E-07
                      -2.6782870719E-22  3.2389255070E-22  1.0028999252E-06
            fcart2     1.0738667699E-22 -1.2698904438E-22  9.4080387440E-07
                       1.0738667699E-22 -1.2698904438E-22  9.4080387440E-07
                      -3.0638966427E-22  2.8678729688E-22 -3.1774085935E-06
                      -2.3419495633E-22  2.1459258894E-22 -4.9092623443E-07
                       8.6962684255E-07 -5.7974509356E-18  6.9776747753E-07
                      -5.7975320079E-18  8.6962684255E-07  6.9776747753E-07
                       5.7974842728E-18 -8.6962684255E-07  6.9776747751E-07
                      -8.6962684255E-07  5.7975653451E-18  6.9776747751E-07
                       4.0269883183E-22 -4.2230119922E-22 -1.0043428309E-06
-          fftalg         112
           ionmov           2
              ixc     -101130
           jdtset        1    2
              kpt     -1.25000000E-01 -2.50000000E-01  0.00000000E+00
                      -1.25000000E-01  5.00000000E-01  0.00000000E+00
                      -2.50000000E-01 -3.75000000E-01  0.00000000E+00
                      -1.25000000E-01 -3.75000000E-01  1.25000000E-01
                      -1.25000000E-01  2.50000000E-01  0.00000000E+00
                      -2.50000000E-01  3.75000000E-01  0.00000000E+00
                      -1.25000000E-01  3.75000000E-01  1.25000000E-01
                      -3.75000000E-01  5.00000000E-01  0.00000000E+00
                      -2.50000000E-01  5.00000000E-01  1.25000000E-01
                      -1.25000000E-01  5.00000000E-01  2.50000000E-01
                      -1.25000000E-01  0.00000000E+00  0.00000000E+00
                      -1.25000000E-01  1.25000000E-01  1.25000000E-01
                      -1.25000000E-01  2.50000000E-01  2.50000000E-01
                      -1.25000000E-01  3.75000000E-01  3.75000000E-01
                      -3.75000000E-01  0.00000000E+00  0.00000000E+00
                      -2.50000000E-01  0.00000000E+00  1.25000000E-01
                      -3.75000000E-01  1.25000000E-01  1.25000000E-01
                      -2.50000000E-01  1.25000000E-01  2.50000000E-01
                      -3.75000000E-01  2.50000000E-01  2.50000000E-01
                      -2.50000000E-01  2.50000000E-01  3.75000000E-01
         kptrlatt        4   -4    4     -4    4    4     -4   -4    4
          kptrlen1     8.61171287E+01
          kptrlen2     8.61171285E+01
P           mkmem           4
            natom           9
            nband          42
           ndtset           2
            ngfft          64      64      64
          ngfftdg         100     100     100
             nkpt          20
            nstep        2500
             nsym           8
            ntime        1000
           ntypat           4
              occ      2.000000  2.000000  2.000000  2.000000  2.000000  2.000000
                       2.000000  2.000000  2.000000  2.000000  2.000000  2.000000
                       2.000000  2.000000  2.000000  2.000000  2.000000  2.000000
                       2.000000  2.000000  2.000000  2.000000  2.000000  2.000000
                       2.000000  2.000000  2.000000  2.000000  2.000000  2.000000
                       2.000000  2.000000  2.000000  2.000000  2.000000  2.000000
                       0.000000  0.000000  0.000000  0.000000  0.000000  0.000000
          optcell           2
        optforces           1
        pawecutdg      4.00000000E+01 Hartree
            prtwf           0
            rprim1     0.0000000000E+00  7.1410192801E-01  7.0004173905E-01
                       7.1410192801E-01  0.0000000000E+00  7.0004173905E-01
                       7.0710678119E-01  7.0710678119E-01  0.0000000000E+00
            rprim2     0.0000000000E+00  7.1410197172E-01  7.0004169446E-01
                       7.1410197172E-01  0.0000000000E+00  7.0004169446E-01
                       7.0710678119E-01  7.0710678119E-01  0.0000000000E+00
           shiftk      5.00000000E-01  5.00000000E-01  5.00000000E-01
          spgroup         107
           strten1    -2.4526535964E-08 -2.4526535964E-08  1.1262091617E-08
                      -2.4611144305E-14 -2.4611204734E-14  4.8252866163E-14
           strten2    -2.4522289037E-08 -2.4522289036E-08  1.1256182567E-08
                       2.0595106708E-14  2.0595700312E-14 -4.0380083245E-14
           symrel      1  0  0   0  1  0   0  0  1       1  0 -1   0  1 -1   0  0 -1
                       0  1 -1   1  0 -1   0  0 -1       0  1  0   1  0  0   0  0  1
                       1  0  0   1  0 -1   1 -1  0       0  1  0   0  1 -1  -1  1  0
                       0  1 -1   0  1  0  -1  1  0       1  0 -1   1  0  0   1 -1  0
           toldff      1.00000000E-08
           tolmxf      1.00000000E-05
            typat1     1  1  2  4  4  4  4  4  3
            typat2     1  1  4  2  4  4  4  4  3
           useylm           1
              wtk        0.03125    0.03125    0.03125    0.06250    0.03125    0.03125
                         0.06250    0.03125    0.06250    0.06250    0.03125    0.06250
                         0.06250    0.06250    0.03125    0.06250    0.06250    0.06250
                         0.06250    0.06250
           xangst1     2.7896081076E+00  2.7896081076E+00  2.6542366317E+00
                       8.3688243229E+00  8.3688243229E+00  8.1236018144E+00
                       5.5792162153E+00  5.5792162153E+00  2.8544808754E+00
                       5.5792162153E+00  5.5792162153E+00  8.3926169712E+00
                       8.6788422162E+00  5.5792162153E+00  5.4522874400E+00
                       5.5792162153E+00  8.6788422162E+00  5.4522874400E+00
                       5.5792162153E+00  2.4795902144E+00  5.4522874400E+00
                       2.4795902144E+00  5.5792162153E+00  5.4522874400E+00
                      -6.4322888430E-13 -6.4321419669E-13 -7.9164591422E-02
           xangst2     2.7896082092E+00  2.7896082092E+00  2.8151278265E+00
                       8.3688246276E+00  8.3688246276E+00  8.2844925250E+00
                       5.5792164184E+00  5.5792164184E+00  2.5461135591E+00
                       5.5792164184E+00  5.5792164184E+00  8.0842486869E+00
                       8.6788426225E+00  5.5792164184E+00  5.4864425621E+00
                       5.5792164184E+00  8.6788426225E+00  5.4864425621E+00
                       5.5792164183E+00  2.4795902142E+00  5.4864425621E+00
                       2.4795902142E+00  5.5792164183E+00  5.4864425621E+00
                      -5.3990279392E-13 -5.3927122635E-13  7.9164741739E-02
            xcart1     5.2715953415E+00  5.2715953415E+00  5.0157803258E+00
                       1.5814786025E+01  1.5814786025E+01  1.5351382642E+01
                       1.0543190683E+01  1.0543190683E+01  5.3941871061E+00
                       1.0543190683E+01  1.0543190683E+01  1.5859747614E+01
                       1.6400634939E+01  1.0543190683E+01  1.0303330059E+01
                       1.0543190683E+01  1.6400634939E+01  1.0303330059E+01
                       1.0543190683E+01  4.6857464269E+00  1.0303330059E+01
                       4.6857464269E+00  1.0543190683E+01  1.0303330059E+01
                      -1.2155264321E-12 -1.2154986765E-12 -1.4959939721E-01
            xcart2     5.2715955334E+00  5.2715955334E+00  5.3198206212E+00
                       1.5814786600E+01  1.5814786600E+01  1.5655422022E+01
                       1.0543191067E+01  1.0543191067E+01  4.8114573300E+00
                       1.0543191067E+01  1.0543191067E+01  1.5277016008E+01
                       1.6400635707E+01  1.0543191067E+01  1.0367873886E+01
                       1.0543191067E+01  1.6400635707E+01  1.0367873886E+01
                       1.0543191067E+01  4.6857464266E+00  1.0367873886E+01
                       4.6857464266E+00  1.0543191067E+01  1.0367873886E+01
                      -1.0202684189E-12 -1.0190749291E-12  1.4959968127E-01
             xred1     2.4264576812E-01  2.4264576812E-01  2.5735423188E-01
                       7.4264576812E-01  7.4264576812E-01  7.5735423188E-01
                       2.6095175400E-01  2.6095175400E-01  7.3904824600E-01
                       7.6723867313E-01  7.6723867313E-01  2.3276132687E-01
                       2.2065549836E-01  7.7622206566E-01  7.7934450164E-01
                       7.7622206566E-01  2.2065549836E-01  7.7934450164E-01
                       2.2065549836E-01  7.7622206566E-01  2.2377793434E-01
                       7.7622206566E-01  2.2065549836E-01  2.2377793434E-01
                      -7.2370913971E-03 -7.2370913971E-03  7.2370913971E-03
             xred2     2.5735418844E-01  2.5735418844E-01  2.4264581156E-01
                       7.5735418844E-01  7.5735418844E-01  7.4264581156E-01
                       2.3276136256E-01  2.3276136256E-01  7.6723863744E-01
                       7.3904823801E-01  7.3904823801E-01  2.6095176199E-01
                       2.2377793744E-01  7.7934452094E-01  7.7622206256E-01
                       7.7934452094E-01  2.2377793744E-01  7.7622206256E-01
                       2.2377793744E-01  7.7934452094E-01  2.2065547906E-01
                       7.7934452094E-01  2.2377793744E-01  2.2065547906E-01
                       7.2371057795E-03  7.2371057795E-03 -7.2371057795E-03
            znucl       55.00000   53.00000   40.00000   17.00000

- Timing analysis has been suppressed with timopt=0

 Suggested references for the acknowledgment of ABINIT usage.

 Calculation completed.
.Delivered   0 WARNINGs and  84 COMMENTs to log file.