.Version 9.2.2 of ABINIT

 ABINIT is a project of the Universite Catholique de Louvain,
 Corning Inc. and other collaborators, see ~abinit/doc/developers/contributors.txt .
 acknowledgments of the ABINIT effort.

.Starting date : Wed 23 Nov 2022.
- ( at 17h41 )

- input  file    -> Cs2TiI6.in
- output file    -> Cs2TiI6.out
- root for input  files -> Cs2TiI6i
- root for output files -> Cs2TiI6o

- inpspheads : Reading pseudopotential header in XML form from
-   ../../../Psps_for_tests/ATOMICDATA/Cs.GGA_PBE-JTH.xml
- inpspheads : Reading pseudopotential header in XML form from
-   ../../../Psps_for_tests/ATOMICDATA/I.GGA_PBE-JTH.xml
- inpspheads : Reading pseudopotential header in XML form from
-   ../../../Psps_for_tests/ATOMICDATA/Zr.GGA_PBE-JTH.xml
- inpspheads : Reading pseudopotential header in XML form from
-   ../../../Psps_for_tests/ATOMICDATA/Br.GGA_PBE-JTH.xml

 DATASET    1 : space group I4 m m (#107); Bravais tI (body-center tetrag.)
     intxc =       0    ionmov =       0      iscf =      17    lmnmax =      18
     lnmax =       6     mgfft =      60  mpssoang =       3    mqgrid =    3507
     natom =       9  nloc_mem =       2    nspden =       1   nspinor =       1
    nsppol =       1      nsym =       8    n1xccc =       1    ntypat =       4
    occopt =       1   xclevel =       2
-    mband =          42        mffmem =           1         mkmem =          28
       mpw =        7467          nfft =      216000          nkpt =         163
Pmy_natom=         2
 PAW method is used; the additional fine FFT grid is defined by:
   mgfftf=        90    nfftf =    729000
  Rough estimation (10% accuracy) of disk space for files :

[...]

 DATASET   10 : space group I4 m m (#107); Bravais tI (body-center tetrag.)
     intxc =       0    ionmov =       0      iscf =      17    lmnmax =      18
     lnmax =       6     mgfft =      50  mpssoang =       3    mqgrid =    3188
     natom =       9  nloc_mem =       2    nspden =       1   nspinor =       1
    nsppol =       1      nsym =       8    n1xccc =       1    ntypat =       4
    occopt =       1   xclevel =       2
-    mband =          42        mffmem =           1         mkmem =          28
       mpw =        5633          nfft =      125000          nkpt =         163
Pmy_natom=         2
 PAW method is used; the additional fine FFT grid is defined by:
   mgfftf=        80    nfftf =    512000
  Rough estimation (10% accuracy) of disk space for files :

------------- Echo of variables that govern the present computation ------------
-
- outvars: echo of selected default values
-   iomode0 =  0 , fftalg0 =112 , wfoptalg0 = 10
-
- outvars: echo of global parameters not present in the input file
-  max_nthreads =    0
-
 -outvars: echo values of preprocessed input variables --------
            acell1     1.5078350708E+01  1.5078350708E+01  1.5097131512E+01 Bohr
            acell2     1.4926030586E+01  1.4926030586E+01  1.4944662570E+01 Bohr
            acell3     1.4772816547E+01  1.4772816547E+01  1.4793998411E+01 Bohr
            acell4     1.4621000702E+01  1.4621000702E+01  1.4640511087E+01 Bohr
            acell5     1.4469010681E+01  1.4469010681E+01  1.4487375890E+01 Bohr
            acell6     1.4318809988E+01  1.4318809988E+01  1.4330636752E+01 Bohr
            acell7     1.4170047253E+01  1.4170047253E+01  1.4171030697E+01 Bohr
            acell8     1.4020652338E+01  1.4020652338E+01  1.4012721956E+01 Bohr
            acell9     1.3871818395E+01  1.3871818395E+01  1.3853327939E+01 Bohr
            acell10    1.3722529821E+01  1.3722529821E+01  1.3694868611E+01 Bohr
              amu      1.32905430E+02  1.26904470E+02  9.12240000E+01
                       7.99040000E+01
           diemac      1.20000000E+01
             ecut      1.60000000E+01 Hartree
-          fftalg         112
           istwfk        2    0    0    0    0    0    3    0    0    0
                         0    0    0    0    0    0    0    0    0    0
                         0    0    0    0    0    0    0    0    0    0
                         0    0    0    0    0    0    0    0    0    0
                         0    0    7    0    0    0    0    0    0    0
                       outvar_i_n : Printing only first  50 k-points.
              ixc     -101130
           jdtset        1    2    3    4    5    6    7    8    9   10
              kpt      0.00000000E+00  0.00000000E+00  0.00000000E+00
                       8.33333333E-02  0.00000000E+00  0.00000000E+00
                       1.66666667E-01  0.00000000E+00  0.00000000E+00
                       2.50000000E-01  0.00000000E+00  0.00000000E+00
                       3.33333333E-01  0.00000000E+00  0.00000000E+00
                       4.16666667E-01  0.00000000E+00  0.00000000E+00
                       5.00000000E-01  0.00000000E+00  0.00000000E+00
                       8.33333333E-02  8.33333333E-02  0.00000000E+00
                       1.66666667E-01  8.33333333E-02  0.00000000E+00
                       2.50000000E-01  8.33333333E-02  0.00000000E+00
                       3.33333333E-01  8.33333333E-02  0.00000000E+00
                       4.16666667E-01  8.33333333E-02  0.00000000E+00
                       5.00000000E-01  8.33333333E-02  0.00000000E+00
                      -4.16666667E-01  8.33333333E-02  0.00000000E+00
                      -3.33333333E-01  8.33333333E-02  0.00000000E+00
                      -2.50000000E-01  8.33333333E-02  0.00000000E+00
                      -1.66666667E-01  8.33333333E-02  0.00000000E+00
                      -8.33333333E-02  8.33333333E-02  0.00000000E+00
                       1.66666667E-01  1.66666667E-01  0.00000000E+00
                       2.50000000E-01  1.66666667E-01  0.00000000E+00
                       3.33333333E-01  1.66666667E-01  0.00000000E+00
                       4.16666667E-01  1.66666667E-01  0.00000000E+00
                       5.00000000E-01  1.66666667E-01  0.00000000E+00
                      -4.16666667E-01  1.66666667E-01  0.00000000E+00
                      -3.33333333E-01  1.66666667E-01  0.00000000E+00
                      -2.50000000E-01  1.66666667E-01  0.00000000E+00
                      -1.66666667E-01  1.66666667E-01  0.00000000E+00
                       2.50000000E-01  2.50000000E-01  0.00000000E+00
                       3.33333333E-01  2.50000000E-01  0.00000000E+00
                       4.16666667E-01  2.50000000E-01  0.00000000E+00
                       5.00000000E-01  2.50000000E-01  0.00000000E+00
                      -4.16666667E-01  2.50000000E-01  0.00000000E+00
                      -3.33333333E-01  2.50000000E-01  0.00000000E+00
                      -2.50000000E-01  2.50000000E-01  0.00000000E+00
                       3.33333333E-01  3.33333333E-01  0.00000000E+00
                       4.16666667E-01  3.33333333E-01  0.00000000E+00
                       5.00000000E-01  3.33333333E-01  0.00000000E+00
                      -4.16666667E-01  3.33333333E-01  0.00000000E+00
                      -3.33333333E-01  3.33333333E-01  0.00000000E+00
                       4.16666667E-01  4.16666667E-01  0.00000000E+00
                       5.00000000E-01  4.16666667E-01  0.00000000E+00
                      -4.16666667E-01  4.16666667E-01  0.00000000E+00
                       5.00000000E-01  5.00000000E-01  0.00000000E+00
                       8.33333333E-02  0.00000000E+00  8.33333333E-02
                       1.66666667E-01  0.00000000E+00  8.33333333E-02
                       2.50000000E-01  0.00000000E+00  8.33333333E-02
                       3.33333333E-01  0.00000000E+00  8.33333333E-02
                       4.16666667E-01  0.00000000E+00  8.33333333E-02
                       5.00000000E-01  0.00000000E+00  8.33333333E-02
                      -4.16666667E-01  0.00000000E+00  8.33333333E-02
                       outvar_i_n : Printing only first  50 k-points.
         kptrlatt       12    0    0      0   12    0      0    0   12
          kptrlen1     1.80940208E+02
          kptrlen2     1.79112367E+02
          kptrlen3     1.77273799E+02
          kptrlen4     1.75452008E+02
          kptrlen5     1.73628128E+02
          kptrlen6     1.71825720E+02
          kptrlen7     1.70040567E+02
          kptrlen8     1.68152663E+02
          kptrlen9     1.66239935E+02
          kptrlen10    1.64338423E+02
P           mkmem          28
            natom           9
            nband          42
           ndtset          10
            ngfft1         60      60      60
            ngfft2         54      54      54
            ngfft3         54      54      54
            ngfft4         54      54      54
            ngfft5         54      54      54
            ngfft6         54      54      54
            ngfft7         54      54      54
            ngfft8         54      54      54
            ngfft9         50      50      50
            ngfft10        50      50      50
          ngfftdg1         90      90      90
          ngfftdg2         90      90      90
          ngfftdg3         90      90      90
          ngfftdg4         90      90      90
          ngfftdg5         90      90      90
          ngfftdg6         90      90      90
          ngfftdg7         90      90      90
          ngfftdg8         80      80      80
          ngfftdg9         80      80      80
          ngfftdg10        80      80      80
             nkpt         163
            nstep        2500
             nsym           8
           ntypat           4
              occ      2.000000  2.000000  2.000000  2.000000  2.000000  2.000000
                       2.000000  2.000000  2.000000  2.000000  2.000000  2.000000
                       2.000000  2.000000  2.000000  2.000000  2.000000  2.000000
                       2.000000  2.000000  2.000000  2.000000  2.000000  2.000000
                       2.000000  2.000000  2.000000  2.000000  2.000000  2.000000
                       2.000000  2.000000  2.000000  2.000000  2.000000  2.000000
                       0.000000  0.000000  0.000000  0.000000  0.000000  0.000000
        pawecutdg      4.00000000E+01 Hartree
            prtwf           0
            rprim1     0.0000000000E+00  7.0798751634E-01  7.0622494766E-01
                       7.0798751634E-01  0.0000000000E+00  7.0622494766E-01
                       7.0710678119E-01  7.0710678119E-01  0.0000000000E+00
            rprim2     0.0000000000E+00  7.0798945403E-01  7.0622300514E-01
                       7.0798945403E-01  0.0000000000E+00  7.0622300514E-01
                       7.0710678119E-01  7.0710678119E-01  0.0000000000E+00
            rprim3     0.0000000000E+00  7.0812065961E-01  7.0609144693E-01
                       7.0812065961E-01  0.0000000000E+00  7.0609144693E-01
                       7.0710678119E-01  7.0710678119E-01  0.0000000000E+00
            rprim4     0.0000000000E+00  7.0805035035E-01  7.0616195123E-01
                       7.0805035035E-01  0.0000000000E+00  7.0616195123E-01
                       7.0710678119E-01  7.0710678119E-01  0.0000000000E+00
            rprim5     0.0000000000E+00  7.0800429684E-01  7.0620812489E-01
[...]
                      -1.8775589463E-12 -1.8775589463E-12  6.2733987121E-02
           xangst7     2.6512920914E+00  2.6512920914E+00  2.6724095343E+00
                       7.9538762742E+00  7.9538762742E+00  7.9742577123E+00
                       5.3025841829E+00  5.3025841829E+00  2.6783562217E+00
                       5.3025841827E+00  5.3025841827E+00  7.8215188376E+00
                       7.9901009772E+00  5.3025841829E+00  5.3008258552E+00
                       5.3025841829E+00  7.9901009772E+00  5.3008258552E+00
                       5.3025841827E+00  2.6150673884E+00  5.3008258552E+00
                       2.6150673884E+00  5.3025841827E+00  5.3008258552E+00
                      -1.4896932291E-12 -1.4896932291E-12  6.4939697628E-02
           xangst8     2.6216737297E+00  2.6216737297E+00  2.6444029276E+00
                       7.8650211891E+00  7.8650211891E+00  7.8936835665E+00
                       5.2433474594E+00  5.2433474594E+00  2.6738871947E+00
                       5.2433474593E+00  5.2433474593E+00  7.7325047085E+00
                       7.8791578296E+00  5.2433474594E+00  5.2455741382E+00
                       5.2433474594E+00  7.8791578296E+00  5.2455741382E+00
                       5.2433474593E+00  2.6075370892E+00  5.2455741382E+00
                       2.6075370892E+00  5.2433474593E+00  5.2455741382E+00
                      -1.5381750250E-12 -1.5381750250E-12  6.7470161138E-02
           xangst9     2.5918523211E+00  2.5918523211E+00  2.6159267363E+00
                       7.7755569634E+00  7.7755569634E+00  7.8134598634E+00
                       5.1837046423E+00  5.1837046423E+00  2.6686638448E+00
                       5.1837046422E+00  5.1837046422E+00  7.6466418097E+00
                       7.7684497794E+00  5.1837046423E+00  5.1912335923E+00
                       5.1837046423E+00  7.7684497794E+00  5.1912335923E+00
                       5.1837046422E+00  2.5989595051E+00  5.1912335923E+00
                       2.5989595051E+00  5.1837046422E+00  5.1912335923E+00
                      -8.5924478946E-13 -8.5924478946E-13  7.0638393168E-02
           xangst10    2.5622057857E+00  2.5622057857E+00  2.5865461859E+00
                       7.6866173571E+00  7.6866173571E+00  7.7316377439E+00
                       5.1244115715E+00  5.1244115715E+00  2.6626866054E+00
                       5.1244115714E+00  5.1244115714E+00  7.5610924356E+00
                       7.6598167662E+00  5.1244115715E+00  5.1360441569E+00
                       5.1244115715E+00  7.6598167662E+00  5.1360441569E+00
                       5.1244115714E+00  2.5890063766E+00  5.1360441569E+00
                       2.5890063766E+00  5.1244115714E+00  5.1360441569E+00
                      -1.5153514299E-12 -1.5153514299E-12  7.4592865539E-02
            xcart1     5.3376420342E+00  5.3376420342E+00  5.3770386999E+00
                       1.6012926103E+01  1.6012926103E+01  1.6025746139E+01
                       1.0675284069E+01  1.0675284069E+01  5.0892729069E+00
                       1.0675284068E+01  1.0675284068E+01  1.5910258666E+01
                       1.6360414442E+01  1.0675284069E+01  1.0669718589E+01
                       1.0675284069E+01  1.6360414442E+01  1.0669718589E+01
                       1.0675284068E+01  4.9901536948E+00  1.0669718589E+01
                       4.9901536948E+00  1.0675284068E+01  1.0669718589E+01
                      -1.9966681781E-12 -1.9966681781E-12  1.0846874757E-01
            xcart2     5.2837361228E+00  5.2837361228E+00  5.3204318828E+00
                       1.5851208368E+01  1.5851208368E+01  1.5861538058E+01
                       1.0567472246E+01  1.0567472246E+01  5.0865061713E+00
                       1.0567472246E+01  1.0567472246E+01  1.5711073556E+01
                       1.6149482020E+01  1.0567472246E+01  1.0559925486E+01
                       1.0567472246E+01  1.6149482020E+01  1.0559925486E+01
                       1.0567472246E+01  4.9854624716E+00  1.0559925486E+01
                       4.9854624716E+00  1.0567472246E+01  1.0559925486E+01
                      -2.2153975607E-12 -2.2153975607E-12  1.0959779021E-01
            xcart3     5.2304682987E+00  5.2304682987E+00  5.2710205202E+00
                       1.5691404896E+01  1.5691404896E+01  1.5701979931E+01
                       1.0460936597E+01  1.0460936597E+01  5.0807795593E+00
                       1.0460936598E+01  1.0460936598E+01  1.5506333791E+01
                       1.5942268981E+01  1.0460936597E+01  1.0444699997E+01
                       1.0460936597E+01  1.5942268981E+01  1.0444699997E+01
                       1.0460936598E+01  4.9796042135E+00  1.0444699997E+01
                       4.9796042135E+00  1.0460936598E+01  1.0444699997E+01
                       1.1833266821E-12  1.1833266821E-12  1.0876149650E-01
            xcart4     5.1762023348E+00  5.1762023348E+00  5.2142355014E+00
                       1.5528607004E+01  1.5528607004E+01  1.5539029886E+01
                       1.0352404670E+01  1.0352404670E+01  5.0769224662E+00
                       1.0352404670E+01  1.0352404670E+01  1.5314889480E+01
                       1.5732347951E+01  1.0352404670E+01  1.0335555497E+01
                       1.0352404670E+01  1.5732347951E+01  1.0335555497E+01
                       1.0352404670E+01  4.9724613885E+00  1.0335555497E+01
                       4.9724613885E+00  1.0352404670E+01  1.0335555497E+01
                      -1.0023917826E-12 -1.0023917826E-12  1.1105575399E-01
            xcart5     5.1220608667E+00  5.1220608667E+00  5.1566387524E+00
                       1.5366182600E+01  1.5366182600E+01  1.5374771654E+01
                       1.0244121733E+01  1.0244121733E+01  5.0732163952E+00
                       1.0244121733E+01  1.0244121733E+01  1.5125169149E+01
                       1.5524406993E+01  1.0244121733E+01  1.0225157984E+01
                       1.0244121733E+01  1.5524406993E+01  1.0225157984E+01
                       1.0244121733E+01  4.9638364736E+00  1.0225157984E+01
                       4.9638364736E+00  1.0244121733E+01  1.0225157984E+01
                      -1.6584431488E-12 -1.6584431488E-12  1.1463533092E-01
            xcart6     5.0666452129E+00  5.0666452129E+00  5.1016123510E+00
                       1.5199935639E+01  1.5199935639E+01  1.5218170295E+01
                       1.0133290426E+01  1.0133290426E+01  5.0680030854E+00
                       1.0133290426E+01  1.0133290426E+01  1.4947687363E+01
                       1.5312982373E+01  1.0133290426E+01  1.0119610100E+01
                       1.0133290426E+01  1.5312982373E+01  1.0119610100E+01
                       1.0133290426E+01  4.9535984783E+00  1.0119610100E+01
                       4.9535984783E+00  1.0133290426E+01  1.0119610100E+01
                      -3.5480722069E-12 -3.5480722069E-12  1.1855005488E-01
            xcart7     5.0102159510E+00  5.0102159510E+00  5.0501221347E+00
                       1.5030647853E+01  1.5030647853E+01  1.5069163189E+01
                       1.0020431902E+01  1.0020431902E+01  5.0613597452E+00
                       1.0020431902E+01  1.0020431902E+01  1.4780528546E+01
                       1.5099102621E+01  1.0020431902E+01  1.0017109144E+01
                       1.0020431902E+01  1.5099102621E+01  1.0017109144E+01
                       1.0020431902E+01  4.9417611831E+00  1.0017109144E+01
                       4.9417611831E+00  1.0020431902E+01  1.0017109144E+01
                      -2.8151122250E-12 -2.8151122250E-12  1.2271824367E-01
            xcart8     4.9542453589E+00  4.9542453589E+00  4.9971973182E+00
                       1.4862736077E+01  1.4862736077E+01  1.4916900120E+01
                       9.9084907179E+00  9.9084907179E+00  5.0529145083E+00
                       9.9084907177E+00  9.9084907177E+00  1.4612316220E+01
                       1.4889450456E+01  9.9084907179E+00  9.9126985309E+00
                       9.9084907179E+00  1.4889450456E+01  9.9126985309E+00
                       9.9084907177E+00  4.9275309799E+00  9.9126985309E+00
                       4.9275309799E+00  9.9084907177E+00  9.9126985309E+00
                      -2.9067295418E-12 -2.9067295418E-12  1.2750012669E-01
            xcart9     4.8978910638E+00  4.8978910638E+00  4.9433851153E+00
                       1.4693673191E+01  1.4693673191E+01  1.4765299292E+01
                       9.7957821277E+00  9.7957821277E+00  5.0430438073E+00
                       9.7957821275E+00  9.7957821275E+00  1.4450058857E+01
                       1.4680242560E+01  9.7957821277E+00  9.8100097813E+00
                       9.7957821277E+00  1.4680242560E+01  9.8100097813E+00
                       9.7957821275E+00  4.9113216951E+00  9.8100097813E+00
                       4.9113216951E+00  9.7957821275E+00  9.8100097813E+00
                      -1.6237373332E-12 -1.6237373332E-12  1.3348721755E-01
            xcart10    4.8418672311E+00  4.8418672311E+00  4.8878639214E+00
                       1.4525601693E+01  1.4525601693E+01  1.4610677895E+01
                       9.6837344622E+00  9.6837344622E+00  5.0317484619E+00
                       9.6837344621E+00  9.6837344621E+00  1.4288393969E+01
                       1.4474955916E+01  9.6837344622E+00  9.7057168630E+00
                       9.6837344622E+00  1.4474955916E+01  9.7057168630E+00
                       9.6837344620E+00  4.8925130081E+00  9.7057168630E+00
                       4.8925130081E+00  9.6837344620E+00  9.7057168630E+00
                      -2.8635991977E-12 -2.8635991977E-12  1.4096008734E-01
             xred1     2.5247377348E-01  2.5247377348E-01  2.4752622652E-01
                       7.5247377348E-01  7.5247377348E-01  7.4752622652E-01
                       2.3896200247E-01  2.3896200247E-01  7.6103799753E-01
                       7.4705116822E-01  7.4705116822E-01  2.5294883178E-01
                       2.3471119134E-01  7.6726192603E-01  7.6528880866E-01
                       7.6726192603E-01  2.3471119134E-01  7.6528880866E-01
                       2.3471119134E-01  7.6726192603E-01  2.3273807397E-01
                       7.6726192603E-01  2.3471119134E-01  2.3273807397E-01
                       5.0930475923E-03  5.0930475923E-03 -5.0930475923E-03
             xred2     2.5236591845E-01  2.5236591845E-01  2.4763408155E-01
                       7.5236591845E-01  7.5236591845E-01  7.4763408155E-01
                       2.4127003783E-01  2.4127003783E-01  7.5872996217E-01
                       7.4522888274E-01  7.4522888274E-01  2.5477111726E-01
                       2.3677984375E-01  7.6500548223E-01  7.6322015625E-01
                       7.6500548223E-01  2.3677984375E-01  7.6322015625E-01
                       2.3677984375E-01  7.6500548223E-01  2.3499451777E-01
                       7.6500548223E-01  2.3677984375E-01  2.3499451777E-01
                       5.1985905648E-03  5.1985905648E-03 -5.1985905648E-03
             xred3     2.5266230615E-01  2.5266230615E-01  2.4733769385E-01
                       7.5266230615E-01  7.5266230615E-01  7.4733769385E-01
                       2.4354325231E-01  2.4354325231E-01  7.5645674769E-01
                       7.4328415920E-01  7.4328415920E-01  2.5671584080E-01
                       2.3866812699E-01  7.6264916185E-01  7.6133187301E-01
                       7.6264916185E-01  2.3866812699E-01  7.6133187301E-01
                       2.3866812699E-01  7.6264916185E-01  2.3735083815E-01
                       7.6264916185E-01  2.3866812699E-01  2.3735083815E-01
                       5.2133985099E-03  5.2133985099E-03 -5.2133985099E-03
             xred4     2.5251037973E-01  2.5251037973E-01  2.4748962027E-01
                       7.5251037973E-01  7.5251037973E-01  7.4748962027E-01
                       2.4586070565E-01  2.4586070565E-01  7.5413929435E-01
                       7.4165590662E-01  7.4165590662E-01  2.5834409338E-01
                       2.4068085809E-01  7.6036140119E-01  7.5931914191E-01
                       7.6036140119E-01  2.4068085809E-01  7.5931914191E-01
                       2.4068085809E-01  7.6036140119E-01  2.3963859881E-01
                       7.6036140119E-01  2.4068085809E-01  2.3963859881E-01
                       5.3781097158E-03  5.3781097158E-03 -5.3781097158E-03
             xred5     2.5232783728E-01  2.5232783728E-01  2.4767216272E-01
                       7.5232783728E-01  7.5232783728E-01  7.4767216272E-01
                       2.4824576289E-01  2.4824576289E-01  7.5175423711E-01
                       7.4011413306E-01  7.4011413306E-01  2.5988586694E-01
                       2.4262106368E-01  7.5806644760E-01  7.5737893632E-01
                       7.5806644760E-01  2.4262106368E-01  7.5737893632E-01
                       2.4262106368E-01  7.5806644760E-01  2.4193355240E-01
                       7.5806644760E-01  2.4262106368E-01  2.4193355240E-01
                       5.6094069249E-03  5.6094069249E-03 -5.6094069249E-03
             xred6     2.5214170568E-01  2.5214170568E-01  2.4785829432E-01
                       7.5214170568E-01  7.5214170568E-01  7.4785829432E-01
                       2.5048060386E-01  2.5048060386E-01  7.4951939614E-01
                       7.3877337758E-01  7.3877337758E-01  2.6122662242E-01
                       2.4457286205E-01  7.5572883704E-01  7.5542713795E-01
                       7.5572883704E-01  2.4457286205E-01  7.5542713795E-01
                       2.4457286205E-01  7.5572883704E-01  2.4427116296E-01
                       7.5572883704E-01  2.4457286205E-01  2.4427116296E-01
                       5.8592090088E-03  5.8592090088E-03 -5.8592090088E-03
             xred7     2.5202622223E-01  2.5202622223E-01  2.4797377777E-01
                       7.5202622223E-01  7.5202622223E-01  7.4797377777E-01
                       2.5258703491E-01  2.5258703491E-01  7.4741296509E-01
                       7.3762191739E-01  7.3762191739E-01  2.6237808261E-01
                       2.4648782872E-01  7.5331934742E-01  7.5351217128E-01
                       7.5331934742E-01  2.4648782872E-01  7.5351217128E-01
                       2.4648782872E-01  7.5331934742E-01  2.4668065258E-01
                       7.5331934742E-01  2.4648782872E-01  2.4668065258E-01
                       6.1242509638E-03  6.1242509638E-03 -6.1242509638E-03
             xred8     2.5188241109E-01  2.5188241109E-01  2.4811758891E-01
                       7.5188241109E-01  7.5188241109E-01  7.4811758891E-01
                       2.5469082134E-01  2.5469082134E-01  7.4530917866E-01
                       7.3652994005E-01  7.3652994005E-01  2.6347005995E-01
                       2.4829889665E-01  7.5099500646E-01  7.5170110335E-01
                       7.5099500646E-01  2.4829889665E-01  7.5170110335E-01
                       2.4829889665E-01  7.5099500646E-01  2.4900499354E-01
                       7.5099500646E-01  2.4829889665E-01  2.4900499354E-01
                       6.4266102138E-03  6.4266102138E-03 -6.4266102138E-03
             xred9     2.5165079975E-01  2.5165079975E-01  2.4834920025E-01
                       7.5165079975E-01  7.5165079975E-01  7.4834920025E-01
                       2.5672408232E-01  2.5672408232E-01  7.4327591768E-01
                       7.3560298922E-01  7.3560298922E-01  2.6439701078E-01
                       2.5007951935E-01  7.4870845667E-01  7.4992048065E-01
                       7.4870845667E-01  2.5007951935E-01  7.4992048065E-01
                       2.5007951935E-01  7.4870845667E-01  2.5129154333E-01
                       7.4870845667E-01  2.5007951935E-01  2.5129154333E-01
                       6.7953769068E-03  6.7953769068E-03 -6.7953769068E-03
             xred10    2.5136055955E-01  2.5136055955E-01  2.4863944045E-01
                       7.5136055955E-01  7.5136055955E-01  7.4863944045E-01
                       2.5875988555E-01  2.5875988555E-01  7.4124011445E-01
                       7.3478696641E-01  7.3478696641E-01  2.6521303359E-01
                       2.5173576560E-01  7.4650578152E-01  7.4826423440E-01
                       7.4650578152E-01  2.5173576560E-01  7.4826423440E-01
                       2.5173576560E-01  7.4650578152E-01  2.5349421848E-01
                       7.4650578152E-01  2.5173576560E-01  2.5349421848E-01
                       7.2489347078E-03  7.2489347078E-03 -7.2489347078E-03
            znucl       55.00000   53.00000   40.00000   35.00000

- Timing analysis has been suppressed with timopt=0

 Suggested references for the acknowledgment of ABINIT usage.

 Calculation completed.
.Delivered   0 WARNINGs and   5 COMMENTs to log file.