.Version 9.2.2 of ABINIT

 ABINIT is a project of the Universite Catholique de Louvain,
 Corning Inc. and other collaborators, see ~abinit/doc/developers/contributors.txt .
 acknowledgments of the ABINIT effort.

.Starting date : Sat  8 Oct 2022.
- ( at 14h10 )

- input  file    -> Cs2TiI6.in
- output file    -> Cs2TiI6.out
- root for input  files -> Cs2TiI6i
- root for output files -> Cs2TiI6o

- inpspheads : Reading pseudopotential header in XML form from
-   ../../../Psps_for_tests/ATOMICDATA/Cs.GGA_PBE-JTH.xml
- inpspheads : Reading pseudopotential header in XML form from
-   ../../../Psps_for_tests/ATOMICDATA/I.GGA_PBE-JTH.xml
- inpspheads : Reading pseudopotential header in XML form from
-   ../../../Psps_for_tests/ATOMICDATA/Hf.GGA_PBE-JTH.xml
- inpspheads : Reading pseudopotential header in XML form from
-   ../../../Psps_for_tests/ATOMICDATA/Cl.GGA_PBE-JTH.xml

 Symmetries : space group Fm m 2 (# 42); Bravais oF (face-center ortho.)
     intxc =       0    ionmov =       0      iscf =      17    lmnmax =      18
     lnmax =       6     mgfft =      60  mpssoang =       3    mqgrid =    3589
     natom =       9  nloc_mem =       2    nspden =       1   nspinor =       1
    nsppol =       1      nsym =       4    n1xccc =       1    ntypat =       4
    occopt =       1   xclevel =       2
-    mband =          42        mffmem =           1         mkmem =          47
       mpw =        7979          nfft =      216000          nkpt =         280
Pmy_natom=         2
 PAW method is used; the additional fine FFT grid is defined by:
   mgfftf=        90    nfftf =    729000
  Rough estimation (10% accuracy) of disk space for files :

------------- Echo of variables that govern the present computation ------------
-
- outvars: echo of selected default values
-   iomode0 =  0 , fftalg0 =112 , wfoptalg0 = 10
-
- outvars: echo of global parameters not present in the input file
-  max_nthreads =    0
-
 -outvars: echo values of preprocessed input variables --------
            acell      1.5395086575E+01  1.5613385490E+01  1.5319697685E+01 Bohr
              amu      1.32905430E+02  1.26904470E+02  1.78490000E+02
                       3.54527000E+01
           diemac      1.20000000E+01
             ecut      1.60000000E+01 Hartree
-          fftalg         112
           istwfk        2    0    0    0    0    0    3    0    0    0
                         0    0    0    0    0    0    0    0    0    0
                         0    0    0    0    0    0    0    0    0    0
                         0    0    0    0    0    0    0    0    0    0
                         0    0    7    0    0    0    0    0    0    0
                       outvar_i_n : Printing only first  50 k-points.
              ixc     -101130
              kpt      0.00000000E+00  0.00000000E+00  0.00000000E+00
                       8.33333333E-02  0.00000000E+00  0.00000000E+00
                       1.66666667E-01  0.00000000E+00  0.00000000E+00
                       2.50000000E-01  0.00000000E+00  0.00000000E+00
                       3.33333333E-01  0.00000000E+00  0.00000000E+00
                       4.16666667E-01  0.00000000E+00  0.00000000E+00
                       5.00000000E-01  0.00000000E+00  0.00000000E+00
                       8.33333333E-02  8.33333333E-02  0.00000000E+00
                       1.66666667E-01  8.33333333E-02  0.00000000E+00
                       2.50000000E-01  8.33333333E-02  0.00000000E+00
                       3.33333333E-01  8.33333333E-02  0.00000000E+00
                       4.16666667E-01  8.33333333E-02  0.00000000E+00
                       5.00000000E-01  8.33333333E-02  0.00000000E+00
                      -4.16666667E-01  8.33333333E-02  0.00000000E+00
                      -3.33333333E-01  8.33333333E-02  0.00000000E+00
                      -2.50000000E-01  8.33333333E-02  0.00000000E+00
                      -1.66666667E-01  8.33333333E-02  0.00000000E+00
                      -8.33333333E-02  8.33333333E-02  0.00000000E+00
                       1.66666667E-01  1.66666667E-01  0.00000000E+00
                       2.50000000E-01  1.66666667E-01  0.00000000E+00
                       3.33333333E-01  1.66666667E-01  0.00000000E+00
                       4.16666667E-01  1.66666667E-01  0.00000000E+00
                       5.00000000E-01  1.66666667E-01  0.00000000E+00
                      -4.16666667E-01  1.66666667E-01  0.00000000E+00
                      -3.33333333E-01  1.66666667E-01  0.00000000E+00
                      -2.50000000E-01  1.66666667E-01  0.00000000E+00
                      -1.66666667E-01  1.66666667E-01  0.00000000E+00
                       2.50000000E-01  2.50000000E-01  0.00000000E+00
                       3.33333333E-01  2.50000000E-01  0.00000000E+00
                       4.16666667E-01  2.50000000E-01  0.00000000E+00
                       5.00000000E-01  2.50000000E-01  0.00000000E+00
                      -4.16666667E-01  2.50000000E-01  0.00000000E+00
                      -3.33333333E-01  2.50000000E-01  0.00000000E+00
                      -2.50000000E-01  2.50000000E-01  0.00000000E+00
                       3.33333333E-01  3.33333333E-01  0.00000000E+00
                       4.16666667E-01  3.33333333E-01  0.00000000E+00
                       5.00000000E-01  3.33333333E-01  0.00000000E+00
                      -4.16666667E-01  3.33333333E-01  0.00000000E+00
                      -3.33333333E-01  3.33333333E-01  0.00000000E+00
                       4.16666667E-01  4.16666667E-01  0.00000000E+00
                       5.00000000E-01  4.16666667E-01  0.00000000E+00
                      -4.16666667E-01  4.16666667E-01  0.00000000E+00
                       5.00000000E-01  5.00000000E-01  0.00000000E+00
                       8.33333333E-02  0.00000000E+00  8.33333333E-02
                       1.66666667E-01  0.00000000E+00  8.33333333E-02
                       2.50000000E-01  0.00000000E+00  8.33333333E-02
                       3.33333333E-01  0.00000000E+00  8.33333333E-02
                       4.16666667E-01  0.00000000E+00  8.33333333E-02
                       5.00000000E-01  0.00000000E+00  8.33333333E-02
                      -4.16666667E-01  0.00000000E+00  8.33333333E-02
                       outvar_i_n : Printing only first  50 k-points.
         kptrlatt       12    0    0      0   12    0      0    0   12
          kptrlen      1.83836372E+02
P           mkmem          47
            natom           9
            nband          42
            ngfft          60      60      60
          ngfftdg          90      90      90
             nkpt         280
            nstep        2500
             nsym           4
           ntypat           4
              occ      2.000000  2.000000  2.000000  2.000000  2.000000  2.000000
                       2.000000  2.000000  2.000000  2.000000  2.000000  2.000000
                       2.000000  2.000000  2.000000  2.000000  2.000000  2.000000
                       2.000000  2.000000  2.000000  2.000000  2.000000  2.000000
                       2.000000  2.000000  2.000000  2.000000  2.000000  2.000000
                       2.000000  2.000000  2.000000  2.000000  2.000000  2.000000
                       0.000000  0.000000  0.000000  0.000000  0.000000  0.000000
        pawecutdg      4.00000000E+01 Hartree
            prtwf           0
            rprim      0.0000000000E+00  6.9342247853E-01  7.2053123892E-01
                       7.0374049795E-01  0.0000000000E+00  7.1045711450E-01
                       7.1723162597E-01  6.9683484033E-01  0.0000000000E+00
          spgroup          42
           symrel      1  0  0   0  1  0   0  0  1       0  1 -1   1  0 -1   0  0 -1
                       1  0  0   1  0 -1   1 -1  0       0  1 -1   0  1  0  -1  1  0
           toldfe      1.00000000E-08 Hartree
            typat      1  1  4  4  2  4  2  2  3
           useylm           1
              wtk        0.00058    0.00463    0.00463    0.00463    0.00463    0.00463
                         0.00231    0.00116    0.00463    0.00463    0.00463    0.00463
                         0.00463    0.00463    0.00463    0.00463    0.00463    0.00231
                         0.00116    0.00463    0.00463    0.00463    0.00463    0.00463
                         0.00463    0.00463    0.00231    0.00116    0.00463    0.00463
                         0.00463    0.00463    0.00463    0.00231    0.00116    0.00463
                         0.00463    0.00463    0.00231    0.00116    0.00463    0.00231
                         0.00058    0.00116    0.00463    0.00463    0.00463    0.00463
                         0.00463    0.00463
                       outvars : Printing only first  50 k-points.
           xangst      2.9072391730E+00  2.8245624867E+00  2.9453373014E+00
                       8.7217175191E+00  8.4736874601E+00  8.8153099974E+00
                       5.8144783462E+00  8.8599452918E+00  5.9281637105E+00
                       5.8144783462E+00  5.6491249734E+00  2.5363412507E+00
                       5.8144783460E+00  5.6491249733E+00  8.9284165797E+00
                       5.8144783460E+00  2.4383046549E+00  5.9281637104E+00
                       8.7380382446E+00  5.6491249734E+00  5.8886990102E+00
                       2.8909184475E+00  5.6491249733E+00  5.8886990103E+00
                      -2.5564462499E-12 -9.5461227061E-13  1.0065099739E-01
            xcart      5.4938858398E+00  5.3376495451E+00  5.5658808686E+00
                       1.6481657520E+01  1.6012948635E+01  1.6658521672E+01
                       1.0987771680E+01  1.6742870154E+01  1.1202605884E+01
                       1.0987771680E+01  1.0675299090E+01  4.7929903434E+00
                       1.0987771680E+01  1.0675299090E+01  1.6872262136E+01
                       1.0987771680E+01  4.6077280264E+00  1.1202605884E+01
                       1.6512499221E+01  1.0675299090E+01  1.1128028408E+01
                       5.4630441384E+00  1.0675299090E+01  1.1128028409E+01
                      -4.8309832857E-12 -1.8039557545E-12  1.9020282007E-01
             xred      2.5088168667E-01  2.5088168667E-01  2.4911831333E-01
                       7.5088168667E-01  7.5088168667E-01  7.4911831333E-01
                       7.8914407191E-01  2.2076926456E-01  7.7923073544E-01
                       2.1604370089E-01  2.1604370089E-01  7.8395629911E-01
                       7.6051602299E-01  7.6051602299E-01  2.3948397701E-01
                       2.2076926456E-01  7.8914407191E-01  2.1085592809E-01
                       2.5019163812E-01  7.5299854951E-01  7.4980836188E-01
                       7.5299854951E-01  2.5019163812E-01  2.4700145049E-01
                       8.5733786682E-03  8.5733786682E-03 -8.5733786682E-03
            znucl       55.00000   53.00000   72.00000   17.00000

 chkinp: Checking input parameters for consistency.

== DATASET  1 ==================================================================
-   mpi_nproc: 6, omp_nthreads: -1 (-1 if OMP is not activated)

--- !DatasetInfo
iteration_state: {dtset: 1, }
[...]
   0.00000   0.00000   0.00000   0.00000  -0.06608   0.00000   0.00000   1.10140   0.00000   0.00000   0.00000  -0.02288 ...
   0.00000   0.00000   0.00000   0.00000   0.00000   0.00000   0.00000   0.00000   0.48873   0.00000   0.00000   0.00000 ...
   0.00000   0.00000   0.00070   0.00000   0.00000  -0.01914   0.00000   0.00000   0.00000   0.52827   0.00000   0.00000 ...
  -0.00065  -0.00562   0.00000   0.00020   0.00000   0.00000   0.21031   0.00000   0.00000   0.00000   1.49208   0.00000 ...
   0.00000   0.00000   0.00000   0.00000   0.00079   0.00000   0.00000  -0.02288   0.00000   0.00000   0.00000   0.43855 ...
   ...  only 12  components have been written...

 ----iterations are completed or convergence reached----

 Mean square residual over all n,k,spin=   98.968E-08; max=  47.694E-05
 reduced coordinates (array xred) for    9 atoms
       0.250881686670      0.250881686670      0.249118313330
       0.750881686670      0.750881686670      0.749118313330
       0.789144071910      0.220769264560      0.779230735440
       0.216043700890      0.216043700890      0.783956299110
       0.760516022990      0.760516022990      0.239483977010
       0.220769264560      0.789144071910      0.210855928090
       0.250191638120      0.752998549510      0.749808361880
       0.752998549510      0.250191638120      0.247001450490
       0.008573378668      0.008573378668     -0.008573378668
 rms dE/dt=  3.0557E-04; max dE/dt=  6.3633E-04; dE/dt below (all hartree)
    1      -0.000175318132     -0.000175318132      0.000000000000
    2      -0.000175318132     -0.000175318132      0.000000000000
    3       0.000208539567     -0.000180404159      0.000388943726
    4       0.000636328448      0.000636328448      0.000000000000
    5       0.000148155286      0.000148155286      0.000000000000
    6      -0.000569347885     -0.000180404159     -0.000388943726
    7       0.000053102552      0.000215432485      0.000162329933
    8       0.000053102552     -0.000109227381     -0.000162329933
    9      -0.000588366022     -0.000588366022      0.000000000000

 cartesian coordinates (angstrom) at end:
    1      2.90723917304360     2.82456248668793     2.94533730136585
    2      8.72171751913131     8.47368746006398     8.81530999738019
    3      5.81447834617098     8.85994529181418     5.92816371047436
    4      5.81447834617239     5.64912497340767     2.53634125074038
    5      5.81447834601003     5.64912497334704     8.92841657966543
    6      5.81447834600150     2.43830465493681     5.92816371036493
    7      8.73803824462764     5.64912497340387     5.88869901024920
    8      2.89091844754684     5.64912497334788     5.88869901034601
    9     -0.00000000000256    -0.00000000000095     0.10065099738985

 cartesian forces (hartree/bohr) at end:
    1      0.00000000000000    -0.00000000000000     0.00001170687488
    2      0.00000000000000    -0.00000000000000     0.00001170687488
    3      0.00000000000000    -0.00003643398867     0.00001216537949
    4     -0.00000000000000     0.00000000000000    -0.00006146294957
    5     -0.00000000000000     0.00000000000000    -0.00001745420801
    6     -0.00000000000000     0.00003643398867     0.00001216537949
    7     -0.00001477369006     0.00000000000000    -0.00000888521748
    8      0.00001477369006    -0.00000000000000    -0.00000888521748
    9      0.00000000000000    -0.00000000000000     0.00004894308379
 frms,max,avg= 1.9528851E-05 6.1462950E-05   0.000E+00  0.000E+00  4.098E-06 h/b

 cartesian forces (eV/Angstrom) at end:
    1      0.00000000000001    -0.00000000000001     0.00060199165980
    2      0.00000000000001    -0.00000000000001     0.00060199165980
    3      0.00000000000003    -0.00187351086785     0.00062556891303
    4     -0.00000000000005     0.00000000000005    -0.00316055167661
    5     -0.00000000000001     0.00000000000002    -0.00089753138707
    6     -0.00000000000001     0.00187351086783     0.00062556891306
    7     -0.00075969362387     0.00000000000003    -0.00045689621473
    8      0.00075969362385    -0.00000000000001    -0.00045689621469
    9      0.00000000000004    -0.00000000000004     0.00251675434741
 frms,max,avg= 1.0042138E-03 3.1605517E-03   0.000E+00  0.000E+00  2.107E-04 e/A
 length scales= 15.395086575000 15.613385490000 15.319697685000 bohr
              =  8.146728939760  8.262247750238  8.106834857391 angstroms
 prteigrs : about to open file Cs2TiI6o_EIG
 Fermi (or HOMO) energy (hartree) =  -0.08553   Average Vxc (hartree)=  -0.27513
 Eigenvalues (hartree) for nkpt= 280  k points:
 kpt#   1, nband= 42, wtk=  0.00058, kpt=  0.0000  0.0000  0.0000 (reduced coord)
  -2.38380   -1.22841   -1.22808   -1.22795   -0.84039   -0.84025   -0.61459   -0.60581
  -0.59939   -0.50213   -0.49475   -0.48948   -0.35803   -0.35693   -0.35691   -0.35543
  -0.35541   -0.35537   -0.24067   -0.20816   -0.20074   -0.19003   -0.18999   -0.18521
  -0.18199   -0.17686   -0.16409   -0.14818   -0.14412   -0.13758   -0.11398   -0.11296
  -0.10574   -0.10547   -0.10267   -0.08553    0.00460    0.01267    0.01866    0.06235
   0.07833    0.08667
 prteigrs : prtvol=0 or 1, do not print more k-points.

--- !EnergyTerms
iteration_state     : {dtset: 1, }
comment             : Components of total free energy in Hartree
kinetic             :  4.53419828150183E+01
hartree             :  4.52043800676152E+01
xc                  : -5.70611069534873E+01
Ewald energy        : -1.12516015146562E+02
psp_core            :  1.26387128444089E+01
local_psp           : -1.08126351738563E+02
spherical_terms     :  2.66852668588781E+00
total_energy        : -1.71849871425682E+02
total_energy_eV     : -4.67627281765588E+03
...

--- !EnergyTermsDC
iteration_state     : {dtset: 1, }
comment             : '"Double-counting" decomposition of free energy'
band_energy         : -3.20738018994332E+01
Ewald energy        : -1.12516015146562E+02
psp_core            :  1.26387128444089E+01
xc_dc               : -6.28561056227417E+01
spherical_terms     :  2.29573980914408E+01
total_energy_dc     : -1.71849811732887E+02
total_energy_dc_eV  : -4.67627119333233E+03
...

 Cartesian components of stress tensor (hartree/bohr^3)
  sigma(1 1)=  4.28241122E-06  sigma(3 2)= -3.67321161E-14
  sigma(2 2)=  4.15322599E-06  sigma(3 1)=  2.03947792E-13
  sigma(3 3)=  4.19094746E-06  sigma(2 1)= -1.74837354E-13

-Cartesian components of stress tensor (GPa)         [Pressure= -1.2383E-01 GPa]
- sigma(1 1)=  1.25992867E-01  sigma(3 2)= -1.08069598E-09
- sigma(2 2)=  1.22192107E-01  sigma(3 1)=  6.00035019E-09
- sigma(3 3)=  1.23301910E-01  sigma(2 1)= -5.14389169E-09

== END DATASET(S) ==============================================================

 -outvars: echo values of variables after computation  --------
            acell      1.5395086575E+01  1.5613385490E+01  1.5319697685E+01 Bohr
              amu      1.32905430E+02  1.26904470E+02  1.78490000E+02
                       3.54527000E+01
           diemac      1.20000000E+01
             ecut      1.60000000E+01 Hartree
           etotal     -1.7184981173E+02
            fcart      1.9382473332E-16 -1.9949867616E-16  1.1706874879E-05
                       1.9382596673E-16 -1.9949994568E-16  1.1706874879E-05
                       5.5027145369E-16 -3.6433988672E-05  1.2165379493E-05
                      -1.0176167186E-15  1.0473994359E-15 -6.1462949567E-05
                      -2.8898401939E-16  2.9744264578E-16 -1.7454208006E-05
                      -1.4743679890E-16  3.6433988672E-05  1.2165379493E-05
                      -1.4773690060E-05  5.4132620253E-16 -8.8852174799E-06
                       1.4773690060E-05 -2.3849384150E-16 -8.8852174792E-06
                       8.1033704735E-16 -8.3405419316E-16  4.8943083789E-05
-          fftalg         112
           istwfk        2    0    0    0    0    0    3    0    0    0
                         0    0    0    0    0    0    0    0    0    0
                         0    0    0    0    0    0    0    0    0    0
                         0    0    0    0    0    0    0    0    0    0
                         0    0    7    0    0    0    0    0    0    0
                       outvar_i_n : Printing only first  50 k-points.
              ixc     -101130
              kpt      0.00000000E+00  0.00000000E+00  0.00000000E+00
                       8.33333333E-02  0.00000000E+00  0.00000000E+00
                       1.66666667E-01  0.00000000E+00  0.00000000E+00
                       2.50000000E-01  0.00000000E+00  0.00000000E+00
                       3.33333333E-01  0.00000000E+00  0.00000000E+00
                       4.16666667E-01  0.00000000E+00  0.00000000E+00
                       5.00000000E-01  0.00000000E+00  0.00000000E+00
                       8.33333333E-02  8.33333333E-02  0.00000000E+00
                       1.66666667E-01  8.33333333E-02  0.00000000E+00
                       2.50000000E-01  8.33333333E-02  0.00000000E+00
                       3.33333333E-01  8.33333333E-02  0.00000000E+00
                       4.16666667E-01  8.33333333E-02  0.00000000E+00
                       5.00000000E-01  8.33333333E-02  0.00000000E+00
                      -4.16666667E-01  8.33333333E-02  0.00000000E+00
                      -3.33333333E-01  8.33333333E-02  0.00000000E+00
                      -2.50000000E-01  8.33333333E-02  0.00000000E+00
                      -1.66666667E-01  8.33333333E-02  0.00000000E+00
                      -8.33333333E-02  8.33333333E-02  0.00000000E+00
                       1.66666667E-01  1.66666667E-01  0.00000000E+00
                       2.50000000E-01  1.66666667E-01  0.00000000E+00
                       3.33333333E-01  1.66666667E-01  0.00000000E+00
                       4.16666667E-01  1.66666667E-01  0.00000000E+00
                       5.00000000E-01  1.66666667E-01  0.00000000E+00
                      -4.16666667E-01  1.66666667E-01  0.00000000E+00
                      -3.33333333E-01  1.66666667E-01  0.00000000E+00
                      -2.50000000E-01  1.66666667E-01  0.00000000E+00
                      -1.66666667E-01  1.66666667E-01  0.00000000E+00
                       2.50000000E-01  2.50000000E-01  0.00000000E+00
                       3.33333333E-01  2.50000000E-01  0.00000000E+00
                       4.16666667E-01  2.50000000E-01  0.00000000E+00
                       5.00000000E-01  2.50000000E-01  0.00000000E+00
                      -4.16666667E-01  2.50000000E-01  0.00000000E+00
                      -3.33333333E-01  2.50000000E-01  0.00000000E+00
                      -2.50000000E-01  2.50000000E-01  0.00000000E+00
                       3.33333333E-01  3.33333333E-01  0.00000000E+00
                       4.16666667E-01  3.33333333E-01  0.00000000E+00
                       5.00000000E-01  3.33333333E-01  0.00000000E+00
                      -4.16666667E-01  3.33333333E-01  0.00000000E+00
                      -3.33333333E-01  3.33333333E-01  0.00000000E+00
                       4.16666667E-01  4.16666667E-01  0.00000000E+00
                       5.00000000E-01  4.16666667E-01  0.00000000E+00
                      -4.16666667E-01  4.16666667E-01  0.00000000E+00
                       5.00000000E-01  5.00000000E-01  0.00000000E+00
                       8.33333333E-02  0.00000000E+00  8.33333333E-02
                       1.66666667E-01  0.00000000E+00  8.33333333E-02
                       2.50000000E-01  0.00000000E+00  8.33333333E-02
                       3.33333333E-01  0.00000000E+00  8.33333333E-02
                       4.16666667E-01  0.00000000E+00  8.33333333E-02
                       5.00000000E-01  0.00000000E+00  8.33333333E-02
                      -4.16666667E-01  0.00000000E+00  8.33333333E-02
                       outvar_i_n : Printing only first  50 k-points.
         kptrlatt       12    0    0      0   12    0      0    0   12
          kptrlen      1.83836372E+02
P           mkmem          47
            natom           9
            nband          42
            ngfft          60      60      60
          ngfftdg          90      90      90
             nkpt         280
            nstep        2500
             nsym           4
           ntypat           4
              occ      2.000000  2.000000  2.000000  2.000000  2.000000  2.000000
                       2.000000  2.000000  2.000000  2.000000  2.000000  2.000000
                       2.000000  2.000000  2.000000  2.000000  2.000000  2.000000
                       2.000000  2.000000  2.000000  2.000000  2.000000  2.000000
                       2.000000  2.000000  2.000000  2.000000  2.000000  2.000000
                       2.000000  2.000000  2.000000  2.000000  2.000000  2.000000
                       0.000000  0.000000  0.000000  0.000000  0.000000  0.000000
        pawecutdg      4.00000000E+01 Hartree
            prtwf           0
            rprim      0.0000000000E+00  6.9342247853E-01  7.2053123892E-01
                       7.0374049795E-01  0.0000000000E+00  7.1045711450E-01
                       7.1723162597E-01  6.9683484033E-01  0.0000000000E+00
          spgroup          42
           strten      4.2824112198E-06  4.1532259859E-06  4.1909474563E-06
                      -3.6732116082E-14  2.0394779197E-13 -1.7483735417E-13
           symrel      1  0  0   0  1  0   0  0  1       0  1 -1   1  0 -1   0  0 -1
                       1  0  0   1  0 -1   1 -1  0       0  1 -1   0  1  0  -1  1  0
           toldfe      1.00000000E-08 Hartree
            typat      1  1  4  4  2  4  2  2  3
           useylm           1
              wtk        0.00058    0.00463    0.00463    0.00463    0.00463    0.00463
                         0.00231    0.00116    0.00463    0.00463    0.00463    0.00463
                         0.00463    0.00463    0.00463    0.00463    0.00463    0.00231
                         0.00116    0.00463    0.00463    0.00463    0.00463    0.00463
                         0.00463    0.00463    0.00231    0.00116    0.00463    0.00463
                         0.00463    0.00463    0.00463    0.00231    0.00116    0.00463
                         0.00463    0.00463    0.00231    0.00116    0.00463    0.00231
                         0.00058    0.00116    0.00463    0.00463    0.00463    0.00463
                         0.00463    0.00463
                       outvars : Printing only first  50 k-points.
           xangst      2.9072391730E+00  2.8245624867E+00  2.9453373014E+00
                       8.7217175191E+00  8.4736874601E+00  8.8153099974E+00
                       5.8144783462E+00  8.8599452918E+00  5.9281637105E+00
                       5.8144783462E+00  5.6491249734E+00  2.5363412507E+00
                       5.8144783460E+00  5.6491249733E+00  8.9284165797E+00
                       5.8144783460E+00  2.4383046549E+00  5.9281637104E+00
                       8.7380382446E+00  5.6491249734E+00  5.8886990102E+00
                       2.8909184475E+00  5.6491249733E+00  5.8886990103E+00
                      -2.5564462499E-12 -9.5461227061E-13  1.0065099739E-01
            xcart      5.4938858398E+00  5.3376495451E+00  5.5658808686E+00
                       1.6481657520E+01  1.6012948635E+01  1.6658521672E+01
                       1.0987771680E+01  1.6742870154E+01  1.1202605884E+01
                       1.0987771680E+01  1.0675299090E+01  4.7929903434E+00
                       1.0987771680E+01  1.0675299090E+01  1.6872262136E+01
                       1.0987771680E+01  4.6077280264E+00  1.1202605884E+01
                       1.6512499221E+01  1.0675299090E+01  1.1128028408E+01
                       5.4630441384E+00  1.0675299090E+01  1.1128028409E+01
                      -4.8309832857E-12 -1.8039557545E-12  1.9020282007E-01
             xred      2.5088168667E-01  2.5088168667E-01  2.4911831333E-01
                       7.5088168667E-01  7.5088168667E-01  7.4911831333E-01
                       7.8914407191E-01  2.2076926456E-01  7.7923073544E-01
                       2.1604370089E-01  2.1604370089E-01  7.8395629911E-01
                       7.6051602299E-01  7.6051602299E-01  2.3948397701E-01
                       2.2076926456E-01  7.8914407191E-01  2.1085592809E-01
                       2.5019163812E-01  7.5299854951E-01  7.4980836188E-01
                       7.5299854951E-01  2.5019163812E-01  2.4700145049E-01
                       8.5733786682E-03  8.5733786682E-03 -8.5733786682E-03
            znucl       55.00000   53.00000   72.00000   17.00000

- Timing analysis has been suppressed with timopt=0

 Suggested references for the acknowledgment of ABINIT usage.

 Calculation completed.
.Delivered   0 WARNINGs and   0 COMMENTs to log file.