.Version 9.2.2 of ABINIT

 ABINIT is a project of the Universite Catholique de Louvain,
 Corning Inc. and other collaborators, see ~abinit/doc/developers/contributors.txt .
 acknowledgments of the ABINIT effort.

.Starting date : Tue 13 Dec 2022.
- ( at 23h58 )

- The starting date is more than 2 years after the initial release
- of this version of ABINIT, namely Nov 2020.
- Note that the use beyond 3 years after the release will not be supported.
- Action: please, switch to a more recent version of ABINIT.

- input  file    -> Cs2TiI6.in
- output file    -> Cs2TiI6.out
- root for input  files -> Cs2TiI6i
- root for output files -> Cs2TiI6o

- inpspheads : Reading pseudopotential header in XML form from
-   ../../../Psps_for_tests/ATOMICDATA/Cs.GGA_PBE-JTH.xml
- inpspheads : Reading pseudopotential header in XML form from
-   ../../../Psps_for_tests/ATOMICDATA/I.GGA_PBE-JTH.xml
- inpspheads : Reading pseudopotential header in XML form from
-   ../../../Psps_for_tests/ATOMICDATA/Zr.GGA_PBE-JTH.xml
- inpspheads : Reading pseudopotential header in XML form from
-   ../../../Psps_for_tests/ATOMICDATA/Cl.GGA_PBE-JTH.xml

 DATASET    1 : space group Im m 2 (# 44); Bravais oI (body-center ortho.)
     intxc =       0    ionmov =       2      iscf =      17    lmnmax =      18
     lnmax =       6     mgfft =      64  mpssoang =       3    mqgrid =    3967
     natom =       9  nloc_mem =       2    nspden =       1   nspinor =       1
    nsppol =       1      nsym =       4    n1xccc =       1    ntypat =       4
    occopt =       1   xclevel =       2
-    mband =          42        mffmem =           1         mkmem =          10
       mpw =       10579          nfft =      262144          nkpt =          40
Pmy_natom=         3
 PAW method is used; the additional fine FFT grid is defined by:
   mgfftf=       100    nfftf =   1000000
  Rough estimation (10% accuracy) of disk space for files :

[...]

 DATASET   10 : space group Im m 2 (# 44); Bravais oI (body-center ortho.)
     intxc =       0    ionmov =       2      iscf =      17    lmnmax =      18
     lnmax =       6     mgfft =      64  mpssoang =       3    mqgrid =    3931
     natom =       9  nloc_mem =       2    nspden =       1   nspinor =       1
    nsppol =       1      nsym =       4    n1xccc =       1    ntypat =       4
    occopt =       1   xclevel =       2
-    mband =          42        mffmem =           1         mkmem =          10
       mpw =       10292          nfft =      262144          nkpt =          40
Pmy_natom=         3
 PAW method is used; the additional fine FFT grid is defined by:
   mgfftf=        96    nfftf =    884736
  Rough estimation (10% accuracy) of disk space for files :

------------- Echo of variables that govern the present computation ------------
-
- outvars: echo of selected default values
-   iomode0 =  0 , fftalg0 =112 , wfoptalg0 = 10
-
- outvars: echo of global parameters not present in the input file
-  max_nthreads =    0
-
 -outvars: echo values of preprocessed input variables --------
            acell1     1.4600919190E+01  1.4766622705E+01  1.4766622705E+01 Bohr
            acell2     1.4586303656E+01  1.4751841301E+01  1.4751841301E+01 Bohr
            acell3     1.4571688121E+01  1.4737059897E+01  1.4737059897E+01 Bohr
            acell4     1.4557072586E+01  1.4722278493E+01  1.4722278493E+01 Bohr
            acell5     1.4542457051E+01  1.4707497088E+01  1.4707497088E+01 Bohr
            acell6     1.4527841517E+01  1.4692715684E+01  1.4692715684E+01 Bohr
            acell7     1.4513225982E+01  1.4677934280E+01  1.4677934280E+01 Bohr
            acell8     1.4498610447E+01  1.4663152876E+01  1.4663152876E+01 Bohr
            acell9     1.4483994912E+01  1.4648371472E+01  1.4648371472E+01 Bohr
            acell10    1.4469379378E+01  1.4633590068E+01  1.4633590068E+01 Bohr
              amu      1.32905430E+02  1.26904470E+02  9.12240000E+01
                       3.54527000E+01
           diemac      1.20000000E+01
          dilatmx      1.15000000E+00
             ecut      1.60000000E+01 Hartree
           ecutsm      5.00000000E-01 Hartree
-          fftalg         112
           ionmov           2
              ixc     -101130
           jdtset        1    2    3    4    5    6    7    8    9   10
              kpt     -1.25000000E-01 -2.50000000E-01  0.00000000E+00
                      -2.50000000E-01 -1.25000000E-01  0.00000000E+00
                      -1.25000000E-01  5.00000000E-01  0.00000000E+00
                      -2.50000000E-01 -3.75000000E-01  0.00000000E+00
                      -1.25000000E-01 -3.75000000E-01  1.25000000E-01
                      -3.75000000E-01 -2.50000000E-01  0.00000000E+00
                       5.00000000E-01 -1.25000000E-01  0.00000000E+00
                      -3.75000000E-01 -1.25000000E-01  1.25000000E-01
                      -2.50000000E-01 -1.25000000E-01  2.50000000E-01
                      -1.25000000E-01  2.50000000E-01  0.00000000E+00
                      -2.50000000E-01  3.75000000E-01  0.00000000E+00
                      -1.25000000E-01  3.75000000E-01  1.25000000E-01
                      -3.75000000E-01  5.00000000E-01  0.00000000E+00
                      -2.50000000E-01  5.00000000E-01  1.25000000E-01
                      -1.25000000E-01  5.00000000E-01  2.50000000E-01
                       5.00000000E-01 -3.75000000E-01  0.00000000E+00
                       3.75000000E-01 -2.50000000E-01  0.00000000E+00
                       5.00000000E-01 -2.50000000E-01  1.25000000E-01
                      -3.75000000E-01 -2.50000000E-01  2.50000000E-01
                       2.50000000E-01 -1.25000000E-01  0.00000000E+00
                      -1.25000000E-01  0.00000000E+00  0.00000000E+00
                      -1.25000000E-01  1.25000000E-01  1.25000000E-01
                      -2.50000000E-01  2.50000000E-01  1.25000000E-01
                      -1.25000000E-01  2.50000000E-01  2.50000000E-01
                      -3.75000000E-01  3.75000000E-01  1.25000000E-01
                      -2.50000000E-01  3.75000000E-01  2.50000000E-01
                      -1.25000000E-01  3.75000000E-01  3.75000000E-01
                       0.00000000E+00 -1.25000000E-01  0.00000000E+00
                      -3.75000000E-01  0.00000000E+00  0.00000000E+00
                      -3.75000000E-01  1.25000000E-01  1.25000000E-01
                       5.00000000E-01  2.50000000E-01  1.25000000E-01
                      -3.75000000E-01  2.50000000E-01  2.50000000E-01
                       0.00000000E+00 -3.75000000E-01  0.00000000E+00
                       0.00000000E+00 -2.50000000E-01  1.25000000E-01
                      -3.75000000E-01 -2.50000000E-01 -2.50000000E-01
                       0.00000000E+00  5.00000000E-01  1.25000000E-01
                       0.00000000E+00 -3.75000000E-01  2.50000000E-01
                       0.00000000E+00  2.50000000E-01  1.25000000E-01
                       0.00000000E+00  3.75000000E-01  2.50000000E-01
                       0.00000000E+00  5.00000000E-01  3.75000000E-01
         kptrlatt        4   -4    4     -4    4    4     -4   -4    4
          kptrlen1     8.33054218E+01
          kptrlen2     8.32220330E+01
          kptrlen3     8.31386442E+01
          kptrlen4     8.30552554E+01
          kptrlen5     8.29718666E+01
          kptrlen6     8.28884778E+01
          kptrlen7     8.28050890E+01
          kptrlen8     8.27217001E+01
          kptrlen9     8.26383113E+01
          kptrlen10    8.25549225E+01
P           mkmem          10
            natom           9
            nband          42
           ndtset          10
            ngfft          64      64      64
          ngfftdg1        100     100     100
          ngfftdg2        100     100     100
          ngfftdg3        100     100     100
          ngfftdg4        100     100     100
          ngfftdg5        100     100     100
          ngfftdg6        100     100     100
          ngfftdg7        100     100     100
          ngfftdg8        100     100     100
          ngfftdg9         96      96      96
          ngfftdg10        96      96      96
             nkpt          40
            nstep        2500
             nsym           4
            ntime        1000
           ntypat           4
              occ      2.000000  2.000000  2.000000  2.000000  2.000000  2.000000
                       2.000000  2.000000  2.000000  2.000000  2.000000  2.000000
                       2.000000  2.000000  2.000000  2.000000  2.000000  2.000000
                       2.000000  2.000000  2.000000  2.000000  2.000000  2.000000
                       2.000000  2.000000  2.000000  2.000000  2.000000  2.000000
                       2.000000  2.000000  2.000000  2.000000  2.000000  2.000000
                       0.000000  0.000000  0.000000  0.000000  0.000000  0.000000
          optcell           3
        optforces           1
        pawecutdg      4.00000000E+01 Hartree
            prtwf           0
            rprim      0.0000000000E+00  7.0710678119E-01  7.0710678119E-01
                       7.0902490968E-01 -5.9860390163E-03  7.0515802824E-01
                       7.0902490968E-01  7.0515802824E-01 -5.9860390163E-03
           shiftk      5.00000000E-01  5.00000000E-01  5.00000000E-01
          spgroup          44
           symrel      1  0  0   0  1  0   0  0  1       1  0  0   1  0 -1   1 -1  0
                       1  0  0   0  0  1   0  1  0       1  0  0   1 -1  0   1  0 -1
           toldff      1.00000000E-08
           tolmxf      1.00000000E-05
            typat      1  1  2  4  2  4  2  2  3
           useylm           1
              wtk        0.03125    0.03125    0.03125    0.03125    0.03125    0.03125
                         0.03125    0.03125    0.03125    0.03125    0.03125    0.03125
                         0.03125    0.03125    0.03125    0.03125    0.03125    0.03125
                         0.03125    0.03125    0.01563    0.01563    0.03125    0.01563
                         0.03125    0.03125    0.01563    0.01563    0.01563    0.01563
                         0.03125    0.01563    0.01563    0.01563    0.01563    0.01563
                         0.01563    0.01563    0.01563    0.01563
           xangst1     2.7822873908E+00  2.7154821118E+00  2.7154821118E+00
                       8.2985810455E+00  8.1789240313E+00  8.1789240313E+00
                       5.5404342182E+00  5.4796866030E+00  2.7107438776E+00
                       5.5404342182E+00  5.3687861032E+00  8.4223826393E+00
                       8.2301993203E+00  5.4700656929E+00  5.4700656929E+00
                       5.5404342182E+00  8.4223826393E+00  5.3687861032E+00
                       5.5404342182E+00  2.7107438776E+00  5.4796866030E+00
                       2.8506691160E+00  5.4700656930E+00  5.4700656930E+00
                       7.9236094952E-36 -1.0860139558E-01 -1.0860139558E-01
           xangst2     2.7795023184E+00  2.7127639115E+00  2.7127639115E+00
                       8.2902741576E+00  8.1707369202E+00  8.1707369202E+00
                       5.5348882380E+00  5.4742014312E+00  2.7080304202E+00
[...]
                       4.1435321792E-35 -1.1128299752E-01 -1.1128299752E-01
           xangst7     2.7678569310E+00  2.7011893257E+00  2.7011893257E+00
                       8.2472362708E+00  8.1336221285E+00  8.1336221285E+00
                       5.5075466009E+00  5.4496127721E+00  2.7061178255E+00
                       5.5075466009E+00  5.3427430762E+00  8.3533625224E+00
                       8.1687400432E+00  5.4422528623E+00  5.4422528623E+00
                       5.5075466009E+00  8.3533625224E+00  5.3427430762E+00
                       5.5075466009E+00  2.7061178255E+00  5.4496127721E+00
                       2.8463531586E+00  5.4422528624E+00  5.4422528624E+00
                      -1.4480271091E-34 -1.1169095309E-01 -1.1169095309E-01
           xangst8     2.7657964414E+00  2.6986389022E+00  2.6986389022E+00
                       8.2385502019E+00  8.1256024052E+00  8.1256024052E+00
                       5.5021733216E+00  5.4448160309E+00  2.7048862665E+00
                       5.5021733216E+00  5.3376563652E+00  8.3420555618E+00
                       8.1590883479E+00  5.4370708674E+00  5.4370708674E+00
                       5.5021733216E+00  8.3420555618E+00  5.3376563652E+00
                       5.5021733216E+00  2.7048862665E+00  5.4448160309E+00
                       2.8452582954E+00  5.4370708675E+00  5.4370708675E+00
                      -8.1968943727E-36 -1.1208924292E-01 -1.1208924292E-01
           xangst9     2.7632254441E+00  2.6960616123E+00  2.6960616123E+00
                       8.2282679209E+00  8.1171654558E+00  8.1171654558E+00
                       5.4957466825E+00  5.4395217316E+00  2.7030368444E+00
                       5.4957466825E+00  5.3293673395E+00  8.3312744795E+00
                       8.1474212299E+00  5.4322959507E+00  5.4322959507E+00
                       5.4957466825E+00  8.3312744795E+00  5.3293673395E+00
                       5.4957466825E+00  2.7030368444E+00  5.4395217316E+00
                       2.8440721350E+00  5.4322959508E+00  5.4322959508E+00
                       3.3934284940E-16 -1.1218861634E-01 -1.1218861634E-01
           xangst10    2.7601608308E+00  2.6937564668E+00  2.6937564668E+00
                       8.2205691513E+00  8.1095234194E+00  8.1095234194E+00
                       5.4903649911E+00  5.4341790380E+00  2.7018335720E+00
                       5.4903649911E+00  5.3244506522E+00  8.3199724813E+00
                       8.1377624269E+00  5.4275489146E+00  5.4275489146E+00
                       5.4903649911E+00  8.3199724813E+00  5.3244506522E+00
                       5.4903649911E+00  2.7018335720E+00  5.4341790380E+00
                       2.8429675553E+00  5.4275489147E+00  5.4275489147E+00
                       1.4376764303E-16 -1.1267783804E-01 -1.1267783804E-01
            xcart1     5.2589846287E+00  5.1316923323E+00  5.1316923323E+00
                       1.5680512810E+01  1.5456423249E+01  1.5456423249E+01
                       1.0469748719E+01  1.0356024878E+01  5.1256817798E+00
                       1.0469748719E+01  1.0146729599E+01  1.5911027772E+01
                       1.5549049795E+01  1.0338182633E+01  1.0338182633E+01
                       1.0469748719E+01  1.5911027772E+01  1.0146729599E+01
                       1.0469748719E+01  5.1256817798E+00  1.0356024878E+01
                       5.3904476440E+00  1.0338182633E+01  1.0338182633E+01
                       9.7491719528E-16 -2.0609754307E-01 -2.0609754307E-01
            xcart2     5.2536541601E+00  5.1270106143E+00  5.1270106143E+00
                       1.5665419597E+01  1.5441713980E+01  1.5441713980E+01
                       1.0459536878E+01  1.0346221920E+01  5.1237113746E+00
                       1.0459536878E+01  1.0137786873E+01  1.5889876379E+01
                       1.5530524747E+01  1.0329070800E+01  1.0329070800E+01
                       1.0459536878E+01  1.5889876379E+01  1.0137786873E+01
                       1.0459536878E+01  5.1237113746E+00  1.0346221920E+01
                       5.3885490098E+00  1.0329070800E+01  1.0329070800E+01
                      -5.1243963073E-16 -2.0683581605E-01 -2.0683581605E-01
            xcart3     5.2544594592E+00  5.1213433317E+00  5.1213433317E+00
                       1.5647644388E+01  1.5424634743E+01  1.5424634743E+01
                       1.0451051924E+01  1.0337373507E+01  5.1209775661E+00
                       1.0451051924E+01  1.0127803219E+01  1.5866620120E+01
                       1.5515196062E+01  1.0317603400E+01  1.0317603400E+01
                       1.0451051924E+01  1.5866620120E+01  1.0127803219E+01
                       1.0451051924E+01  5.1209775661E+00  1.0337373507E+01
                       5.3869077854E+00  1.0317603400E+01  1.0317603400E+01
                       5.6184034529E-17 -2.0762799829E-01 -2.0762799829E-01
            xcart4     5.2495147096E+00  5.1169238204E+00  5.1169238204E+00
                       1.5631676347E+01  1.5410617633E+01  1.5410617633E+01
                       1.0440595528E+01  1.0327878109E+01  5.1191247038E+00
                       1.0440595528E+01  1.0119988063E+01  1.5845932446E+01
                       1.5496240511E+01  1.0308808794E+01  1.0308808794E+01
                       1.0440595528E+01  1.5845932446E+01  1.0119988063E+01
                       1.0440595528E+01  5.1191247038E+00  1.0327878109E+01
                       5.3849505458E+00  1.0308808794E+01  1.0308808794E+01
                       1.4138049174E-16 -2.0853186396E-01 -2.0853186396E-01
            xcart5     5.2442866443E+00  5.1125703463E+00  5.1125703463E+00
                       1.5615355043E+01  1.5396575625E+01  1.5396575625E+01
                       1.0429820844E+01  1.0318443407E+01  5.1171047328E+00
                       1.0429820844E+01  1.0111383232E+01  1.5825285228E+01
                       1.5476742661E+01  1.0300030415E+01  1.0300030415E+01
                       1.0429820844E+01  1.5825285228E+01  1.0111383232E+01
                       1.0429820844E+01  5.1171047328E+00  1.0318443407E+01
                       5.3828990269E+00  1.0300030415E+01  1.0300030415E+01
                       1.9480332228E-34 -2.0938117347E-01 -2.0938117347E-01
            xcart6     5.2383221651E+00  5.1083712871E+00  5.1083712871E+00
                       1.5600369852E+01  1.5382963151E+01  1.5382963151E+01
                       1.0419346009E+01  1.0308725353E+01  5.1154127275E+00
                       1.0419346009E+01  1.0103740944E+01  1.5804717457E+01
                       1.5457815387E+01  1.0291549189E+01  1.0291549189E+01
                       1.0419346009E+01  1.5804717457E+01  1.0103740944E+01
                       1.0419346009E+01  5.1154127275E+00  1.0308725353E+01
                       5.3808766300E+00  1.0291549189E+01  1.0291549189E+01
                       7.8301410415E-35 -2.1029438857E-01 -2.1029438857E-01
            xcart7     5.2304915747E+00  5.1045080587E+00  5.1045080587E+00
                       1.5585017905E+01  1.5370318291E+01  1.5370318291E+01
                       1.0407754740E+01  1.0298275670E+01  5.1138215735E+00
                       1.0407754740E+01  1.0096321212E+01  1.5785567456E+01
                       1.5436681532E+01  1.0284367456E+01  1.0284367456E+01
                       1.0407754740E+01  1.5785567456E+01  1.0096321212E+01
                       1.0407754740E+01  5.1138215735E+00  1.0298275670E+01
                       5.3788279473E+00  1.0284367456E+01  1.0284367456E+01
                      -2.7363746691E-34 -2.1106531287E-01 -2.1106531287E-01
            xcart8     5.2265978135E+00  5.0996884568E+00  5.0996884568E+00
                       1.5568603614E+01  1.5355163211E+01  1.5355163211E+01
                       1.0397600714E+01  1.0289211142E+01  5.1114942642E+00
                       1.0397600714E+01  1.0086708722E+01  1.5764200397E+01
                       1.5418442472E+01  1.0274574905E+01  1.0274574905E+01
                       1.0397600714E+01  1.5764200397E+01  1.0086708722E+01
                       1.0397600714E+01  5.1114942642E+00  1.0289211142E+01
                       5.3767589555E+00  1.0274574905E+01  1.0274574905E+01
                      -1.5489885505E-35 -2.1181797156E-01 -2.1181797156E-01
            xcart9     5.2217393328E+00  5.0948180846E+00  5.0948180846E+00
                       1.5549172918E+01  1.5339219687E+01  1.5339219687E+01
                       1.0385456126E+01  1.0279206367E+01  5.1079993630E+00
                       1.0385456126E+01  1.0071044733E+01  1.5743827104E+01
                       1.5396394814E+01  1.0265551620E+01  1.0265551620E+01
                       1.0385456126E+01  1.5743827104E+01  1.0071044733E+01
                       1.0385456126E+01  5.1079993630E+00  1.0279206367E+01
                       5.3745174374E+00  1.0265551620E+01  1.0265551620E+01
                       6.4126505053E-16 -2.1200576011E-01 -2.1200576011E-01
            xcart10    5.2159480530E+00  5.0904619909E+00  5.0904619909E+00
                       1.5534624352E+01  1.5324778331E+01  1.5324778331E+01
                       1.0375286203E+01  1.0269110139E+01  5.1057255078E+00
                       1.0375286203E+01  1.0061753541E+01  1.5722469423E+01
                       1.5378142321E+01  1.0256581021E+01  1.0256581021E+01
                       1.0375286203E+01  1.5722469423E+01  1.0061753541E+01
                       1.0375286203E+01  5.1057255078E+00  1.0269110139E+01
                       5.3724300841E+00  1.0256581022E+01  1.0256581022E+01
                       2.7168147210E-16 -2.1293025514E-01 -2.1293025514E-01
             xred1     2.4587773438E-01  2.5115142539E-01  2.5115142539E-01
                       7.4818058516E-01  7.4884857461E-01  7.4884857461E-01
                       2.4973898997E-01  2.5096032434E-01  7.4903967566E-01
                       7.6190975733E-01  7.7446362894E-01  2.2553637106E-01
                       2.5873252064E-01  7.4257034297E-01  7.4257034297E-01
                       7.6190975733E-01  2.2553637106E-01  7.7446362894E-01
                       2.4973898997E-01  7.4903967566E-01  2.5096032434E-01
                       7.4387320658E-01  2.5742965703E-01  2.5742965703E-01
                      -1.9961541345E-02  4.6083368183E-17  4.7034167053E-17
             xred2     2.4591664886E-01  2.5114181541E-01  2.5114181541E-01
                       7.4820027968E-01  7.4885818459E-01  7.4885818459E-01
                       2.4989714906E-01  2.5107029298E-01  7.4892970702E-01
                       7.6167773951E-01  7.7417196063E-01  2.2582803937E-01
                       2.5898313765E-01  7.4240977051E-01  7.4240977051E-01
                       7.6167773951E-01  2.2582803937E-01  7.7417196063E-01
                       2.4989714906E-01  7.4892970702E-01  2.5107029298E-01
                       7.4380267867E-01  2.5759022949E-01  2.5759022949E-01
                      -2.0052521989E-02 -2.4344161277E-17 -2.4648412360E-17
             xred3     2.4567472325E-01  2.5138423853E-01  2.5138423853E-01
                       7.4844320030E-01  7.4861576147E-01  7.4861576147E-01
                       2.5016567310E-01  2.5109083383E-01  7.4890916617E-01
                       7.6146210479E-01  7.7383736701E-01  2.2616263299E-01
                       2.5910991077E-01  7.4227915885E-01  7.4227915885E-01
                       7.6146210479E-01  2.2616263299E-01  7.7383736701E-01
                       2.5016567310E-01  7.4890916617E-01  2.5109083383E-01
                       7.4366822847E-01  2.5772084115E-01  2.5772084115E-01
                      -2.0151618546E-02  2.0239547346E-18  3.3519667458E-18
             xred4     2.4569386710E-01  2.5139919918E-01  2.5139919918E-01
                       7.4849226545E-01  7.4860080082E-01  7.4860080082E-01
                       2.5031388608E-01  2.5118753873E-01  7.4881246127E-01
                       7.6125378230E-01  7.7351771227E-01  2.2648228773E-01
                       2.5935359276E-01  7.4211478018E-01  7.4211478018E-01
                       7.6125378230E-01  2.2648228773E-01  7.7351771227E-01
                       2.5031388608E-01  7.4881246127E-01  2.5118753873E-01
                       7.4358315312E-01  2.5788521982E-01  2.5788521982E-01
                      -2.0258215152E-02  6.4498035202E-18  7.0916167326E-18
             xred5     2.4572977126E-01  2.5140828030E-01  2.5140828030E-01
                       7.4854633185E-01  7.4859171970E-01  7.4859171970E-01
                       2.5046383785E-01  2.5128335095E-01  7.4871664905E-01
                       7.6101979520E-01  7.7322630704E-01  2.2677369296E-01
                       2.5961154168E-01  7.4194671665E-01  7.4194671665E-01
                       7.6101979520E-01  2.2677369296E-01  7.7322630704E-01
                       2.5046383785E-01  7.4871664905E-01  2.5128335095E-01
                       7.4350497498E-01  2.5805328335E-01  2.5805328335E-01
                      -2.0359885842E-02 -9.2475040568E-20  9.2475040568E-20
             xred6     2.4581003151E-01  2.5137480609E-01  2.5137480609E-01
                       7.4855964369E-01  7.4862519391E-01  7.4862519391E-01
                       2.5059614463E-01  2.5139481538E-01  7.4860518462E-01
                       7.6080231433E-01  7.7290718289E-01  2.2709281711E-01
                       2.5986607435E-01  7.4178433917E-01  7.4178433917E-01
                       7.6080231433E-01  2.2709281711E-01  7.7290718289E-01
                       2.5059614463E-01  7.4860518462E-01  2.5139481538E-01
                       7.4343475270E-01  2.5821566083E-01  2.5821566083E-01
                      -2.0467420152E-02 -3.4944624977E-19  3.4944624977E-19
             xred7     2.4595524638E-01  2.5127857571E-01  2.5127857571E-01
                       7.4851239780E-01  7.4872142429E-01  7.4872142429E-01
                       2.5065177001E-01  2.5155778230E-01  7.4844221770E-01
                       7.6058674776E-01  7.7263216679E-01  2.2736783321E-01
                       2.6021249096E-01  7.4159518159E-01  7.4159518159E-01
                       7.6058674776E-01  2.2736783321E-01  7.7263216679E-01
                       2.5065177001E-01  7.4844221770E-01  2.5155778230E-01
                       7.4340285413E-01  2.5840481841E-01  2.5840481841E-01
                      -2.0560024789E-02  4.5935491064E-19 -4.5935491064E-19
             xred8     2.4592825625E-01  2.5133672457E-01  2.5133672457E-01
                       7.4860170540E-01  7.4866327543E-01  7.4866327543E-01
                       2.5085287500E-01  2.5162263457E-01  7.4837736543E-01
                       7.6034677766E-01  7.7235178320E-01  2.2764821680E-01
                       2.6042011071E-01  7.4144232387E-01  7.4144232387E-01
                       7.6034677766E-01  2.2764821680E-01  7.7235178320E-01
                       2.5085287500E-01  7.4837736543E-01  2.5162263457E-01
                       7.4330475846E-01  2.5855767613E-01  2.5855767613E-01
                      -2.0654136122E-02  2.2277371141E-19 -2.2277371141E-19
             xred9     2.4593032970E-01  2.5139672585E-01  2.5139672585E-01
                       7.4872378139E-01  7.4860327415E-01  7.4860327415E-01
                       2.5100558955E-01  2.5174216818E-01  7.4825783182E-01
                       7.5995020694E-01  7.7233731909E-01  2.2766268091E-01
                       2.6081665713E-01  7.4124788683E-01  7.4124788683E-01
                       7.5995020694E-01  2.2766268091E-01  7.7233731909E-01
                       2.5100558955E-01  7.4825783182E-01  2.5174216818E-01
                       7.4331243080E-01  2.5875211317E-01  2.5875211317E-01
                      -2.0694791979E-02  3.0610224489E-17  3.1136225813E-17
             xred10    2.4602744700E-01  2.5136405643E-01  2.5136405643E-01
                       7.4875555986E-01  7.4863594357E-01  7.4863594357E-01
                       2.5114131399E-01  2.5185379132E-01  7.4814620868E-01
                       7.5969444891E-01  7.7204736523E-01  2.2795263477E-01
                       2.6108064391E-01  7.4109484890E-01  7.4109484890E-01
                       7.5969444891E-01  2.2795263477E-01  7.7204736523E-01
                       2.5114131399E-01  7.4814620868E-01  2.5185379132E-01
                       7.4327034170E-01  2.5890515110E-01  2.5890515110E-01
                      -2.0805518225E-02  1.2951162443E-17  1.3234281196E-17
            znucl       55.00000   53.00000   40.00000   17.00000

- Timing analysis has been suppressed with timopt=0

 Suggested references for the acknowledgment of ABINIT usage.

 Calculation completed.
.Delivered   0 WARNINGs and 249 COMMENTs to log file.