.Version 9.2.2 of ABINIT

 ABINIT is a project of the Universite Catholique de Louvain,
 Corning Inc. and other collaborators, see ~abinit/doc/developers/contributors.txt .
 acknowledgments of the ABINIT effort.

.Starting date : Sat 15 Jul 2023.
- ( at 00h50 )

- The starting date is more than 2 years after the initial release
- of this version of ABINIT, namely Nov 2020.
- Note that the use beyond 3 years after the release will not be supported.
- Action: please, switch to a more recent version of ABINIT.

- input  file    -> Cs2TiI6.in
- output file    -> Cs2TiI6.out
- root for input  files -> Cs2TiI6i
- root for output files -> Cs2TiI6o

 Symmetries : space group Fm m 2 (# 42); Bravais oF (face-center ortho.)
     intxc =       0    ionmov =       0      iscf =      17    lmnmax =       8
     lnmax =       8     mgfft =      64  mpssoang =       4    mqgrid =    3001
     natom =       9  nloc_mem =       1    nspden =       1   nspinor =       1
    nsppol =       1      nsym =       4    n1xccc =    2501    ntypat =       4
    occopt =       1   xclevel =       2
-    mband =          42        mffmem =           1         mkmem =          70
       mpw =       11177          nfft =      262144          nkpt =         280
  Rough estimation (10% accuracy) of disk space for files :

------------- Echo of variables that govern the present computation ------------
-
- outvars: echo of selected default values
-   iomode0 =  0 , fftalg0 =112 , wfoptalg0 =  0
-
- outvars: echo of global parameters not present in the input file
-  max_nthreads =    0
-
 -outvars: echo values of preprocessed input variables --------
            acell      1.5411825978E+01  1.5322716430E+01  1.5622272150E+01 Bohr
              amu      1.32905430E+02  1.26904470E+02  9.12240000E+01
                       3.54527000E+01
           diemac      1.20000000E+01
             ecut      2.00000000E+01 Hartree
-          fftalg         112
             iscf          17
           istwfk        2    0    0    0    0    0    3    0    0    0
                         0    0    0    0    0    0    0    0    0    0
                         0    0    0    0    0    0    0    0    0    0
                         0    0    0    0    0    0    0    0    0    0
                         0    0    7    0    0    0    0    0    0    0
                       outvar_i_n : Printing only first  50 k-points.
              ixc          32
              kpt      0.00000000E+00  0.00000000E+00  0.00000000E+00
                       8.33333333E-02  0.00000000E+00  0.00000000E+00
                       1.66666667E-01  0.00000000E+00  0.00000000E+00
                       2.50000000E-01  0.00000000E+00  0.00000000E+00
                       3.33333333E-01  0.00000000E+00  0.00000000E+00
                       4.16666667E-01  0.00000000E+00  0.00000000E+00
                       5.00000000E-01  0.00000000E+00  0.00000000E+00
                       8.33333333E-02  8.33333333E-02  0.00000000E+00
                       1.66666667E-01  8.33333333E-02  0.00000000E+00
                       2.50000000E-01  8.33333333E-02  0.00000000E+00
                       3.33333333E-01  8.33333333E-02  0.00000000E+00
                       4.16666667E-01  8.33333333E-02  0.00000000E+00
                       5.00000000E-01  8.33333333E-02  0.00000000E+00
                      -4.16666667E-01  8.33333333E-02  0.00000000E+00
                      -3.33333333E-01  8.33333333E-02  0.00000000E+00
                      -2.50000000E-01  8.33333333E-02  0.00000000E+00
                      -1.66666667E-01  8.33333333E-02  0.00000000E+00
                      -8.33333333E-02  8.33333333E-02  0.00000000E+00
                       1.66666667E-01  1.66666667E-01  0.00000000E+00
                       2.50000000E-01  1.66666667E-01  0.00000000E+00
                       3.33333333E-01  1.66666667E-01  0.00000000E+00
                       4.16666667E-01  1.66666667E-01  0.00000000E+00
                       5.00000000E-01  1.66666667E-01  0.00000000E+00
                      -4.16666667E-01  1.66666667E-01  0.00000000E+00
                      -3.33333333E-01  1.66666667E-01  0.00000000E+00
                      -2.50000000E-01  1.66666667E-01  0.00000000E+00
                      -1.66666667E-01  1.66666667E-01  0.00000000E+00
                       2.50000000E-01  2.50000000E-01  0.00000000E+00
                       3.33333333E-01  2.50000000E-01  0.00000000E+00
                       4.16666667E-01  2.50000000E-01  0.00000000E+00
                       5.00000000E-01  2.50000000E-01  0.00000000E+00
                      -4.16666667E-01  2.50000000E-01  0.00000000E+00
                      -3.33333333E-01  2.50000000E-01  0.00000000E+00
                      -2.50000000E-01  2.50000000E-01  0.00000000E+00
                       3.33333333E-01  3.33333333E-01  0.00000000E+00
                       4.16666667E-01  3.33333333E-01  0.00000000E+00
                       5.00000000E-01  3.33333333E-01  0.00000000E+00
                      -4.16666667E-01  3.33333333E-01  0.00000000E+00
                      -3.33333333E-01  3.33333333E-01  0.00000000E+00
                       4.16666667E-01  4.16666667E-01  0.00000000E+00
                       5.00000000E-01  4.16666667E-01  0.00000000E+00
                      -4.16666667E-01  4.16666667E-01  0.00000000E+00
                       5.00000000E-01  5.00000000E-01  0.00000000E+00
                       8.33333333E-02  0.00000000E+00  8.33333333E-02
                       1.66666667E-01  0.00000000E+00  8.33333333E-02
                       2.50000000E-01  0.00000000E+00  8.33333333E-02
                       3.33333333E-01  0.00000000E+00  8.33333333E-02
                       4.16666667E-01  0.00000000E+00  8.33333333E-02
                       5.00000000E-01  0.00000000E+00  8.33333333E-02
                      -4.16666667E-01  0.00000000E+00  8.33333333E-02
                       outvar_i_n : Printing only first  50 k-points.
         kptrlatt       12    0    0      0   12    0      0    0   12
          kptrlen      1.83872597E+02
P           mkmem          70
            natom           9
            nband          42
            ngfft          64      64      64
             nkpt         280
            nstep        2500
             nsym           4
           ntypat           4
              occ      2.000000  2.000000  2.000000  2.000000  2.000000  2.000000
                       2.000000  2.000000  2.000000  2.000000  2.000000  2.000000
                       2.000000  2.000000  2.000000  2.000000  2.000000  2.000000
                       2.000000  2.000000  2.000000  2.000000  2.000000  2.000000
                       2.000000  2.000000  2.000000  2.000000  2.000000  2.000000
                       2.000000  2.000000  2.000000  2.000000  2.000000  2.000000
                       0.000000  0.000000  0.000000  0.000000  0.000000  0.000000
            rprim      0.0000000000E+00  7.2077268023E-01  6.9317151083E-01
                       7.1687408017E-01  0.0000000000E+00  6.9720266292E-01
                       7.0312808156E-01  7.1106321865E-01  0.0000000000E+00
          spgroup          42
           symrel      1  0  0   0  1  0   0  0  1       1  0  0   1  0 -1   1 -1  0
                       0 -1  1   0 -1  0   1 -1  0       0 -1  1  -1  0  1   0  0  1
           toldfe      1.00000000E-08 Hartree
            typat      1  1  4  4  2  4  2  2  3
              wtk        0.00058    0.00463    0.00463    0.00463    0.00463    0.00463
                         0.00231    0.00116    0.00463    0.00463    0.00463    0.00463
                         0.00463    0.00463    0.00463    0.00463    0.00463    0.00231
                         0.00116    0.00463    0.00463    0.00463    0.00463    0.00463
                         0.00463    0.00463    0.00231    0.00116    0.00463    0.00463
                         0.00463    0.00463    0.00463    0.00231    0.00116    0.00463
                         0.00463    0.00463    0.00231    0.00116    0.00463    0.00231
                         0.00058    0.00116    0.00463    0.00463    0.00463    0.00463
                         0.00463    0.00463
                       outvars : Printing only first  50 k-points.
           xangst      2.9063624764E+00  2.9310761484E+00  2.8266102987E+00
                       8.7190874291E+00  8.8094004856E+00  8.4798308962E+00
                       5.8127249527E+00  5.8165939912E+00  2.4577262973E+00
                       5.8127249527E+00  5.8165939911E+00  8.8487148976E+00
                       8.7168183252E+00  5.8669594480E+00  5.6532205975E+00
                       5.8127249527E+00  9.1955159765E+00  5.6532205974E+00
                       5.8127249527E+00  2.8269319220E+00  5.6532205975E+00
                       2.9086315802E+00  5.8669594479E+00  5.6532205974E+00
                       1.1303612315E-13 -1.0343671329E-01  1.6049961050E-12
            xcart      5.4922291232E+00  5.5389311952E+00  5.3415193490E+00
                       1.6476687370E+01  1.6647354313E+01  1.6024558047E+01
                       1.0984458246E+01  1.0991769670E+01  4.6444296115E+00
                       1.0984458246E+01  1.0991769669E+01  1.6721647784E+01
                       1.6472399385E+01  1.1086946589E+01  1.0683038698E+01
                       1.0984458246E+01  1.7377006846E+01  1.0683038698E+01
                       1.0984458246E+01  5.3421271290E+00  1.0683038698E+01
                       5.4965171081E+00  1.1086946589E+01  1.0683038698E+01
                       2.1360731588E-13 -1.9546706021E-01  3.0330030827E-12
             xred      2.4931221725E-01  2.5068778275E-01  2.4931221725E-01
                       7.4931221725E-01  7.5068778275E-01  7.4931221725E-01
                       2.1212332009E-01  2.2262467089E-01  7.7737532911E-01
                       7.7737532911E-01  7.8787667991E-01  2.1212332009E-01
                       2.4922850655E-01  7.5077149345E-01  7.4883813820E-01
                       7.8215452645E-01  2.1784547355E-01  7.8215452645E-01
                       2.4045389127E-01  7.5954610873E-01  2.4045389127E-01
                       7.4883813820E-01  2.5116186180E-01  2.4922850655E-01
                      -8.7981461518E-03  8.7981461518E-03 -8.7981461518E-03
            znucl       55.00000   53.00000   40.00000   17.00000

 chkinp: Checking input parameters for consistency.

== DATASET  1 ==================================================================
-   mpi_nproc: 4, omp_nthreads: -1 (-1 if OMP is not activated)

--- !DatasetInfo
iteration_state: {dtset: 1, }
dimensions: {natom: 9, nkpt: 280, mband: 42, nsppol: 1, nspinor: 1, nspden: 1, mpw: 11177, }
cutoff_energies: {ecut:  20.0, pawecutdg:  -1.0, }
electrons: {nelect:   7.20000000E+01, charge:   0.00000000E+00, occopt:   1.00000000E+00, tsmear:   1.00000000E-02, }
meta: {optdriver: 0, ionmov: 0, optcell: 0, iscf: 17, paral_kgb: 0, }
...

 Exchange-correlation functional for the present dataset will be:
  Meta-GGA fake2 - ixc=32

 Real(R)+Recip(G) space primitive vectors, cartesian coordinates (Bohr,Bohr^-1):
[...]
- [  8.68471772E-14,  -3.99209682E-04,  -5.29848456E-03, ]
- [ -7.94384674E-14,  -3.99209682E-04,   5.29848456E-03, ]
- [  3.30585704E-03,  -4.61441563E-04,  -8.15963116E-15, ]
- [ -5.25804226E-14,   5.66649248E-03,   5.40643216E-14, ]
- [  2.52227691E-14,  -2.71820585E-03,  -2.59341751E-14, ]
- [ -3.30585704E-03,  -4.61441563E-04,  -6.45986588E-16, ]
- [  1.64154879E-14,  -1.76905996E-03,  -1.68784429E-14, ]
force_length_stats: {min:   2.71037905E-04, max:   5.66649248E-03, mean:   3.11096128E-03, }
...

 Integrated electronic density in atomic spheres:
 Atom  Sphere_radius  Integrated_density
    1        2.00000          4.43889755
    2        2.00000          4.43889755
    3        2.00000          5.03030920
    4        2.00000          5.03030920
    5        2.00000          2.84583002
    6        2.00000          5.02955537
    7        2.00000          2.85847042
    8        2.00000          2.84583002
    9        2.00000          8.23166001

 ----iterations are completed or convergence reached----

 Mean square residual over all n,k,spin=   14.424E-07; max=  61.549E-05
 reduced coordinates (array xred) for    9 atoms
       0.249312217250      0.250687782750      0.249312217250
       0.749312217250      0.750687782750      0.749312217250
       0.212123320090      0.222624670890      0.777375329110
       0.777375329110      0.787876679910      0.212123320090
       0.249228506550      0.750771493450      0.748838138200
       0.782154526450      0.217845473550      0.782154526450
       0.240453891270      0.759546108730      0.240453891270
       0.748838138200      0.251161861800      0.249228506550
      -0.008798146152      0.008798146152     -0.008798146152
 rms dE/dt=  3.2677E-02; max dE/dt=  6.1039E-02; dE/dt below (all hartree)
    1      -0.003010766711      0.000000000000     -0.003010766711
    2      -0.003010766711      0.000000000000     -0.003010766711
    3       0.061038542690      0.056603915611      0.004434627079
    4      -0.052169288532     -0.056603915611      0.004434627079
    5       0.005125925143     -0.036313048575     -0.031187123433
    6      -0.062945759095      0.000000000000     -0.062945759095
    7       0.030195017680      0.000000000000      0.030195017680
    8       0.005125925143      0.036313048575      0.041438973718
    9       0.019651503551      0.000000000000      0.019651503551

 cartesian coordinates (angstrom) at end:
    1      2.90636247636488     2.93107614842251     2.82661029873121
    2      8.71908742909462     8.80940048557955     8.47983089619339
    3      5.81272495272618     5.81659399120686     2.45772629731440
    4      5.81272495273344     5.81659399114588     8.84871489761188
    5      8.71681832524582     5.86695944796554     5.65322059750793
    6      5.81272495272612     9.19551597649714     5.65322059741071
    7      5.81272495273308     2.82693192203311     5.65322059750953
    8      2.90863158021368     5.86695944791164     5.65322059741678
    9      0.00000000000011    -0.10343671329198     0.00000000000160

 cartesian forces (hartree/bohr) at end:
    1     -0.00000000000000     0.00027103790487     0.00000000000000
    2     -0.00000000000000     0.00027103790487     0.00000000000000
    3      0.00000000000009    -0.00039920968217    -0.00529848456147
    4     -0.00000000000008    -0.00039920968201     0.00529848456147
    5      0.00330585703552    -0.00046144156294    -0.00000000000001
    6     -0.00000000000005     0.00566649248475     0.00000000000005
    7      0.00000000000003    -0.00271820584645    -0.00000000000003
    8     -0.00330585703551    -0.00046144156294    -0.00000000000000
    9      0.00000000000002    -0.00176905995799    -0.00000000000002
 frms,max,avg= 2.1215310E-03 5.6664925E-03   0.000E+00 -3.332E-09  0.000E+00 h/b

 cartesian forces (eV/Angstrom) at end:
    1     -0.00000000000013     0.01393732827186     0.00000000000013
    2     -0.00000000000013     0.01393732827186     0.00000000000013
    3      0.00000000000447    -0.02052818550370    -0.27245900794310
    4     -0.00000000000408    -0.02052818549524     0.27245900794271
    5      0.16999398938486    -0.02372827720880    -0.00000000000042
    6     -0.00000000000270     0.29138273462929     0.00000000000278
    7      0.00000000000130    -0.13977575280552    -0.00000000000133
    8     -0.16999398938442    -0.02372827720917    -0.00000000000003
    9      0.00000000000084    -0.09096871295058    -0.00000000000087
 frms,max,avg= 1.0909350E-01 2.9138273E-01   0.000E+00 -1.714E-07  0.000E+00 e/A
 length scales= 15.411825978000 15.322716430000 15.622272150000 bohr
              =  8.155587050313  8.108432308444  8.266950368170 angstroms
 prteigrs : about to open file Cs2TiI6o_EIG
 Fermi (or HOMO) energy (hartree) =   0.02613   Average Vxc (hartree)=  -0.29192
 Eigenvalues (hartree) for nkpt= 280  k points:
 kpt#   1, nband= 42, wtk=  0.00058, kpt=  0.0000  0.0000  0.0000 (reduced coord)
  -1.79123   -0.97981   -0.97892   -0.97751   -0.72549   -0.72534   -0.49885   -0.49198
  -0.48520   -0.38889   -0.38163   -0.37686   -0.24473   -0.24339   -0.24323   -0.24170
  -0.24169   -0.24148   -0.11744   -0.09577   -0.08948   -0.07973   -0.07775   -0.07153
  -0.06970   -0.06556   -0.05333   -0.03629   -0.03342   -0.02663   -0.00164   -0.00157
   0.00527    0.00602    0.00904    0.02613    0.09651    0.10340    0.10874    0.15945
   0.17907    0.18432
 prteigrs : prtvol=0 or 1, do not print more k-points.

--- !EnergyTerms
iteration_state     : {dtset: 1, }
comment             : Components of total free energy in Hartree
kinetic             :  5.01758179237031E+01
hartree             :  4.45423120244240E+01
xc                  : -4.93955705897031E+01
Ewald energy        : -1.13142053254363E+02
psp_core            :  4.12396052564069E+00
local_psp           : -1.47019842227335E+02
non_local_psp       :  2.44669932700006E+01
total_energy        : -1.86248382327632E+02
...

--- !EnergyTermsDC
iteration_state     : {dtset: 1, }
comment             : '"Double-counting" decomposition of free energy'
band_energy         : -2.21704022907202E+01
Ewald energy        : -1.13142053254363E+02
psp_core            :  4.12396052564069E+00
xc_dc               : -5.50599068011268E+01
total_energy_dc     : -1.86248401820569E+02
...

 Cartesian components of stress tensor (hartree/bohr^3)
  sigma(1 1)= -4.81420764E-04  sigma(3 2)=  2.77389364E-14
  sigma(2 2)= -4.77224251E-04  sigma(3 1)= -1.86442748E-14
  sigma(3 3)= -4.73358634E-04  sigma(2 1)= -9.04723908E-15

-Cartesian components of stress tensor (GPa)         [Pressure=  1.4044E+01 GPa]
- sigma(1 1)= -1.41638855E+01  sigma(3 2)=  8.16107547E-10
- sigma(2 2)= -1.40404199E+01  sigma(3 1)= -5.48533411E-10
- sigma(3 3)= -1.39266895E+01  sigma(2 1)= -2.66178919E-10

== END DATASET(S) ==============================================================

 -outvars: echo values of variables after computation  --------
            acell      1.5411825978E+01  1.5322716430E+01  1.5622272150E+01 Bohr
              amu      1.32905430E+02  1.26904470E+02  9.12240000E+01
                       3.54527000E+01
           diemac      1.20000000E+01
             ecut      2.00000000E+01 Hartree
           etotal     -1.8624840182E+02
            fcart     -2.5148569576E-15  2.7103790487E-04  2.5861291591E-15
                      -2.5148569576E-15  2.7103790487E-04  2.5861291591E-15
                       8.6847177155E-14 -3.9920968217E-04 -5.2984845615E-03
                      -7.9438467403E-14 -3.9920968201E-04  5.2984845615E-03
                       3.3058570355E-03 -4.6144156294E-04 -8.1596311584E-15
                      -5.2580422585E-14  5.6664924848E-03  5.4064321583E-14
                       2.5222769108E-14 -2.7182058464E-03 -2.5934175114E-14
                      -3.3058570355E-03 -4.6144156294E-04 -6.4598658771E-16
                       1.6415487857E-14 -1.7690599580E-03 -1.6878442949E-14
-          fftalg         112
             iscf          17
           istwfk        2    0    0    0    0    0    3    0    0    0
                         0    0    0    0    0    0    0    0    0    0
                         0    0    0    0    0    0    0    0    0    0
                         0    0    0    0    0    0    0    0    0    0
                         0    0    7    0    0    0    0    0    0    0
                       outvar_i_n : Printing only first  50 k-points.
              ixc          32
              kpt      0.00000000E+00  0.00000000E+00  0.00000000E+00
                       8.33333333E-02  0.00000000E+00  0.00000000E+00
                       1.66666667E-01  0.00000000E+00  0.00000000E+00
                       2.50000000E-01  0.00000000E+00  0.00000000E+00
                       3.33333333E-01  0.00000000E+00  0.00000000E+00
                       4.16666667E-01  0.00000000E+00  0.00000000E+00
                       5.00000000E-01  0.00000000E+00  0.00000000E+00
                       8.33333333E-02  8.33333333E-02  0.00000000E+00
                       1.66666667E-01  8.33333333E-02  0.00000000E+00
                       2.50000000E-01  8.33333333E-02  0.00000000E+00
                       3.33333333E-01  8.33333333E-02  0.00000000E+00
                       4.16666667E-01  8.33333333E-02  0.00000000E+00
                       5.00000000E-01  8.33333333E-02  0.00000000E+00
                      -4.16666667E-01  8.33333333E-02  0.00000000E+00
                      -3.33333333E-01  8.33333333E-02  0.00000000E+00
                      -2.50000000E-01  8.33333333E-02  0.00000000E+00
                      -1.66666667E-01  8.33333333E-02  0.00000000E+00
                      -8.33333333E-02  8.33333333E-02  0.00000000E+00
                       1.66666667E-01  1.66666667E-01  0.00000000E+00
                       2.50000000E-01  1.66666667E-01  0.00000000E+00
                       3.33333333E-01  1.66666667E-01  0.00000000E+00
                       4.16666667E-01  1.66666667E-01  0.00000000E+00
                       5.00000000E-01  1.66666667E-01  0.00000000E+00
                      -4.16666667E-01  1.66666667E-01  0.00000000E+00
                      -3.33333333E-01  1.66666667E-01  0.00000000E+00
                      -2.50000000E-01  1.66666667E-01  0.00000000E+00
                      -1.66666667E-01  1.66666667E-01  0.00000000E+00
                       2.50000000E-01  2.50000000E-01  0.00000000E+00
                       3.33333333E-01  2.50000000E-01  0.00000000E+00
                       4.16666667E-01  2.50000000E-01  0.00000000E+00
                       5.00000000E-01  2.50000000E-01  0.00000000E+00
                      -4.16666667E-01  2.50000000E-01  0.00000000E+00
                      -3.33333333E-01  2.50000000E-01  0.00000000E+00
                      -2.50000000E-01  2.50000000E-01  0.00000000E+00
                       3.33333333E-01  3.33333333E-01  0.00000000E+00
                       4.16666667E-01  3.33333333E-01  0.00000000E+00
                       5.00000000E-01  3.33333333E-01  0.00000000E+00
                      -4.16666667E-01  3.33333333E-01  0.00000000E+00
                      -3.33333333E-01  3.33333333E-01  0.00000000E+00
                       4.16666667E-01  4.16666667E-01  0.00000000E+00
                       5.00000000E-01  4.16666667E-01  0.00000000E+00
                      -4.16666667E-01  4.16666667E-01  0.00000000E+00
                       5.00000000E-01  5.00000000E-01  0.00000000E+00
                       8.33333333E-02  0.00000000E+00  8.33333333E-02
                       1.66666667E-01  0.00000000E+00  8.33333333E-02
                       2.50000000E-01  0.00000000E+00  8.33333333E-02
                       3.33333333E-01  0.00000000E+00  8.33333333E-02
                       4.16666667E-01  0.00000000E+00  8.33333333E-02
                       5.00000000E-01  0.00000000E+00  8.33333333E-02
                      -4.16666667E-01  0.00000000E+00  8.33333333E-02
                       outvar_i_n : Printing only first  50 k-points.
         kptrlatt       12    0    0      0   12    0      0    0   12
          kptrlen      1.83872597E+02
P           mkmem          70
            natom           9
            nband          42
            ngfft          64      64      64
             nkpt         280
            nstep        2500
             nsym           4
           ntypat           4
              occ      2.000000  2.000000  2.000000  2.000000  2.000000  2.000000
                       2.000000  2.000000  2.000000  2.000000  2.000000  2.000000
                       2.000000  2.000000  2.000000  2.000000  2.000000  2.000000
                       2.000000  2.000000  2.000000  2.000000  2.000000  2.000000
                       2.000000  2.000000  2.000000  2.000000  2.000000  2.000000
                       2.000000  2.000000  2.000000  2.000000  2.000000  2.000000
                       0.000000  0.000000  0.000000  0.000000  0.000000  0.000000
            rprim      0.0000000000E+00  7.2077268023E-01  6.9317151083E-01
                       7.1687408017E-01  0.0000000000E+00  6.9720266292E-01
                       7.0312808156E-01  7.1106321865E-01  0.0000000000E+00
          spgroup          42
           strten     -4.8142076432E-04 -4.7722425146E-04 -4.7335863359E-04
                       2.7738936368E-14 -1.8644274823E-14 -9.0472390803E-15
           symrel      1  0  0   0  1  0   0  0  1       1  0  0   1  0 -1   1 -1  0
                       0 -1  1   0 -1  0   1 -1  0       0 -1  1  -1  0  1   0  0  1
           toldfe      1.00000000E-08 Hartree
            typat      1  1  4  4  2  4  2  2  3
              wtk        0.00058    0.00463    0.00463    0.00463    0.00463    0.00463
                         0.00231    0.00116    0.00463    0.00463    0.00463    0.00463
                         0.00463    0.00463    0.00463    0.00463    0.00463    0.00231
                         0.00116    0.00463    0.00463    0.00463    0.00463    0.00463
                         0.00463    0.00463    0.00231    0.00116    0.00463    0.00463
                         0.00463    0.00463    0.00463    0.00231    0.00116    0.00463
                         0.00463    0.00463    0.00231    0.00116    0.00463    0.00231
                         0.00058    0.00116    0.00463    0.00463    0.00463    0.00463
                         0.00463    0.00463
                       outvars : Printing only first  50 k-points.
           xangst      2.9063624764E+00  2.9310761484E+00  2.8266102987E+00
                       8.7190874291E+00  8.8094004856E+00  8.4798308962E+00
                       5.8127249527E+00  5.8165939912E+00  2.4577262973E+00
                       5.8127249527E+00  5.8165939911E+00  8.8487148976E+00
                       8.7168183252E+00  5.8669594480E+00  5.6532205975E+00
                       5.8127249527E+00  9.1955159765E+00  5.6532205974E+00
                       5.8127249527E+00  2.8269319220E+00  5.6532205975E+00
                       2.9086315802E+00  5.8669594479E+00  5.6532205974E+00
                       1.1303612315E-13 -1.0343671329E-01  1.6049961050E-12
            xcart      5.4922291232E+00  5.5389311952E+00  5.3415193490E+00
                       1.6476687370E+01  1.6647354313E+01  1.6024558047E+01
                       1.0984458246E+01  1.0991769670E+01  4.6444296115E+00
                       1.0984458246E+01  1.0991769669E+01  1.6721647784E+01
                       1.6472399385E+01  1.1086946589E+01  1.0683038698E+01
                       1.0984458246E+01  1.7377006846E+01  1.0683038698E+01
                       1.0984458246E+01  5.3421271290E+00  1.0683038698E+01
                       5.4965171081E+00  1.1086946589E+01  1.0683038698E+01
                       2.1360731588E-13 -1.9546706021E-01  3.0330030827E-12
             xred      2.4931221725E-01  2.5068778275E-01  2.4931221725E-01
                       7.4931221725E-01  7.5068778275E-01  7.4931221725E-01
                       2.1212332009E-01  2.2262467089E-01  7.7737532911E-01
                       7.7737532911E-01  7.8787667991E-01  2.1212332009E-01
                       2.4922850655E-01  7.5077149345E-01  7.4883813820E-01
                       7.8215452645E-01  2.1784547355E-01  7.8215452645E-01
                       2.4045389127E-01  7.5954610873E-01  2.4045389127E-01
                       7.4883813820E-01  2.5116186180E-01  2.4922850655E-01
                      -8.7981461518E-03  8.7981461518E-03 -8.7981461518E-03
            znucl       55.00000   53.00000   40.00000   17.00000

- Timing analysis has been suppressed with timopt=0

 Suggested references for the acknowledgment of ABINIT usage.

 Calculation completed.
.Delivered   0 WARNINGs and   0 COMMENTs to log file.