.Version 9.2.2 of ABINIT

 ABINIT is a project of the Universite Catholique de Louvain,
 Corning Inc. and other collaborators, see ~abinit/doc/developers/contributors.txt .
 acknowledgments of the ABINIT effort.

.Starting date : Wed 26 Oct 2022.
- ( at 23h37 )

- input  file    -> Cs2TiI6.in
- output file    -> Cs2TiI6.out
- root for input  files -> Cs2TiI6i
- root for output files -> Cs2TiI6o

- inpspheads : Reading pseudopotential header in XML form from
-   ../../../Psps_for_tests/ATOMICDATA/Cs.GGA_PBE-JTH.xml
- inpspheads : Reading pseudopotential header in XML form from
-   ../../../Psps_for_tests/ATOMICDATA/I.GGA_PBE-JTH.xml
- inpspheads : Reading pseudopotential header in XML form from
-   ../../../Psps_for_tests/ATOMICDATA/Hf.GGA_PBE-JTH.xml
- inpspheads : Reading pseudopotential header in XML form from
-   ../../../Psps_for_tests/ATOMICDATA/Br.GGA_PBE-JTH.xml

 DATASET    1 : space group Fm m 2 (# 42); Bravais oF (face-center ortho.)
     intxc =       0    ionmov =       0      iscf =      17    lmnmax =      18
     lnmax =       6     mgfft =      60  mpssoang =       3    mqgrid =    3591
     natom =       9  nloc_mem =       2    nspden =       1   nspinor =       1
    nsppol =       1      nsym =       4    n1xccc =       1    ntypat =       4
    occopt =       1   xclevel =       2
-    mband =          42        mffmem =           1         mkmem =          47
       mpw =        7995          nfft =      216000          nkpt =         280
Pmy_natom=         2
 PAW method is used; the additional fine FFT grid is defined by:
   mgfftf=        90    nfftf =    729000
  Rough estimation (10% accuracy) of disk space for files :

[...]

 DATASET   10 : space group Fm m 2 (# 42); Bravais oF (face-center ortho.)
     intxc =       0    ionmov =       0      iscf =      17    lmnmax =      18
     lnmax =       6     mgfft =      54  mpssoang =       3    mqgrid =    3264
     natom =       9  nloc_mem =       2    nspden =       1   nspinor =       1
    nsppol =       1      nsym =       4    n1xccc =       1    ntypat =       4
    occopt =       1   xclevel =       2
-    mband =          42        mffmem =           1         mkmem =          47
       mpw =        6015          nfft =      157464          nkpt =         280
Pmy_natom=         2
 PAW method is used; the additional fine FFT grid is defined by:
   mgfftf=        90    nfftf =    729000
  Rough estimation (10% accuracy) of disk space for files :

------------- Echo of variables that govern the present computation ------------
-
- outvars: echo of selected default values
-   iomode0 =  0 , fftalg0 =112 , wfoptalg0 = 10
-
- outvars: echo of global parameters not present in the input file
-  max_nthreads =    0
-
 -outvars: echo values of preprocessed input variables --------
            acell1     1.5398283277E+01  1.5556389011E+01  1.5390759905E+01 Bohr
            acell2     1.5249283443E+01  1.5397457240E+01  1.5230457434E+01 Bohr
            acell3     1.5096291126E+01  1.5243627306E+01  1.5069425502E+01 Bohr
            acell4     1.4941198252E+01  1.5088135899E+01  1.4912011930E+01 Bohr
            acell5     1.4783773163E+01  1.4935320923E+01  1.4754449863E+01 Bohr
            acell6     1.4622934536E+01  1.4784857993E+01  1.4598127832E+01 Bohr
            acell7     1.4458864212E+01  1.4636297494E+01  1.4443320762E+01 Bohr
            acell8     1.4296307655E+01  1.4486298150E+01  1.4288378004E+01 Bohr
            acell9     1.4131867807E+01  1.4337547117E+01  1.4134247637E+01 Bohr
            acell10    1.3967045244E+01  1.4188492485E+01  1.3980853427E+01 Bohr
              amu      1.32905430E+02  1.26904470E+02  1.78490000E+02
                       7.99040000E+01
           diemac      1.20000000E+01
             ecut      1.60000000E+01 Hartree
-          fftalg         112
           istwfk        2    0    0    0    0    0    3    0    0    0
                         0    0    0    0    0    0    0    0    0    0
                         0    0    0    0    0    0    0    0    0    0
                         0    0    0    0    0    0    0    0    0    0
                         0    0    7    0    0    0    0    0    0    0
                       outvar_i_n : Printing only first  50 k-points.
              ixc     -101130
           jdtset        1    2    3    4    5    6    7    8    9   10
              kpt      0.00000000E+00  0.00000000E+00  0.00000000E+00
                       8.33333333E-02  0.00000000E+00  0.00000000E+00
                       1.66666667E-01  0.00000000E+00  0.00000000E+00
                       2.50000000E-01  0.00000000E+00  0.00000000E+00
                       3.33333333E-01  0.00000000E+00  0.00000000E+00
                       4.16666667E-01  0.00000000E+00  0.00000000E+00
                       5.00000000E-01  0.00000000E+00  0.00000000E+00
                       8.33333333E-02  8.33333333E-02  0.00000000E+00
                       1.66666667E-01  8.33333333E-02  0.00000000E+00
                       2.50000000E-01  8.33333333E-02  0.00000000E+00
                       3.33333333E-01  8.33333333E-02  0.00000000E+00
                       4.16666667E-01  8.33333333E-02  0.00000000E+00
                       5.00000000E-01  8.33333333E-02  0.00000000E+00
                      -4.16666667E-01  8.33333333E-02  0.00000000E+00
                      -3.33333333E-01  8.33333333E-02  0.00000000E+00
                      -2.50000000E-01  8.33333333E-02  0.00000000E+00
                      -1.66666667E-01  8.33333333E-02  0.00000000E+00
                      -8.33333333E-02  8.33333333E-02  0.00000000E+00
                       1.66666667E-01  1.66666667E-01  0.00000000E+00
                       2.50000000E-01  1.66666667E-01  0.00000000E+00
                       3.33333333E-01  1.66666667E-01  0.00000000E+00
                       4.16666667E-01  1.66666667E-01  0.00000000E+00
                       5.00000000E-01  1.66666667E-01  0.00000000E+00
                      -4.16666667E-01  1.66666667E-01  0.00000000E+00
                      -3.33333333E-01  1.66666667E-01  0.00000000E+00
                      -2.50000000E-01  1.66666667E-01  0.00000000E+00
                      -1.66666667E-01  1.66666667E-01  0.00000000E+00
                       2.50000000E-01  2.50000000E-01  0.00000000E+00
                       3.33333333E-01  2.50000000E-01  0.00000000E+00
                       4.16666667E-01  2.50000000E-01  0.00000000E+00
                       5.00000000E-01  2.50000000E-01  0.00000000E+00
                      -4.16666667E-01  2.50000000E-01  0.00000000E+00
                      -3.33333333E-01  2.50000000E-01  0.00000000E+00
                      -2.50000000E-01  2.50000000E-01  0.00000000E+00
                       3.33333333E-01  3.33333333E-01  0.00000000E+00
                       4.16666667E-01  3.33333333E-01  0.00000000E+00
                       5.00000000E-01  3.33333333E-01  0.00000000E+00
                      -4.16666667E-01  3.33333333E-01  0.00000000E+00
                      -3.33333333E-01  3.33333333E-01  0.00000000E+00
                       4.16666667E-01  4.16666667E-01  0.00000000E+00
                       5.00000000E-01  4.16666667E-01  0.00000000E+00
                      -4.16666667E-01  4.16666667E-01  0.00000000E+00
                       5.00000000E-01  5.00000000E-01  0.00000000E+00
                       8.33333333E-02  0.00000000E+00  8.33333333E-02
                       1.66666667E-01  0.00000000E+00  8.33333333E-02
                       2.50000000E-01  0.00000000E+00  8.33333333E-02
                       3.33333333E-01  0.00000000E+00  8.33333333E-02
                       4.16666667E-01  0.00000000E+00  8.33333333E-02
                       5.00000000E-01  0.00000000E+00  8.33333333E-02
                      -4.16666667E-01  0.00000000E+00  8.33333333E-02
                       outvar_i_n : Printing only first  50 k-points.
         kptrlatt       12    0    0      0   12    0      0    0   12
          kptrlen1     1.84689119E+02
          kptrlen2     1.82765489E+02
          kptrlen3     1.80833106E+02
          kptrlen4     1.78944143E+02
          kptrlen5     1.77053398E+02
          kptrlen6     1.75177534E+02
          kptrlen7     1.73319849E+02
          kptrlen8     1.71460536E+02
          kptrlen9     1.69582414E+02
          kptrlen10    1.67604543E+02
P           mkmem          47
            natom           9
            nband          42
           ndtset          10
            ngfft1         60      60      60
            ngfft2         60      60      60
            ngfft3         60      60      60
            ngfft4         60      60      60
            ngfft5         54      54      54
            ngfft6         54      54      54
            ngfft7         54      54      54
            ngfft8         54      54      54
            ngfft9         54      54      54
            ngfft10        54      54      54
          ngfftdg          90      90      90
             nkpt         280
            nstep        2500
             nsym           4
           ntypat           4
              occ      2.000000  2.000000  2.000000  2.000000  2.000000  2.000000
                       2.000000  2.000000  2.000000  2.000000  2.000000  2.000000
                       2.000000  2.000000  2.000000  2.000000  2.000000  2.000000
                       2.000000  2.000000  2.000000  2.000000  2.000000  2.000000
                       2.000000  2.000000  2.000000  2.000000  2.000000  2.000000
                       2.000000  2.000000  2.000000  2.000000  2.000000  2.000000
                       0.000000  0.000000  0.000000  0.000000  0.000000  0.000000
        pawecutdg      4.00000000E+01 Hartree
            prtwf           0
            rprim1     0.0000000000E+00  6.9942195435E-01  7.1470898257E-01
                       7.0676828787E-01  0.0000000000E+00  7.0744511255E-01
                       7.1437424105E-01  6.9976384854E-01  0.0000000000E+00
            rprim2     0.0000000000E+00  6.9928694589E-01  7.1484107835E-01
                       7.0625055293E-01  0.0000000000E+00  7.0796197390E-01
                       7.1399449011E-01  7.0015131800E-01  0.0000000000E+00
            rprim3     0.0000000000E+00  6.9886663921E-01  7.1525199797E-01
                       7.0587263072E-01  0.0000000000E+00  7.0833878138E-01
                       7.1403248300E-01  7.0011257182E-01  0.0000000000E+00
            rprim4     0.0000000000E+00  6.9868858782E-01  7.1542592715E-01
                       7.0575230808E-01  0.0000000000E+00  7.0845866474E-01
                       7.1408786320E-01  7.0005608606E-01  0.0000000000E+00
            rprim5     0.0000000000E+00  6.9836594606E-01  7.1574087866E-01
                       7.0573259586E-01  0.0000000000E+00  7.0847830111E-01
                       7.1438399280E-01  6.9975389304E-01  0.0000000000E+00
            rprim6     0.0000000000E+00  6.9797596861E-01  7.1612118196E-01
                       7.0593338073E-01  0.0000000000E+00  7.0827823768E-01
                       7.1496324097E-01  6.9916204421E-01  0.0000000000E+00
[...]
                      -8.0616990168E-13  8.1395026222E-14  6.7637696514E-02
           xangst7     2.7354672013E+00  2.6685899837E+00  2.7487366419E+00
                       8.2064016038E+00  8.0057699512E+00  8.2311561037E+00
                       5.4709344026E+00  8.0854763885E+00  5.5019502658E+00
                       5.4709344026E+00  5.3371799675E+00  2.6631052091E+00
                       5.4709344025E+00  5.3371799675E+00  8.1988532146E+00
                       5.4709344025E+00  2.5888835465E+00  5.5019502659E+00
                       8.1132154145E+00  5.3371799675E+00  5.4719655738E+00
                       2.8286533906E+00  5.3371799675E+00  5.4719655738E+00
                      -3.2442097346E-13 -3.0583200889E-13  6.9672846140E-02
           xangst8     2.7088121253E+00  2.6372020468E+00  2.7166723836E+00
                       8.1264363758E+00  7.9116061403E+00  8.1401514912E+00
                       5.4176242506E+00  7.9661597941E+00  5.4402022099E+00
                       5.4176242506E+00  5.2744040936E+00  2.6610011946E+00
                       5.4176242505E+00  5.2744040935E+00  8.0960118972E+00
                       5.4176242505E+00  2.5826483930E+00  5.4402022098E+00
                       8.0186095162E+00  5.2744040936E+00  5.4102096305E+00
                       2.8166389849E+00  5.2744040935E+00  5.4102096305E+00
                      -2.2945992227E-12 -1.1791687815E-12  7.3172212952E-02
           xangst9     2.6828849093E+00  2.6053675013E+00  2.6857204722E+00
                       8.0486547278E+00  7.8161025040E+00  8.0497346997E+00
                       5.3657698185E+00  7.8462111745E+00  5.3765513486E+00
                       5.3657698185E+00  5.2107350026E+00  2.6572101638E+00
                       5.3657698186E+00  5.2107350026E+00  7.9928081577E+00
                       5.3657698186E+00  2.5752588308E+00  5.3765513487E+00
                       7.9282180151E+00  5.2107350026E+00  5.3487115754E+00
                       2.8033216220E+00  5.2107350026E+00  5.3487115753E+00
                       2.0896478256E-12  1.0460142639E-13  7.6114478435E-02
           xangst10    2.6571021835E+00  2.5736549751E+00  2.6540832441E+00
                       7.9713065505E+00  7.7209649254E+00  7.9581102366E+00
                       5.3142043671E+00  7.7279683308E+00  5.3124441885E+00
                       5.3142043671E+00  5.1473099503E+00  2.6525382161E+00
                       5.3142043669E+00  5.1473099502E+00  7.8899454975E+00
                       5.3142043669E+00  2.5666515697E+00  5.3124441886E+00
                       7.8397535471E+00  5.1473099503E+00  5.2865446546E+00
                       2.7886551869E+00  5.1473099502E+00  5.2865446546E+00
                      -2.2444160534E-12 -2.1033756897E-12  7.9561059371E-02
            xcart1     5.4973812133E+00  5.3849486916E+00  5.5228817662E+00
                       1.6492143640E+01  1.6154846075E+01  1.6528173141E+01
                       1.0994762426E+01  1.6611723189E+01  1.1058038588E+01
                       1.0994762426E+01  1.0769897383E+01  5.0451424894E+00
                       1.0994762427E+01  1.0769897383E+01  1.6674193844E+01
                       1.0994762427E+01  4.9280715773E+00  1.1058038588E+01
                       1.6552602993E+01  1.0769897383E+01  1.1019641746E+01
                       5.4369218603E+00  1.0769897383E+01  1.1019641746E+01
                       2.2616446274E-12  8.2805113530E-13  1.1657908793E-01
            xcart2     5.4372313448E+00  5.3318124230E+00  5.4725836892E+00
                       1.6311694034E+01  1.5995437269E+01  1.6373397910E+01
                       1.0874462690E+01  1.6402009058E+01  1.0952529716E+01
                       1.0874462690E+01  1.0663624846E+01  5.0436870470E+00
                       1.0874462690E+01  1.0663624846E+01  1.6477071059E+01
                       1.0874462690E+01  4.9252406344E+00  1.0952529716E+01
                       1.6322758935E+01  1.0663624846E+01  1.0909051087E+01
                       5.4261664446E+00  1.0663624846E+01  1.0909051087E+01
                      -1.4166530483E-12 -1.5596206562E-12  1.1661245308E-01
            xcart3     5.3800296542E+00  5.2751471220E+00  5.4211787427E+00
                       1.6140088963E+01  1.5825441366E+01  1.6218831132E+01
                       1.0760059308E+01  1.6179161490E+01  1.0847580237E+01
                       1.0760059308E+01  1.0550294244E+01  5.0424415264E+00
                       1.0760059308E+01  1.0550294244E+01  1.6285164851E+01
                       1.0760059308E+01  4.9214269974E+00  1.0847580237E+01
                       1.6106142192E+01  1.0550294244E+01  1.0800121347E+01
                       5.4139764250E+00  1.0550294244E+01  1.0800121347E+01
                      -2.0532490104E-12 -1.5968347869E-12  1.1819969842E-01
            xcart4     5.3242433676E+00  5.2196223535E+00  5.3640825625E+00
                       1.5972730103E+01  1.5658867061E+01  1.6053403175E+01
                       1.0648486735E+01  1.5962040618E+01  1.0738239959E+01
                       1.0648486735E+01  1.0439244707E+01  5.0419215511E+00
                       1.0648486735E+01  1.0439244707E+01  1.6086228630E+01
                       1.0648486735E+01  4.9164487963E+00  1.0738239959E+01
                       1.5897271185E+01  1.0439244707E+01  1.0685457866E+01
                       5.3997022854E+00  1.0439244707E+01  1.0685457866E+01
                       1.3492762916E-12  1.8592104267E-13  1.2153332887E-01
            xcart5     5.2701714024E+00  5.1622418657E+00  5.3079156722E+00
                       1.5810514207E+01  1.5486725597E+01  1.5889266466E+01
                       1.0540342805E+01  1.5738947914E+01  1.0627989262E+01
                       1.0540342805E+01  1.0324483731E+01  5.0402305632E+00
                       1.0540342805E+01  1.0324483731E+01  1.5889960251E+01
                       1.0540342805E+01  4.9100195484E+00  1.0627989262E+01
                       1.5697074716E+01  1.0324483731E+01  1.0571240087E+01
                       5.3836108940E+00  1.0324483731E+01  1.0571240087E+01
                       1.7338824860E-12  1.0150510605E-13  1.2497470006E-01
            xcart6     5.2185623934E+00  5.1032284483E+00  5.2523348272E+00
                       1.5655687180E+01  1.5309685345E+01  1.5724127991E+01
                       1.0437124787E+01  1.5510849640E+01  1.0514175922E+01
                       1.0437124787E+01  1.0206456897E+01  5.0367674492E+00
                       1.0437124787E+01  1.0206456897E+01  1.5692453496E+01
                       1.0437124787E+01  4.9020641531E+00  1.0514175922E+01
                       1.5508488155E+01  1.0206456897E+01  1.0456246489E+01
                       5.3657614181E+00  1.0206456897E+01  1.0456246489E+01
                      -1.5234403307E-12  1.5381430814E-13  1.2781672267E-01
            xcart7     5.1692838559E+00  5.0429042302E+00  5.1943594646E+00
                       1.5507851568E+01  1.5128712691E+01  1.5554630793E+01
                       1.0338567712E+01  1.5279336028E+01  1.0397179199E+01
                       1.0338567712E+01  1.0085808461E+01  5.0325395082E+00
                       1.0338567712E+01  1.0085808460E+01  1.5493587179E+01
                       1.0338567712E+01  4.8922808927E+00  1.0397179199E+01
                       1.5331755190E+01  1.0085808461E+01  1.0340516343E+01
                       5.3453802331E+00  1.0085808460E+01  1.0340516343E+01
                      -6.1306679161E-13 -5.7793873948E-13  1.3166259810E-01
            xcart8     5.1189130622E+00  4.9835896255E+00  5.1337667979E+00
                       1.5356739187E+01  1.4950768876E+01  1.5382656999E+01
                       1.0237826125E+01  1.5053860342E+01  1.0280492284E+01
                       1.0237826125E+01  9.9671792511E+00  5.0285634972E+00
                       1.0237826124E+01  9.9671792509E+00  1.5299245254E+01
                       1.0237826124E+01  4.8804981603E+00  1.0280492284E+01
                       1.5152975952E+01  9.9671792511E+00  1.0223814523E+01
                       5.3226762967E+00  9.9671792509E+00  1.0223814523E+01
                      -4.3361641156E-12 -2.2283060614E-12  1.3827544302E-01
            xcart9     5.0699177246E+00  4.9234310530E+00  5.0752761620E+00
                       1.5209753174E+01  1.4770293159E+01  1.5211794025E+01
                       1.0139835449E+01  1.4827190301E+01  1.0160209588E+01
                       1.0139835449E+01  9.8468621060E+00  5.0213994871E+00
                       1.0139835449E+01  9.8468621060E+00  1.5104218451E+01
                       1.0139835449E+01  4.8665339115E+00  1.0160209588E+01
                       1.4982160770E+01  9.8468621060E+00  1.0107600041E+01
                       5.2975101280E+00  9.8468621060E+00  1.0107600041E+01
                       3.9488621045E-12  1.9766804898E-13  1.4383551899E-01
            xcart10    5.0211954339E+00  4.8635030635E+00  5.0154904652E+00
                       1.5063586302E+01  1.4590509191E+01  1.5038648882E+01
                       1.0042390868E+01  1.4603743709E+01  1.0039064613E+01
                       1.0042390868E+01  9.7270061272E+00  5.0125707855E+00
                       1.0042390868E+01  9.7270061269E+00  1.4909836194E+01
                       1.0042390868E+01  4.8502685453E+00  1.0039064613E+01
                       1.4814987153E+01  9.7270061272E+00  9.9901215865E+00
                       5.2697945823E+00  9.7270061269E+00  9.9901215864E+00
                      -4.2413316692E-12 -3.9748040081E-12  1.5034861305E-01
             xred1     2.5091937952E-01  2.5091937952E-01  2.4908062048E-01
                       7.5091937952E-01  7.5091937952E-01  7.4908062048E-01
                       7.7360728661E-01  2.3118560904E-01  7.6881439096E-01
                       2.2921439868E-01  2.2921439868E-01  7.7078560132E-01
                       7.5755349300E-01  7.5755349300E-01  2.4244650700E-01
                       2.3118560904E-01  7.7360728661E-01  2.2639271339E-01
                       2.4790251444E-01  7.5340143753E-01  7.5209748556E-01
                       7.5340143753E-01  2.4790251444E-01  2.4659856247E-01
                       5.2965016538E-03  5.2965016538E-03 -5.2965016538E-03
             xred2     2.5101719828E-01  2.5101719828E-01  2.4898280172E-01
                       7.5101719828E-01  7.5101719828E-01  7.4898280172E-01
                       7.7143558219E-01  2.3330860431E-01  7.6669139569E-01
                       2.3134450991E-01  2.3134450991E-01  7.6865549009E-01
                       7.5577249211E-01  7.5577249211E-01  2.4422750789E-01
                       2.3330860431E-01  7.7143558219E-01  2.2856441781E-01
                       2.4986905350E-01  7.5088656586E-01  7.5013094650E-01
                       7.5088656586E-01  2.4986905350E-01  2.4911343414E-01
                       5.3487955450E-03  5.3487955450E-03 -5.3487955450E-03
             xred3     2.5103506517E-01  2.5103506517E-01  2.4896493483E-01
                       7.5103506517E-01  7.5103506517E-01  7.4896493483E-01
                       7.6907549637E-01  2.3554845756E-01  7.6445154244E-01
                       2.3349712254E-01  2.3349712254E-01  7.6650287746E-01
                       7.5410673835E-01  7.5410673835E-01  2.4589326165E-01
                       2.3554845756E-01  7.6907549637E-01  2.3092450363E-01
                       2.5169177189E-01  7.4853688493E-01  7.4830822811E-01
                       7.4853688493E-01  2.5169177189E-01  2.5146311507E-01
                       5.4733980201E-03  5.4733980201E-03 -5.4733980201E-03
             xred4     2.5090848881E-01  2.5090848881E-01  2.4909151119E-01
                       7.5090848881E-01  7.5090848881E-01  7.4909151119E-01
                       7.6680909152E-01  2.3776737771E-01  7.6223262229E-01
                       2.3583919568E-01  2.3583919568E-01  7.6416080432E-01
                       7.5244392108E-01  7.5244392108E-01  2.4755607892E-01
                       2.3776737771E-01  7.6680909152E-01  2.3319090848E-01
                       2.5336249316E-01  7.4627614186E-01  7.4663750684E-01
                       7.4627614186E-01  2.5336249316E-01  2.5372385814E-01
                       5.6848013675E-03  5.6848013675E-03 -5.6848013675E-03
             xred5     2.5081465380E-01  2.5081465380E-01  2.4918534620E-01
                       7.5081465380E-01  7.5081465380E-01  7.4918534620E-01
                       7.6441857160E-01  2.3998903848E-01  7.6001096152E-01
                       2.3816574374E-01  2.3816574374E-01  7.6183425626E-01
                       7.5084743718E-01  7.5084743718E-01  2.4915256282E-01
                       2.3998903848E-01  7.6441857160E-01  2.3558142840E-01
                       2.5490344434E-01  7.4414103427E-01  7.4509655566E-01
                       7.4414103427E-01  2.5490344434E-01  2.5585896573E-01
                       5.9054227808E-03  5.9054227808E-03 -5.9054227808E-03
             xred6     2.5078488207E-01  2.5078488207E-01  2.4921511793E-01
                       7.5078488207E-01  7.5078488207E-01  7.4921511793E-01
                       7.6187841941E-01  2.4216890638E-01  7.5783109362E-01
                       2.4049211871E-01  2.4049211871E-01  7.5950788129E-01
                       7.4927251003E-01  7.4927251003E-01  2.5072748997E-01
                       2.4216890638E-01  7.6187841941E-01  2.3812158059E-01
                       2.5630939183E-01  7.4220598426E-01  7.4369060817E-01
                       7.4220598426E-01  2.5630939183E-01  2.5779401574E-01
                       6.1029052366E-03  6.1029052366E-03 -6.1029052366E-03
             xred7     2.5068645887E-01  2.5068645887E-01  2.4931354113E-01
                       7.5068645887E-01  7.5068645887E-01  7.4931354113E-01
                       7.5924831414E-01  2.4431412834E-01  7.5568587166E-01
                       2.4287681995E-01  2.4287681995E-01  7.5712318005E-01
                       7.4774041567E-01  7.4774041567E-01  2.5225958433E-01
                       2.4431412834E-01  7.5924831414E-01  2.4075168586E-01
                       2.5756307743E-01  7.4053012063E-01  7.4243692257E-01
                       7.4053012063E-01  2.5756307743E-01  2.5946987937E-01
                       6.3542060786E-03  6.3542060786E-03 -6.3542060786E-03
             xred8     2.5045476619E-01  2.5045476619E-01  2.4954523381E-01
                       7.5045476619E-01  7.5045476619E-01  7.4954523381E-01
                       7.5671327864E-01  2.4637018531E-01  7.5362981469E-01
                       2.4532234216E-01  2.4532234216E-01  7.5467765784E-01
                       7.4638546002E-01  7.4638546002E-01  2.5361453998E-01
                       2.4637018531E-01  7.5671327864E-01  2.4328672136E-01
                       2.5872815307E-01  7.3882517445E-01  7.4127184693E-01
                       7.3882517445E-01  2.5872815307E-01  2.6117482555E-01
                       6.7458739585E-03  6.7458739585E-03 -6.7458739585E-03
             xred9     2.5034613615E-01  2.5034613615E-01  2.4965386385E-01
                       7.5034613615E-01  7.5034613615E-01  7.4965386385E-01
                       7.5405773250E-01  2.4827953221E-01  7.5172046779E-01
                       2.4768858276E-01  2.4768858276E-01  7.5231141724E-01
                       7.4503979843E-01  7.4503979843E-01  2.5496020157E-01
                       2.4827953221E-01  7.5405773250E-01  2.4594226750E-01
                       2.5979626929E-01  7.3735089485E-01  7.4020373071E-01
                       7.3735089485E-01  2.5979626929E-01  2.6264910515E-01
                       7.0949176500E-03  7.0949176500E-03 -7.0949176500E-03
             xred10    2.5019511098E-01  2.5019511098E-01  2.4980488902E-01
                       7.5019511098E-01  7.5019511098E-01  7.4980488902E-01
                       7.5147376983E-01  2.5011317459E-01  7.4988682541E-01
                       2.5004946429E-01  2.5004946429E-01  7.4995053571E-01
                       7.4376935757E-01  7.4376935757E-01  2.5623064243E-01
                       2.5011317459E-01  7.5147376983E-01  2.4852623017E-01
                       2.6072946320E-01  7.3597448685E-01  7.3927053680E-01
                       7.3597448685E-01  2.6072946320E-01  2.6402551315E-01
                       7.5000616968E-03  7.5000616968E-03 -7.5000616968E-03
            znucl       55.00000   53.00000   72.00000   35.00000

- Timing analysis has been suppressed with timopt=0

 Suggested references for the acknowledgment of ABINIT usage.

 Calculation completed.
.Delivered   0 WARNINGs and   5 COMMENTs to log file.