.Version 9.2.2 of ABINIT

 ABINIT is a project of the Universite Catholique de Louvain,
 Corning Inc. and other collaborators, see ~abinit/doc/developers/contributors.txt .
 acknowledgments of the ABINIT effort.

.Starting date : Sun 20 Nov 2022.
- ( at 09h05 )

- input  file    -> Cs2TiI6.in
- output file    -> Cs2TiI6.out
- root for input  files -> Cs2TiI6i
- root for output files -> Cs2TiI6o

- inpspheads : Reading pseudopotential header in XML form from
-   ../../../Psps_for_tests/ATOMICDATA/Cs.GGA_PBE-JTH.xml
- inpspheads : Reading pseudopotential header in XML form from
-   ../../../Psps_for_tests/ATOMICDATA/I.GGA_PBE-JTH.xml
- inpspheads : Reading pseudopotential header in XML form from
-   ../../../Psps_for_tests/ATOMICDATA/Hf.GGA_PBE-JTH.xml
- inpspheads : Reading pseudopotential header in XML form from
-   ../../../Psps_for_tests/ATOMICDATA/Br.GGA_PBE-JTH.xml

 DATASET    1 : space group Fm m 2 (# 42); Bravais oF (face-center ortho.)
     intxc =       0    ionmov =       2      iscf =      17    lmnmax =      18
     lnmax =       6     mgfft =      64  mpssoang =       3    mqgrid =    3959
     natom =       9  nloc_mem =       2    nspden =       1   nspinor =       1
    nsppol =       1      nsym =       4    n1xccc =       1    ntypat =       4
    occopt =       1   xclevel =       2
-    mband =          42        mffmem =           1         mkmem =           6
       mpw =       10710          nfft =      262144          nkpt =          32
Pmy_natom=         2
 PAW method is used; the additional fine FFT grid is defined by:
   mgfftf=       100    nfftf =   1000000
  Rough estimation (10% accuracy) of disk space for files :

[...]

 DATASET   10 : space group Fm m 2 (# 42); Bravais oF (face-center ortho.)
     intxc =       0    ionmov =       2      iscf =      17    lmnmax =      18
     lnmax =       6     mgfft =      64  mpssoang =       3    mqgrid =    3923
     natom =       9  nloc_mem =       2    nspden =       1   nspinor =       1
    nsppol =       1      nsym =       4    n1xccc =       1    ntypat =       4
    occopt =       1   xclevel =       2
-    mband =          42        mffmem =           1         mkmem =           6
       mpw =       10412          nfft =      262144          nkpt =          32
Pmy_natom=         2
 PAW method is used; the additional fine FFT grid is defined by:
   mgfftf=       100    nfftf =   1000000
  Rough estimation (10% accuracy) of disk space for files :

------------- Echo of variables that govern the present computation ------------
-
- outvars: echo of selected default values
-   iomode0 =  0 , fftalg0 =112 , wfoptalg0 = 10
-
- outvars: echo of global parameters not present in the input file
-  max_nthreads =    0
-
 -outvars: echo values of preprocessed input variables --------
            acell1     1.4768989390E+01  1.4920385602E+01  1.4739695413E+01 Bohr
            acell2     1.4754205617E+01  1.4905450281E+01  1.4724940963E+01 Bohr
            acell3     1.4739421844E+01  1.4890514960E+01  1.4710186513E+01 Bohr
            acell4     1.4724638070E+01  1.4875579639E+01  1.4695432064E+01 Bohr
            acell5     1.4709854297E+01  1.4860644318E+01  1.4680677614E+01 Bohr
            acell6     1.4695070524E+01  1.4845708997E+01  1.4665923164E+01 Bohr
            acell7     1.4680286751E+01  1.4830773677E+01  1.4651168714E+01 Bohr
            acell8     1.4665502978E+01  1.4815838356E+01  1.4636414264E+01 Bohr
            acell9     1.4650719205E+01  1.4800903035E+01  1.4621659814E+01 Bohr
            acell10    1.4635935431E+01  1.4785967714E+01  1.4606905364E+01 Bohr
              amu      1.32905430E+02  1.26904470E+02  1.78490000E+02
                       7.99040000E+01
           diemac      1.20000000E+01
          dilatmx      1.15000000E+00
             ecut      1.60000000E+01 Hartree
           ecutsm      5.00000000E-01 Hartree
-          fftalg         112
          getxred1          0
          getxred2         -1
          getxred3         -1
          getxred4         -1
          getxred5         -1
          getxred6         -1
          getxred7         -1
          getxred8         -1
          getxred9         -1
          getxred10        -1
           ionmov           2
              ixc     -101130
           jdtset        1    2    3    4    5    6    7    8    9   10
              kpt      0.00000000E+00 -1.25000000E-01  0.00000000E+00
                       0.00000000E+00 -3.75000000E-01  0.00000000E+00
                       1.25000000E-01 -2.50000000E-01  0.00000000E+00
                       0.00000000E+00 -2.50000000E-01  1.25000000E-01
                       1.25000000E-01 -1.25000000E-01  1.25000000E-01
                       1.25000000E-01  5.00000000E-01  0.00000000E+00
                       2.50000000E-01 -3.75000000E-01  0.00000000E+00
                       0.00000000E+00  5.00000000E-01  1.25000000E-01
                       1.25000000E-01 -3.75000000E-01  1.25000000E-01
                       2.50000000E-01 -2.50000000E-01  1.25000000E-01
                       0.00000000E+00 -3.75000000E-01  2.50000000E-01
                       1.25000000E-01 -2.50000000E-01  2.50000000E-01
                       2.50000000E-01 -1.25000000E-01  2.50000000E-01
                       1.25000000E-01  2.50000000E-01  0.00000000E+00
                       2.50000000E-01  3.75000000E-01  0.00000000E+00
                       3.75000000E-01  5.00000000E-01  0.00000000E+00
                       0.00000000E+00  2.50000000E-01  1.25000000E-01
                       1.25000000E-01  3.75000000E-01  1.25000000E-01
                       2.50000000E-01  5.00000000E-01  1.25000000E-01
                       3.75000000E-01 -3.75000000E-01  1.25000000E-01
                       0.00000000E+00  3.75000000E-01  2.50000000E-01
                       1.25000000E-01  5.00000000E-01  2.50000000E-01
                       2.50000000E-01 -3.75000000E-01  2.50000000E-01
                       3.75000000E-01 -2.50000000E-01  2.50000000E-01
                       0.00000000E+00  5.00000000E-01  3.75000000E-01
                       1.25000000E-01 -3.75000000E-01  3.75000000E-01
                       2.50000000E-01 -2.50000000E-01  3.75000000E-01
                       3.75000000E-01 -1.25000000E-01  3.75000000E-01
                       5.00000000E-01  2.50000000E-01  1.25000000E-01
                      -3.75000000E-01  3.75000000E-01  1.25000000E-01
                       1.25000000E-01  2.50000000E-01  5.00000000E-01
                       1.25000000E-01  3.75000000E-01 -3.75000000E-01
         kptrlatt        4    4   -4     -4    4    4      4   -4    4
          kptrlen1     8.25132740E+01
          kptrlen2     8.24306781E+01
          kptrlen3     8.23480822E+01
          kptrlen4     8.22654864E+01
          kptrlen5     8.21828905E+01
          kptrlen6     8.21002946E+01
          kptrlen7     8.20176988E+01
          kptrlen8     8.19351029E+01
          kptrlen9     8.18525070E+01
          kptrlen10    8.17699112E+01
P           mkmem           6
            natom           9
            nband          42
           ndtset          10
            ngfft          64      64      64
          ngfftdg         100     100     100
             nkpt          32
            nstep          50
             nsym           4
            ntime        1000
           ntypat           4
              occ      2.000000  2.000000  2.000000  2.000000  2.000000  2.000000
                       2.000000  2.000000  2.000000  2.000000  2.000000  2.000000
                       2.000000  2.000000  2.000000  2.000000  2.000000  2.000000
                       2.000000  2.000000  2.000000  2.000000  2.000000  2.000000
                       2.000000  2.000000  2.000000  2.000000  2.000000  2.000000
                       2.000000  2.000000  2.000000  2.000000  2.000000  2.000000
                       0.000000  0.000000  0.000000  0.000000  0.000000  0.000000
          optcell           3
        optforces           1
        pawecutdg      4.00000000E+01 Hartree
            prtwf           0
            rprim      0.0000000000E+00  6.9836594606E-01  7.1574087866E-01
                       7.0573259586E-01  0.0000000000E+00  7.0847830111E-01
                       7.1438399280E-01  6.9975389304E-01  0.0000000000E+00
           shiftk     -5.00000000E-01  5.00000000E-01  5.00000000E-01
          spgroup          42
           symrel      1  0  0   0  1  0   0  0  1       0  1 -1   1  0 -1   0  0 -1
                       1  0  0   1  0 -1   1 -1  0       0  1 -1   0  1  0  -1  1  0
           toldff      1.00000000E-08
           tolmxf      1.00000000E-05
            typat      1  1  4  4  2  4  2  2  3
           useylm           1
              wtk        0.03125    0.03125    0.03125    0.03125    0.03125    0.03125
                         0.03125    0.03125    0.03125    0.03125    0.03125    0.03125
                         0.03125    0.03125    0.03125    0.03125    0.03125    0.03125
                         0.03125    0.03125    0.03125    0.03125    0.03125    0.03125
                         0.03125    0.03125    0.03125    0.03125    0.03125    0.03125
                         0.03125    0.03125
           xangst1     2.7860657369E+00  2.7290089998E+00  2.8060191708E+00
                       8.3581972108E+00  8.1870269994E+00  8.3998294373E+00
                       5.5721314738E+00  8.3203638309E+00  5.6184656010E+00
                       5.5721314738E+00  5.4580179996E+00  2.6645079649E+00
                       5.5721314739E+00  5.4580179996E+00  8.4001962054E+00
                       5.5721314739E+00  2.5956721683E+00  5.6184656011E+00
                       8.2982276469E+00  5.4580179996E+00  5.5884652612E+00
                       2.8460353008E+00  5.4580179996E+00  5.5884652611E+00
                       9.1660680133E-13  5.3657902779E-14  6.6067629159E-02
           xangst2     2.7832768823E+00  2.7262772591E+00  2.8032103428E+00
                       8.3498306470E+00  8.1788317772E+00  8.3914211997E+00
                       5.5665537646E+00  8.3120351383E+00  5.6128415113E+00
                       5.5665537646E+00  5.4525545181E+00  2.6618407898E+00
                       5.5665537647E+00  5.4525545181E+00  8.3917876006E+00
                       5.5665537647E+00  2.5930738979E+00  5.6128415114E+00
                       8.2899211127E+00  5.4525545181E+00  5.5828712019E+00
                       2.8431864166E+00  5.4525545181E+00  5.5828712018E+00
                       9.1569907556E-13  5.3614511834E-14  6.6001495396E-02
           xangst3     2.7804880278E+00  2.7235455183E+00  2.8004015148E+00
                       8.3414640833E+00  8.1706365549E+00  8.3830129620E+00
                       5.5609760555E+00  8.3037064458E+00  5.6072174216E+00
                       5.5609760555E+00  5.4470910366E+00  2.6591736146E+00
                       5.5609760555E+00  5.4470910366E+00  8.3833789957E+00
                       5.5609760555E+00  2.5904756274E+00  5.6072174217E+00
                       8.2816145786E+00  5.4470910366E+00  5.5772771426E+00
[...]
                       9.2689435687E-13  5.4283472818E-14  6.6824066005E-02
           xangst7     2.7705326396E+00  2.7111863316E+00  2.7897728745E+00
                       8.3115979188E+00  8.1335589949E+00  8.3505143203E+00
                       5.5410652791E+00  8.2492033129E+00  5.5838793547E+00
                       5.5410652791E+00  5.4223726632E+00  2.6657902627E+00
                       5.5410652792E+00  5.4223726632E+00  8.3384638957E+00
                       5.5410652792E+00  2.5955420136E+00  5.5838793549E+00
                       8.2393819738E+00  5.4223726632E+00  5.5534153822E+00
                       2.8427485846E+00  5.4223726632E+00  5.5534153821E+00
                       9.2611205288E-13  5.4487262624E-14  6.6800739695E-02
           xangst8     2.7678803299E+00  2.7082570618E+00  2.7870631472E+00
                       8.3036409896E+00  8.1247711853E+00  8.3423362880E+00
                       5.5357606597E+00  8.2379218226E+00  5.5782887845E+00
                       5.5357606597E+00  5.4165141235E+00  2.6654841853E+00
                       5.5357606598E+00  5.4165141235E+00  8.3286160552E+00
                       5.5357606598E+00  2.5951064245E+00  5.5782887847E+00
                       8.2297168575E+00  5.4165141235E+00  5.5476282300E+00
                       2.8418044620E+00  5.4165141235E+00  5.5476282299E+00
                       9.2675294405E-13  5.4506990949E-14  6.6851421785E-02
           xangst9     2.7653252779E+00  2.7051853341E+00  2.7842199653E+00
                       8.2959758337E+00  8.1155560023E+00  8.3341219070E+00
                       5.5306505558E+00  8.2260671033E+00  5.5726201336E+00
                       5.5306505558E+00  5.4103706682E+00  2.6653872987E+00
                       5.5306505559E+00  5.4103706682E+00  8.3190435693E+00
                       5.5306505559E+00  2.5946742331E+00  5.5726201337E+00
                       8.2204321686E+00  5.4103706682E+00  5.5420571972E+00
                       2.8408689431E+00  5.4103706682E+00  5.5420571971E+00
                       9.3006468065E-13  5.4659771206E-14  6.7088131145E-02
           xangst10    2.7628460626E+00  2.7019843906E+00  2.7812742050E+00
                       8.2885381879E+00  8.1059531718E+00  8.3259180418E+00
                       5.5256921252E+00  8.2136826836E+00  5.5672791151E+00
                       5.5256921252E+00  5.4039687812E+00  2.6653295005E+00
                       5.5256921253E+00  5.4039687812E+00  8.3097249531E+00
                       5.5256921253E+00  2.5942548788E+00  5.5672791152E+00
                       8.2114612648E+00  5.4039687812E+00  5.5364824221E+00
                       2.8399229858E+00  5.4039687812E+00  5.5364824220E+00
                       9.3521814174E-13  5.4187082249E-14  6.7380919581E-02
            xcart1     5.2648685252E+00  5.1570616538E+00  5.3029777852E+00
                       1.5794605576E+01  1.5471184961E+01  1.5873849729E+01
                       1.0529737050E+01  1.5718905465E+01  1.0617143985E+01
                       1.0529737050E+01  1.0314123308E+01  5.0395463784E+00
                       1.0529737050E+01  1.0314123308E+01  1.5870689572E+01
                       1.0529737050E+01  4.9093411498E+00  1.0617143986E+01
                       1.5677431126E+01  1.0314123308E+01  1.0560344731E+01
                       5.3820429745E+00  1.0314123308E+01  1.0560344731E+01
                       1.7333054347E-12  1.0147349534E-13  1.2493465526E-01
            xcart2     5.2596820795E+00  5.1517409573E+00  5.2981135600E+00
                       1.5779046238E+01  1.5455222872E+01  1.5858560853E+01
                       1.0519364159E+01  1.5698155510E+01  1.0606200545E+01
                       1.0519364159E+01  1.0303481915E+01  5.0393056150E+00
                       1.0519364159E+01  1.0303481915E+01  1.5851835711E+01
                       1.0519364159E+01  4.9088083190E+00  1.0606200545E+01
                       1.5658353523E+01  1.0303481915E+01  1.0549130760E+01
                       5.3803747951E+00  1.0303481915E+01  1.0549130759E+01
                       1.7355626279E-12  1.0160826857E-13  1.2509999883E-01
            xcart3     5.2545621574E+00  5.1464329590E+00  5.2928437952E+00
                       1.5763686472E+01  1.5439298877E+01  1.5842706857E+01
                       1.0509124315E+01  1.5677612867E+01  1.0595247097E+01
                       1.0509124315E+01  1.0292865918E+01  5.0389843023E+00
                       1.0509124315E+01  1.0292865918E+01  1.5832660272E+01
                       1.0509124315E+01  4.9081189694E+00  1.0595247097E+01
                       1.5639535302E+01  1.0292865918E+01  1.0537945892E+01
                       5.3787133274E+00  1.0292865918E+01  1.0537945892E+01
                       1.7386450790E-12  1.0182107173E-13  1.2532329121E-01
            xcart4     5.2495522371E+00  5.1410895909E+00  5.2874656363E+00
                       1.5748656711E+01  1.5423268773E+01  1.5826596146E+01
                       1.0499104474E+01  1.5656985888E+01  1.0584000280E+01
                       1.0499104474E+01  1.0282179182E+01  5.0387727276E+00
                       1.0499104474E+01  1.0282179182E+01  1.5813290523E+01
                       1.0499104474E+01  4.9073724752E+00  1.0584000281E+01
                       1.5621173626E+01  1.0282179182E+01  1.0526609595E+01
                       5.3770353220E+00  1.0282179182E+01  1.0526609595E+01
                       1.7438506632E-12  1.0204279541E-13  1.2569929022E-01
            xcart5     5.2444597271E+00  5.1357843574E+00  5.2822034071E+00
                       1.5733379181E+01  1.5407353072E+01  1.5810689028E+01
                       1.0488919454E+01  1.5636516217E+01  1.0572956756E+01
                       1.0488919454E+01  1.0271568715E+01  5.0384117974E+00
                       1.0488919454E+01  1.0271568715E+01  1.5794015844E+01
                       1.0488919454E+01  4.9066212128E+00  1.0572956756E+01
                       1.5602487775E+01  1.0271568715E+01  1.0515393163E+01
                       5.3753511335E+00  1.0271568715E+01  1.0515393163E+01
                       1.7461530060E-12  1.0222084977E-13  1.2586505546E-01
            xcart6     5.2403168802E+00  5.1292487126E+00  5.2765502957E+00
                       1.5720950641E+01  1.5387746138E+01  1.5795007558E+01
                       1.0480633760E+01  1.5611315977E+01  1.0562888719E+01
                       1.0480633760E+01  1.0258497425E+01  5.0381579228E+00
                       1.0480633761E+01  1.0258497425E+01  1.5775968451E+01
                       1.0480633761E+01  4.9056788731E+00  1.0562888719E+01
                       1.5587530890E+01  1.0258497425E+01  1.0504958625E+01
                       5.3737366308E+00  1.0258497425E+01  1.0504958625E+01
                       1.7515764886E-12  1.0258089717E-13  1.2627918384E-01
            xcart7     5.2355479310E+00  5.1233996620E+00  5.2719067057E+00
                       1.5706643793E+01  1.5370198986E+01  1.5780185134E+01
                       1.0471095862E+01  1.5588735076E+01  1.0552002740E+01
                       1.0471095862E+01  1.0246799324E+01  5.0376135243E+00
                       1.0471095862E+01  1.0246799324E+01  1.5757413132E+01
                       1.0471095862E+01  4.9048635720E+00  1.0552002740E+01
                       1.5570175435E+01  1.0246799324E+01  1.0494434174E+01
                       5.3720162895E+00  1.0246799324E+01  1.0494434174E+01
                       1.7500981483E-12  1.0296600409E-13  1.2623510350E-01
            xcart8     5.2305357920E+00  5.1178641442E+00  5.2667860632E+00
                       1.5691607376E+01  1.5353592433E+01  1.5764730893E+01
                       1.0461071584E+01  1.5567416149E+01  1.0541438093E+01
                       1.0461071584E+01  1.0235728288E+01  5.0370351218E+00
                       1.0461071584E+01  1.0235728288E+01  1.5738803410E+01
                       1.0461071584E+01  4.9040404279E+00  1.0541438093E+01
                       1.5551911012E+01  1.0235728288E+01  1.0483498042E+01
                       5.3702321563E+00  1.0235728288E+01  1.0483498042E+01
                       1.7513092571E-12  1.0300328522E-13  1.2633087877E-01
            xcart9     5.2257074436E+00  5.1120594202E+00  5.2614132282E+00
                       1.5677122331E+01  1.5336178260E+01  1.5749207962E+01
                       1.0451414887E+01  1.5545013976E+01  1.0530725895E+01
                       1.0451414887E+01  1.0224118840E+01  5.0368520326E+00
                       1.0451414887E+01  1.0224118840E+01  1.5720714033E+01
                       1.0451414887E+01  4.9032237047E+00  1.0530725895E+01
                       1.5534365493E+01  1.0224118840E+01  1.0472970316E+01
                       5.3684642818E+00  1.0224118840E+01  1.0472970315E+01
                       1.7575675323E-12  1.0329199806E-13  1.2677819463E-01
            xcart10    5.2210224057E+00  5.1060105136E+00  5.2558465479E+00
                       1.5663067217E+01  1.5318031541E+01  1.5733704904E+01
                       1.0442044811E+01  1.5521610814E+01  1.0520632833E+01
                       1.0442044811E+01  1.0212021027E+01  5.0367428099E+00
                       1.0442044811E+01  1.0212021027E+01  1.5703104401E+01
                       1.0442044811E+01  4.9024312399E+00  1.0520632833E+01
                       1.5517412941E+01  1.0212021027E+01  1.0462435517E+01
                       5.3666766816E+00  1.0212021027E+01  1.0462435517E+01
                       1.7673061624E-12  1.0239874539E-13  1.2733148459E-01
             xred1     2.5082972404E-01  2.5082972404E-01  2.4917027596E-01
                       7.5082972404E-01  7.5082972404E-01  7.4917027596E-01
                       7.6419745851E-01  2.4017985695E-01  7.5982014305E-01
                       2.3836947439E-01  2.3836947439E-01  7.6163052561E-01
                       7.5068024924E-01  7.5068024924E-01  2.4931975076E-01
                       2.4017985695E-01  7.6419745851E-01  2.3580254149E-01
                       2.5506604301E-01  7.4393808713E-01  7.4493395699E-01
                       7.4393808713E-01  2.5506604301E-01  2.5606191287E-01
                       5.9093826846E-03  5.9093826846E-03 -5.9093826846E-03
             xred2     2.5084702441E-01  2.5084702441E-01  2.4915297559E-01
                       7.5084702441E-01  7.5084702441E-01  7.4915297559E-01
                       7.6395511667E-01  2.4037739408E-01  7.5962260592E-01
                       2.3859337938E-01  2.3859337938E-01  7.6140662062E-01
                       7.5052861261E-01  7.5052861261E-01  2.4947138739E-01
                       2.4037739408E-01  7.6395511667E-01  2.3604488333E-01
                       2.5520089450E-01  7.4372750943E-01  7.4479910550E-01
                       7.4372750943E-01  2.5520089450E-01  2.5627249057E-01
                       5.9230445149E-03  5.9230445149E-03 -5.9230445149E-03
             xred3     2.5084893349E-01  2.5084893349E-01  2.4915106651E-01
                       7.5084893349E-01  7.5084893349E-01  7.4915106651E-01
                       7.6372758865E-01  2.4057427143E-01  7.5942572857E-01
                       2.3881752174E-01  2.3881752174E-01  7.6118247826E-01
                       7.5037278584E-01  7.5037278584E-01  2.4962721416E-01
                       2.4057427143E-01  7.6372758865E-01  2.3627241135E-01
                       2.5534202543E-01  7.4352837034E-01  7.4465797457E-01
                       7.4352837034E-01  2.5534202543E-01  2.5647162966E-01
                       5.9395695695E-03  5.9395695695E-03 -5.9395695695E-03
             xred4     2.5084923427E-01  2.5084923427E-01  2.4915076573E-01
                       7.5084923427E-01  7.5084923427E-01  7.4915076573E-01
                       7.6349387740E-01  2.4076356785E-01  7.5923643215E-01
                       2.3905068464E-01  2.3905068464E-01  7.6094931536E-01
                       7.5021798567E-01  7.5021798567E-01  2.4978201433E-01
                       2.4076356785E-01  7.6349387740E-01  2.3650612260E-01
                       2.5547712063E-01  7.4333483886E-01  7.4452287937E-01
                       7.4333483886E-01  2.5547712063E-01  2.5666516114E-01
                       5.9634563833E-03  5.9634563833E-03 -5.9634563833E-03
             xred5     2.5085295251E-01  2.5085295251E-01  2.4914704749E-01
                       7.5085295251E-01  7.5085295251E-01  7.4914704749E-01
                       7.6326716002E-01  2.4095672712E-01  7.5904327288E-01
                       2.3927523761E-01  2.3927523761E-01  7.6072476239E-01
                       7.5006113947E-01  7.5006113947E-01  2.4993886053E-01
                       2.4095672712E-01  7.6326716002E-01  2.3673283998E-01
                       2.5561774499E-01  7.4313872778E-01  7.4438225501E-01
                       7.4313872778E-01  2.5561774499E-01  2.5686127222E-01
                       5.9773579975E-03  5.9773579975E-03 -5.9773579975E-03
             xred6     2.5082339377E-01  2.5082339377E-01  2.4917660623E-01
                       7.5082339377E-01  7.5082339377E-01  7.4917660623E-01
                       7.6300888315E-01  2.4121525877E-01  7.5878474123E-01
                       2.3949129597E-01  2.3949129597E-01  7.6050870403E-01
                       7.4991836052E-01  7.4991836052E-01  2.5008163948E-01
                       2.4121525877E-01  7.6300888315E-01  2.3699111685E-01
                       2.5572339689E-01  7.4299327450E-01  7.4427660311E-01
                       7.4299327450E-01  2.5572339689E-01  2.5700672550E-01
                       6.0027426401E-03  6.0027426401E-03 -6.0027426401E-03
             xred7     2.5084540449E-01  2.5084540449E-01  2.4915459551E-01
                       7.5084540449E-01  7.5084540449E-01  7.4915459551E-01
                       7.6274409668E-01  2.4141684286E-01  7.5858315714E-01
                       2.3969737567E-01  2.3969737567E-01  7.6030262433E-01
                       7.4976187770E-01  7.4976187770E-01  2.5023812230E-01
                       2.4141684286E-01  7.6274409668E-01  2.3725590332E-01
                       2.5585770069E-01  7.4282483763E-01  7.4414229931E-01
                       7.4282483763E-01  2.5585770069E-01  2.5717516237E-01
                       6.0064597811E-03  6.0064597811E-03 -6.0064597811E-03
             xred8     2.5084843504E-01  2.5084843504E-01  2.4915156496E-01
                       7.5084843504E-01  7.5084843504E-01  7.4915156496E-01
                       7.6251648161E-01  2.4162654488E-01  7.5837345512E-01
                       2.3990577220E-01  2.3990577220E-01  7.6009422780E-01
                       7.4961355131E-01  7.4961355131E-01  2.5038644869E-01
                       2.4162654488E-01  7.6251648161E-01  2.3748351839E-01
                       2.5598888549E-01  7.4263496059E-01  7.4401111451E-01
                       7.4263496059E-01  2.5598888549E-01  2.5736503941E-01
                       6.0169338294E-03  6.0169338294E-03 -6.0169338294E-03
             xred9     2.5083505930E-01  2.5083505930E-01  2.4916494070E-01
                       7.5083505930E-01  7.5083505930E-01  7.4916494070E-01
                       7.6225961567E-01  2.4183382458E-01  7.5816617542E-01
                       2.4012922451E-01  2.4012922451E-01  7.5987077549E-01
                       7.4947662650E-01  7.4947662650E-01  2.5052337350E-01
                       2.4183382458E-01  7.6225961567E-01  2.3774038433E-01
                       2.5612279981E-01  7.4246370774E-01  7.4387720019E-01
                       7.4246370774E-01  2.5612279981E-01  2.5753629226E-01
                       6.0440825667E-03  6.0440825667E-03 -6.0440825667E-03
             xred10    2.5080729140E-01  2.5080729140E-01  2.4919270860E-01
                       7.5080729140E-01  7.5080729140E-01  7.4919270860E-01
                       7.6200881315E-01  2.4207355517E-01  7.5792644483E-01
                       2.4035173214E-01  2.4035173214E-01  7.5964826786E-01
                       7.4934704533E-01  7.4934704533E-01  2.5065295467E-01
                       2.4207355517E-01  7.6200881315E-01  2.3799118685E-01
                       2.5623844061E-01  7.4228961367E-01  7.4376155939E-01
                       7.4228961367E-01  2.5623844061E-01  2.5771038633E-01
                       6.0762171173E-03  6.0762171173E-03 -6.0762171173E-03
            znucl       55.00000   53.00000   72.00000   35.00000

- Timing analysis has been suppressed with timopt=0

 Suggested references for the acknowledgment of ABINIT usage.

 Calculation completed.
.Delivered   0 WARNINGs and 154 COMMENTs to log file.