.Version 9.2.2 of ABINIT

 ABINIT is a project of the Universite Catholique de Louvain,
 Corning Inc. and other collaborators, see ~abinit/doc/developers/contributors.txt .
 acknowledgments of the ABINIT effort.

.Starting date : Sat 10 Dec 2022.
- ( at 23h42 )

- The starting date is more than 2 years after the initial release
- of this version of ABINIT, namely Nov 2020.
- Note that the use beyond 3 years after the release will not be supported.
- Action: please, switch to a more recent version of ABINIT.

- input  file    -> Cs2TiI6.in
- output file    -> Cs2TiI6.out
- root for input  files -> Cs2TiI6i
- root for output files -> Cs2TiI6o

- inpspheads : Reading pseudopotential header in XML form from
-   ../../../Psps_for_tests/ATOMICDATA/Cs.GGA_PBE-JTH.xml
- inpspheads : Reading pseudopotential header in XML form from
-   ../../../Psps_for_tests/ATOMICDATA/I.GGA_PBE-JTH.xml
- inpspheads : Reading pseudopotential header in XML form from
-   ../../../Psps_for_tests/ATOMICDATA/Zr.GGA_PBE-JTH.xml
- inpspheads : Reading pseudopotential header in XML form from
-   ../../../Psps_for_tests/ATOMICDATA/Cl.GGA_PBE-JTH.xml

 DATASET    1 : space group Fm m 2 (# 42); Bravais oF (face-center ortho.)
     intxc =       0    ionmov =       0      iscf =      17    lmnmax =      18
     lnmax =       6     mgfft =      60  mpssoang =       3    mqgrid =    3555
     natom =       9  nloc_mem =       2    nspden =       1   nspinor =       1
    nsppol =       1      nsym =       4    n1xccc =       1    ntypat =       4
    occopt =       1   xclevel =       2
-    mband =          42        mffmem =           1         mkmem =          70
       mpw =        7764          nfft =      216000          nkpt =         280
Pmy_natom=         3
 PAW method is used; the additional fine FFT grid is defined by:
   mgfftf=        90    nfftf =    729000
  Rough estimation (10% accuracy) of disk space for files :

[...]

 DATASET   10 : space group Fm m 2 (# 42); Bravais oF (face-center ortho.)
     intxc =       0    ionmov =       0      iscf =      17    lmnmax =      18
     lnmax =       6     mgfft =      54  mpssoang =       3    mqgrid =    3231
     natom =       9  nloc_mem =       2    nspden =       1   nspinor =       1
    nsppol =       1      nsym =       4    n1xccc =       1    ntypat =       4
    occopt =       1   xclevel =       2
-    mband =          42        mffmem =           1         mkmem =          70
       mpw =        5853          nfft =      157464          nkpt =         280
Pmy_natom=         3
 PAW method is used; the additional fine FFT grid is defined by:
   mgfftf=        90    nfftf =    729000
  Rough estimation (10% accuracy) of disk space for files :

------------- Echo of variables that govern the present computation ------------
-
- outvars: echo of selected default values
-   iomode0 =  0 , fftalg0 =112 , wfoptalg0 = 10
-
- outvars: echo of global parameters not present in the input file
-  max_nthreads =    0
-
 -outvars: echo values of preprocessed input variables --------
            acell1     1.5280891701E+01  1.5152558974E+01  1.5460009124E+01 Bohr
            acell2     1.5145882349E+01  1.4988223827E+01  1.5295833374E+01 Bohr
            acell3     1.5009071163E+01  1.4825637044E+01  1.5131844743E+01 Bohr
            acell4     1.4865759558E+01  1.4662068010E+01  1.4976093619E+01 Bohr
            acell5     1.4721259568E+01  1.4500901413E+01  1.4818925527E+01 Bohr
            acell6     1.4572218011E+01  1.4340209290E+01  1.4666063482E+01 Bohr
            acell7     1.4418338873E+01  1.4183912127E+01  1.4513203786E+01 Bohr
            acell8     1.4258643940E+01  1.4029153988E+01  1.4364703883E+01 Bohr
            acell9     1.4097767019E+01  1.3876952035E+01  1.4214498571E+01 Bohr
            acell10    1.3931200635E+01  1.3725745396E+01  1.4069293778E+01 Bohr
              amu      1.32905430E+02  1.26904470E+02  9.12240000E+01
                       3.54527000E+01
           diemac      1.20000000E+01
             ecut      1.60000000E+01 Hartree
-          fftalg         112
           istwfk        2    0    0    0    0    0    3    0    0    0
                         0    0    0    0    0    0    0    0    0    0
                         0    0    0    0    0    0    0    0    0    0
                         0    0    0    0    0    0    0    0    0    0
                         0    0    7    0    0    0    0    0    0    0
                       outvar_i_n : Printing only first  50 k-points.
              ixc     -101130
           jdtset        1    2    3    4    5    6    7    8    9   10
              kpt      0.00000000E+00  0.00000000E+00  0.00000000E+00
                       8.33333333E-02  0.00000000E+00  0.00000000E+00
                       1.66666667E-01  0.00000000E+00  0.00000000E+00
                       2.50000000E-01  0.00000000E+00  0.00000000E+00
                       3.33333333E-01  0.00000000E+00  0.00000000E+00
                       4.16666667E-01  0.00000000E+00  0.00000000E+00
                       5.00000000E-01  0.00000000E+00  0.00000000E+00
                       8.33333333E-02  8.33333333E-02  0.00000000E+00
                       1.66666667E-01  8.33333333E-02  0.00000000E+00
                       2.50000000E-01  8.33333333E-02  0.00000000E+00
                       3.33333333E-01  8.33333333E-02  0.00000000E+00
                       4.16666667E-01  8.33333333E-02  0.00000000E+00
                       5.00000000E-01  8.33333333E-02  0.00000000E+00
                      -4.16666667E-01  8.33333333E-02  0.00000000E+00
                      -3.33333333E-01  8.33333333E-02  0.00000000E+00
                      -2.50000000E-01  8.33333333E-02  0.00000000E+00
                      -1.66666667E-01  8.33333333E-02  0.00000000E+00
                      -8.33333333E-02  8.33333333E-02  0.00000000E+00
                       1.66666667E-01  1.66666667E-01  0.00000000E+00
                       2.50000000E-01  1.66666667E-01  0.00000000E+00
                       3.33333333E-01  1.66666667E-01  0.00000000E+00
                       4.16666667E-01  1.66666667E-01  0.00000000E+00
                       5.00000000E-01  1.66666667E-01  0.00000000E+00
                      -4.16666667E-01  1.66666667E-01  0.00000000E+00
                      -3.33333333E-01  1.66666667E-01  0.00000000E+00
                      -2.50000000E-01  1.66666667E-01  0.00000000E+00
                      -1.66666667E-01  1.66666667E-01  0.00000000E+00
                       2.50000000E-01  2.50000000E-01  0.00000000E+00
                       3.33333333E-01  2.50000000E-01  0.00000000E+00
                       4.16666667E-01  2.50000000E-01  0.00000000E+00
                       5.00000000E-01  2.50000000E-01  0.00000000E+00
                      -4.16666667E-01  2.50000000E-01  0.00000000E+00
                      -3.33333333E-01  2.50000000E-01  0.00000000E+00
                      -2.50000000E-01  2.50000000E-01  0.00000000E+00
                       3.33333333E-01  3.33333333E-01  0.00000000E+00
                       4.16666667E-01  3.33333333E-01  0.00000000E+00
                       5.00000000E-01  3.33333333E-01  0.00000000E+00
                      -4.16666667E-01  3.33333333E-01  0.00000000E+00
                      -3.33333333E-01  3.33333333E-01  0.00000000E+00
                       4.16666667E-01  4.16666667E-01  0.00000000E+00
                       5.00000000E-01  4.16666667E-01  0.00000000E+00
                      -4.16666667E-01  4.16666667E-01  0.00000000E+00
                       5.00000000E-01  5.00000000E-01  0.00000000E+00
                       8.33333333E-02  0.00000000E+00  8.33333333E-02
                       1.66666667E-01  0.00000000E+00  8.33333333E-02
                       2.50000000E-01  0.00000000E+00  8.33333333E-02
                       3.33333333E-01  0.00000000E+00  8.33333333E-02
                       4.16666667E-01  0.00000000E+00  8.33333333E-02
                       5.00000000E-01  0.00000000E+00  8.33333333E-02
                      -4.16666667E-01  0.00000000E+00  8.33333333E-02
                       outvar_i_n : Printing only first  50 k-points.
         kptrlatt       12    0    0      0   12    0      0    0   12
          kptrlen1     1.81830708E+02
          kptrlen2     1.79858686E+02
          kptrlen3     1.77907645E+02
          kptrlen4     1.75944816E+02
          kptrlen5     1.74010817E+02
          kptrlen6     1.72082511E+02
          kptrlen7     1.70206946E+02
          kptrlen8     1.68349848E+02
          kptrlen9     1.66523424E+02
          kptrlen10    1.64708945E+02
P           mkmem          70
            natom           9
            nband          42
           ndtset          10
            ngfft1         60      60      60
            ngfft2         60      60      60
            ngfft3         60      60      60
            ngfft4         54      54      54
            ngfft5         54      54      54
            ngfft6         54      54      54
            ngfft7         54      54      54
            ngfft8         54      54      54
            ngfft9         54      54      54
            ngfft10        54      54      54
          ngfftdg          90      90      90
             nkpt         280
            nstep        2500
             nsym           4
           ntypat           4
              occ      2.000000  2.000000  2.000000  2.000000  2.000000  2.000000
                       2.000000  2.000000  2.000000  2.000000  2.000000  2.000000
                       2.000000  2.000000  2.000000  2.000000  2.000000  2.000000
                       2.000000  2.000000  2.000000  2.000000  2.000000  2.000000
                       2.000000  2.000000  2.000000  2.000000  2.000000  2.000000
                       2.000000  2.000000  2.000000  2.000000  2.000000  2.000000
                       0.000000  0.000000  0.000000  0.000000  0.000000  0.000000
        pawecutdg      4.00000000E+01 Hartree
            prtwf           0
            rprim1     0.0000000000E+00  7.2121657104E-01  6.9270964888E-01
                       7.1553540706E-01  0.0000000000E+00  6.9857646772E-01
                       7.0130569565E-01  7.1286066048E-01  0.0000000000E+00
            rprim2     0.0000000000E+00  7.2132143523E-01  6.9260045270E-01
                       7.1425476674E-01  0.0000000000E+00  6.9988579654E-01
                       6.9989062064E-01  7.1425003965E-01  0.0000000000E+00
            rprim3     0.0000000000E+00  7.2136002220E-01  6.9256026335E-01
                       7.1303430284E-01  0.0000000000E+00  7.0112914856E-01
                       6.9860535535E-01  7.1550720295E-01  0.0000000000E+00
            rprim4     0.0000000000E+00  7.2184330550E-01  6.9205653115E-01
                       7.1250122278E-01  0.0000000000E+00  7.0167086838E-01
                       6.9756116993E-01  7.1652523626E-01  0.0000000000E+00
            rprim5     0.0000000000E+00  7.2215858839E-01  6.9172752816E-01
                       7.1194114545E-01  0.0000000000E+00  7.0223913691E-01
                       6.9666240937E-01  7.1739911302E-01  0.0000000000E+00
[...]
                       1.8462810806E-12 -1.1510726559E-01  4.4044086723E-12
           xangst7     2.6717419891E+00  2.7650490721E+00  2.6355387515E+00
                       8.0152259674E+00  8.2814291698E+00  7.9066162544E+00
                       5.3434839783E+00  5.4382488991E+00  2.4510557752E+00
                       5.3434839782E+00  5.4382488990E+00  8.0910992307E+00
                       7.8378869601E+00  5.5567677862E+00  5.2710775030E+00
                       5.3434839783E+00  8.4582371216E+00  5.2710775029E+00
                       5.3434839782E+00  2.7542861984E+00  5.2710775030E+00
                       2.8490809965E+00  5.5567677860E+00  5.2710775029E+00
                      -9.6558506389E-13 -1.1799415002E-01  1.9298870683E-12
           xangst8     2.6449131852E+00  2.7369460626E+00  2.6044267638E+00
                       7.9347395555E+00  8.1958967376E+00  7.8132802915E+00
                       5.2898263703E+00  5.3855722699E+00  2.4477064931E+00
                       5.2898263704E+00  5.3855722700E+00  7.9700005623E+00
                       7.7428313291E+00  5.5033738157E+00  5.2088535277E+00
                       5.2898263703E+00  8.3426816127E+00  5.2088535277E+00
                       5.2898263704E+00  2.7392271130E+00  5.2088535277E+00
                       2.8368214115E+00  5.5033738158E+00  5.2088535277E+00
                       2.8785675705E-12 -1.2103829715E-01  1.7974077312E-12
           xangst9     2.6184563934E+00  2.7092344567E+00  2.5738968300E+00
                       7.8553691802E+00  8.1087768536E+00  7.7216904901E+00
                       5.2369127868E+00  5.3298965818E+00  2.4435130764E+00
                       5.2369127868E+00  5.3298965819E+00  7.8520742437E+00
                       7.6505454283E+00  5.4484358886E+00  5.1477936600E+00
                       5.2369127868E+00  8.2236016907E+00  5.1477936601E+00
                       5.2369127868E+00  2.7226787262E+00  5.1477936600E+00
                       2.8232801454E+00  5.4484358887E+00  5.1477936601E+00
                      -3.8929744631E-13 -1.2461749256E-01 -1.8410668361E-12
           xangst10    2.5942016255E+00  2.6809474221E+00  2.5414930981E+00
                       7.7826048764E+00  8.0204908851E+00  7.6244792944E+00
                       5.1884032509E+00  5.2758190429E+00  2.4386198748E+00
                       5.1884032509E+00  5.2758190427E+00  7.7273525178E+00
                       7.5682135978E+00  5.3915261195E+00  5.0829861964E+00
                       5.1884032509E+00  8.1038544000E+00  5.0829861962E+00
                       5.1884032509E+00  2.7050692609E+00  5.0829861964E+00
                       2.8085929040E+00  5.3915261193E+00  5.0829861962E+00
                      -2.0099080628E-12 -1.2870458848E-01  3.5641475312E-12
            xcart1     5.4210962267E+00  5.4921592178E+00  5.2926105624E+00
                       1.6263288680E+01  1.6512991533E+01  1.5877831687E+01
                       1.0842192453E+01  1.0900779923E+01  4.6449129966E+00
                       1.0842192453E+01  1.0900779923E+01  1.6525529253E+01
                       1.6199350672E+01  1.1012480856E+01  1.0585221125E+01
                       1.0842192453E+01  1.7200058740E+01  1.0585221125E+01
                       1.0842192453E+01  5.3308538460E+00  1.0585221125E+01
                       5.4850342352E+00  1.1012480856E+01  1.0585221125E+01
                      -3.7550269001E-15 -1.9592637290E-01  1.8035132049E-12
            xcart2     5.3527051567E+00  5.4515712004E+00  5.2450224858E+00
                       1.6058115470E+01  1.6376620794E+01  1.5735067458E+01
                       1.0705410313E+01  1.0795478505E+01  4.6447531314E+00
                       1.0705410313E+01  1.0795478505E+01  1.6335336812E+01
                       1.5938733002E+01  1.0932266797E+01  1.0490044972E+01
                       1.0705410313E+01  1.7002870125E+01  1.0490044972E+01
                       1.0705410313E+01  5.3142180303E+00  1.0490044972E+01
                       5.4720876244E+00  1.0932266797E+01  1.0490044972E+01
                       6.0439805620E-13 -2.0037400303E-01  3.8640606301E-12
            xcart3     5.2855938869E+00  5.4150938802E+00  5.1973431387E+00
                       1.5856781661E+01  1.6242037788E+01  1.5592029416E+01
                       1.0571187774E+01  1.0680979428E+01  4.6441042670E+00
                       1.0571187774E+01  1.0680979427E+01  1.6145268288E+01
                       1.5685129590E+01  1.0853752191E+01  1.0394686277E+01
                       1.0571187774E+01  1.6800111697E+01  1.0394686277E+01
                       1.0571187774E+01  5.2949903658E+00  1.0394686277E+01
                       5.4572459577E+00  1.0853752191E+01  1.0394686277E+01
                       4.0816955227E-13 -2.0614570772E-01  2.2195499998E-12
            xcart4     5.2233706929E+00  5.3654910711E+00  5.1439729964E+00
                       1.5670112079E+01  1.6096240089E+01  1.5431918989E+01
                       1.0446741386E+01  1.0587505476E+01  4.6423473030E+00
                       1.0446741386E+01  1.0587505476E+01  1.5933544682E+01
                       1.5451503619E+01  1.0767708316E+01  1.0287945993E+01
                       1.0446741386E+01  1.6605504146E+01  1.0287945993E+01
                       1.0446741386E+01  5.2767959925E+00  1.0287945993E+01
                       5.4419791527E+00  1.0767708316E+01  1.0287945993E+01
                      -2.3538090773E-12 -2.0846673473E-01  1.9804208654E-12
            xcart5     5.1618941810E+00  5.3189536231E+00  5.0915502463E+00
                       1.5485682543E+01  1.5950037652E+01  1.5274650739E+01
                       1.0323788362E+01  1.0483106690E+01  4.6398492408E+00
                       1.0323788362E+01  1.0483106690E+01  1.5726351744E+01
                       1.5223070912E+01  1.0683270792E+01  1.0183100493E+01
                       1.0323788362E+01  1.6403312111E+01  1.0183100492E+01
                       1.0323788362E+01  5.2557764818E+00  1.0183100493E+01
                       5.4245058124E+00  1.0683270792E+01  1.0183100492E+01
                       1.1407883791E-12 -2.1216260096E-01  3.0706434072E-12
            xcart6     5.1037422882E+00  5.2758819926E+00  5.0360912693E+00
                       1.5311226865E+01  1.5806821014E+01  1.5108273808E+01
                       1.0207484576E+01  1.0379280005E+01  4.6365540016E+00
                       1.0207484577E+01  1.0379280005E+01  1.5507811076E+01
                       1.5009774530E+01  1.0596536897E+01  1.0072182539E+01
                       1.0207484576E+01  1.6199557331E+01  1.0072182538E+01
                       1.0207484577E+01  5.2311392396E+00  1.0072182539E+01
                       5.4051946230E+00  1.0596536897E+01  1.0072182538E+01
                       3.4889656066E-12 -2.1752120788E-01  8.3231261679E-12
            xcart7     5.0488606572E+00  5.2251854902E+00  4.9804464529E+00
                       1.5146581972E+01  1.5649633120E+01  1.4941339359E+01
                       1.0097721314E+01  1.0276801062E+01  4.6318241515E+00
                       1.0097721314E+01  1.0276801062E+01  1.5289961660E+01
                       1.4811459815E+01  1.0500769300E+01  9.9608929058E+00
                       1.0097721314E+01  1.5983751727E+01  9.9608929057E+00
                       1.0097721314E+01  5.2048466065E+00  9.9608929059E+00
                       5.3839828137E+00  1.0500769300E+01  9.9608929057E+00
                      -1.8246913288E-12 -2.2297662883E-01  3.6469580264E-12
            xcart8     4.9981615652E+00  5.1720784988E+00  4.9216533168E+00
                       1.4994484696E+01  1.5488000247E+01  1.4764959950E+01
                       9.9963231303E+00  1.0177256659E+01  4.6254949257E+00
                       9.9963231306E+00  1.0177256659E+01  1.5061118342E+01
                       1.4631830705E+01  1.0399869319E+01  9.8433066337E+00
                       9.9963231303E+00  1.5765383462E+01  9.8433066336E+00
                       9.9963231305E+00  5.1763890593E+00  9.8433066337E+00
                       5.3608155556E+00  1.0399869319E+01  9.8433066336E+00
                       5.4397043633E-12 -2.2872923320E-01  3.3966083611E-12
            xcart9     4.9481654744E+00  5.1197111529E+00  4.8639601031E+00
                       1.4844496423E+01  1.5323367526E+01  1.4591880309E+01
                       9.8963309489E+00  1.0072044856E+01  4.6175705166E+00
                       9.8963309489E+00  1.0072044856E+01  1.4838269896E+01
                       1.4457435627E+01  1.0296051682E+01  9.7279202060E+00
                       9.8963309489E+00  1.5540355021E+01  9.7279202062E+00
                       9.8963309489E+00  5.1451171403E+00  9.7279202060E+00
                       5.3352262712E+00  1.0296051682E+01  9.7279202062E+00
                      -7.3566555776E-13 -2.3549293230E-01 -3.4791121125E-12
            xcart10    4.9023306056E+00  5.0662564045E+00  4.8027259241E+00
                       1.4706991817E+01  1.5156531224E+01  1.4408177772E+01
                       9.8046612113E+00  9.9698531177E+00  4.6083237056E+00
                       9.8046612111E+00  9.9698531173E+00  1.4602579991E+01
                       1.4301851015E+01  1.0188507804E+01  9.6054518484E+00
                       9.8046612113E+00  1.5314065437E+01  9.6054518481E+00
                       9.8046612111E+00  5.1118400736E+00  9.6054518484E+00
                       5.3074714073E+00  1.0188507804E+01  9.6054518481E+00
                      -3.7981757910E-12 -2.4321642427E-01  6.7352627311E-12
             xred1     2.4917170776E-01  2.5082829224E-01  2.4917170776E-01
                       7.4917170776E-01  7.5082829224E-01  7.4917170776E-01
                       2.1395896039E-01  2.2485218411E-01  7.7514781589E-01
                       7.7514781589E-01  7.8604103961E-01  2.1395896039E-01
                       2.5256967954E-01  7.4743032046E-01  7.4667253201E-01
                       7.8034300170E-01  2.1965699830E-01  7.8034300170E-01
                       2.4185350496E-01  7.5814649504E-01  2.4185350496E-01
                       7.4667253201E-01  2.5332746799E-01  2.5256967954E-01
                      -8.8889099886E-03  8.8889099886E-03 -8.8889099886E-03
             xred2     2.4949869351E-01  2.5050130649E-01  2.4949869351E-01
                       7.4949869351E-01  7.5050130649E-01  7.4949869351E-01
                       2.1545861860E-01  2.2731861867E-01  7.7268138133E-01
                       7.7268138133E-01  7.8454138140E-01  2.1545861860E-01
                       2.5590610595E-01  7.4409389405E-01  7.4475450464E-01
                       7.7815986001E-01  2.2184013999E-01  7.7815986001E-01
                       2.4321253577E-01  7.5678746423E-01  2.4321253577E-01
                       7.4475450464E-01  2.5524549536E-01  2.5590610595E-01
                      -9.1703932923E-03  9.1703932923E-03 -9.1703932923E-03
             xred3     2.5007490232E-01  2.4992509768E-01  2.5007490232E-01
                       7.5007490232E-01  7.4992509768E-01  7.5007490232E-01
                       2.1664758269E-01  2.3012917835E-01  7.6987082165E-01
                       7.6987082165E-01  7.8335241731E-01  2.1664758269E-01
                       2.5935689955E-01  7.4064310045E-01  7.4311917164E-01
                       7.7584736009E-01  2.2415263991E-01  7.7584736009E-01
                       2.4452839190E-01  7.5547160810E-01  2.4452839190E-01
                       7.4311917164E-01  2.5688082836E-01  2.5935689955E-01
                      -9.5200321290E-03  9.5200321290E-03 -9.5200321290E-03
             xred4     2.5000543121E-01  2.4999456879E-01  2.5000543121E-01
                       7.5000543121E-01  7.4999456879E-01  7.5000543121E-01
                       2.1894626442E-01  2.3229515017E-01  7.6770484983E-01
                       7.6770484983E-01  7.8105373558E-01  2.1894626442E-01
                       2.6218511863E-01  7.3781488137E-01  7.4125912345E-01
                       7.7373462551E-01  2.2626537449E-01  7.7373462551E-01
                       2.4587267783E-01  7.5412732217E-01  2.4587267783E-01
                       7.4125912345E-01  2.5874087655E-01  2.6218511863E-01
                      -9.7135220651E-03  9.7135220651E-03 -9.7135220651E-03
             xred5     2.5016045441E-01  2.4983954559E-01  2.5016045441E-01
                       7.5016045441E-01  7.4983954559E-01  7.5016045441E-01
                       2.2086139317E-01  2.3478070171E-01  7.6521929829E-01
                       7.6521929829E-01  7.7913860683E-01  2.2086139317E-01
                       2.6517320507E-01  7.3482679493E-01  7.3973567941E-01
                       7.7147880998E-01  2.2852119002E-01  7.7147880998E-01
                       2.4718911390E-01  7.5281088610E-01  2.4718911390E-01
                       7.3973567941E-01  2.6026432059E-01  2.6517320507E-01
                      -9.9784086169E-03  9.9784086169E-03 -9.9784086169E-03
             xred6     2.5049437575E-01  2.4950562425E-01  2.5049437575E-01
                       7.5049437575E-01  7.4950562425E-01  7.5049437575E-01
                       2.2296566057E-01  2.3736694200E-01  7.6263305800E-01
                       7.6263305800E-01  7.7703433943E-01  2.2296566057E-01
                       2.6788077120E-01  7.3211922880E-01  7.3834829113E-01
                       7.6914116099E-01  2.3085883901E-01  7.6914116099E-01
                       2.4837002801E-01  7.5162997199E-01  2.4837002801E-01
                       7.3834829113E-01  2.6165170887E-01  2.6788077120E-01
                      -1.0327721366E-02  1.0327721366E-02 -1.0327721366E-02
             xred7     2.5062169603E-01  2.4937830397E-01  2.5062169603E-01
                       7.5062169603E-01  7.4937830397E-01  7.5062169603E-01
                       2.2541870388E-01  2.3958219467E-01  7.6041780533E-01
                       7.6041780533E-01  7.7458129612E-01  2.2541870388E-01
                       2.7025465529E-01  7.2974534471E-01  7.3706675615E-01
                       7.6664741839E-01  2.3335258161E-01  7.6664741839E-01
                       2.4964615831E-01  7.5035384169E-01  2.4964615831E-01
                       7.3706675615E-01  2.6293324385E-01  2.7025465529E-01
                      -1.0694889396E-02  1.0694889396E-02 -1.0694889396E-02
             xred8     2.5068426384E-01  2.4931573616E-01  2.5068426384E-01
                       7.5068426384E-01  7.4931573616E-01  7.5068426384E-01
                       2.2823543071E-01  2.4167728235E-01  7.5832271765E-01
                       7.5832271765E-01  7.7176456929E-01  2.2823543071E-01
                       2.7220820428E-01  7.2779179572E-01  7.3592946602E-01
                       7.6412868602E-01  2.3587131398E-01  7.6412868602E-01
                       2.5089319139E-01  7.4910680861E-01  2.5089319139E-01
                       7.3592946602E-01  2.6407053398E-01  2.7220820428E-01
                      -1.1086223741E-02  1.1086223741E-02 -1.1086223741E-02
             xred9     2.5087630187E-01  2.4912369813E-01  2.5087630187E-01
                       7.5087630187E-01  7.4912369813E-01  7.5087630187E-01
                       2.3088672458E-01  2.4378519077E-01  7.5621480923E-01
                       7.5621480923E-01  7.6911327542E-01  2.3088672458E-01
                       2.7408333151E-01  7.2591666849E-01  7.3497178616E-01
                       7.6150913227E-01  2.3849086773E-01  7.6150913227E-01
                       2.5212124714E-01  7.4787875286E-01  2.5212124714E-01
                       7.3497178616E-01  2.6502821384E-01  2.7408333151E-01
                      -1.1539634602E-02  1.1539634602E-02 -1.1539634602E-02
             xred10    2.5104650245E-01  2.4895349755E-01  2.5104650245E-01
                       7.5104650245E-01  7.4895349755E-01  7.5104650245E-01
                       2.3391341508E-01  2.4584784742E-01  7.5415215258E-01
                       7.5415215258E-01  7.6608658492E-01  2.3391341508E-01
                       2.7552832826E-01  7.2447167174E-01  7.3420708391E-01
                       7.5885274239E-01  2.4114725761E-01  7.5885274239E-01
                       2.5330529470E-01  7.4669470530E-01  2.5330529470E-01
                       7.3420708391E-01  2.6579291609E-01  2.7552832826E-01
                      -1.2052021804E-02  1.2052021804E-02 -1.2052021804E-02
            znucl       55.00000   53.00000   40.00000   17.00000

- Timing analysis has been suppressed with timopt=0

 Suggested references for the acknowledgment of ABINIT usage.

 Calculation completed.
.Delivered   0 WARNINGs and   7 COMMENTs to log file.