.Version 9.2.2 of ABINIT

 ABINIT is a project of the Universite Catholique de Louvain,
 Corning Inc. and other collaborators, see ~abinit/doc/developers/contributors.txt .
 acknowledgments of the ABINIT effort.

.Starting date : Mon 17 Jul 2023.
- ( at 20h40 )

- The starting date is more than 2 years after the initial release
- of this version of ABINIT, namely Nov 2020.
- Note that the use beyond 3 years after the release will not be supported.
- Action: please, switch to a more recent version of ABINIT.

- input  file    -> Cs2TiI6.in
- output file    -> Cs2TiI6.out
- root for input  files -> Cs2TiI6i
- root for output files -> Cs2TiI6o

 Symmetries : space group I4 m m (#107); Bravais tI (body-center tetrag.)
     intxc =       0    ionmov =       0      iscf =      17    lmnmax =       8
     lnmax =       8     mgfft =      60  mpssoang =       4    mqgrid =    3001
     natom =       9  nloc_mem =       1    nspden =       1   nspinor =       1
    nsppol =       1      nsym =       8    n1xccc =    2501    ntypat =       4
    occopt =       1   xclevel =       2
-    mband =          42        mffmem =           1         mkmem =           1
       mpw =        9465          nfft =      216000          nkpt =           4
  Rough estimation (10% accuracy) of disk space for files :

------------- Echo of variables that govern the present computation ------------
-
- outvars: echo of selected default values
-   iomode0 =  0 , fftalg0 =112 , wfoptalg0 =  0
-
- outvars: echo of global parameters not present in the input file
-  max_nthreads =    0
-
 -outvars: echo values of preprocessed input variables --------
            acell      1.4558286313E+01  1.4558286313E+01  1.4719445523E+01 Bohr
              amu      1.32905430E+02  1.26904470E+02  9.12240000E+01
                       7.99040000E+01
           diemac      1.20000000E+01
             ecut      2.00000000E+01 Hartree
-          fftalg         112
             iscf          17
           istwfk        1    1    1    1
              ixc        -428
              kpt      0.00000000E+00  0.00000000E+00  0.00000000E+00
                       5.00000000E-01  0.00000000E+00  0.00000000E+00
                       5.00000000E-01  5.00000000E-01  0.00000000E+00
                       5.00000000E-01  0.00000000E+00  5.00000000E-01
         kptns_hf      0.00000000E+00  0.00000000E+00  0.00000000E+00
                       5.00000000E-01  0.00000000E+00  0.00000000E+00
                       0.00000000E+00  5.00000000E-01  0.00000000E+00
                       5.00000000E-01  5.00000000E-01  0.00000000E+00
                       0.00000000E+00  0.00000000E+00  5.00000000E-01
                       5.00000000E-01  0.00000000E+00  5.00000000E-01
                       0.00000000E+00  5.00000000E-01  5.00000000E-01
                       5.00000000E-01  5.00000000E-01  5.00000000E-01
         kptrlatt        2    0    0      0    2    0      0    0    2
          kptrlen      2.91165726E+01
P           mkmem           1
            natom           9
            nband          42
          nbandhf          36
            ngfft          60      60      60
             nkpt           4
           nkpthf           8
-           npkpt           4
            nstep        2500
             nsym           8
           ntypat           4
              occ      2.000000  2.000000  2.000000  2.000000  2.000000  2.000000
                       2.000000  2.000000  2.000000  2.000000  2.000000  2.000000
                       2.000000  2.000000  2.000000  2.000000  2.000000  2.000000
                       2.000000  2.000000  2.000000  2.000000  2.000000  2.000000
                       2.000000  2.000000  2.000000  2.000000  2.000000  2.000000
                       2.000000  2.000000  2.000000  2.000000  2.000000  2.000000
                       0.000000  0.000000  0.000000  0.000000  0.000000  0.000000
            rprim      0.0000000000E+00  7.1493440376E-01  6.9919153193E-01
                       7.1493440376E-01  0.0000000000E+00  6.9919153193E-01
                       7.0710678119E-01  7.0710678119E-01  0.0000000000E+00
          spgroup         107
           symrel      1  0  0   0  1  0   0  0  1       1  0 -1   0  1 -1   0  0 -1
                       0  1 -1   1  0 -1   0  0 -1       0  1  0   1  0  0   0  0  1
                       1  0  0   1  0 -1   1 -1  0       0  1  0   0  1 -1  -1  1  0
                       0  1 -1   0  1  0  -1  1  0       1  0 -1   1  0  0   1 -1  0
           toldfe      1.00000000E-08 Hartree
            typat      1  1  2  4  2  2  2  2  3
          usefock           1
              wtk        0.12500    0.50000    0.12500    0.25000
           xangst      2.7538963355E+00  2.7538963355E+00  2.6886814872E+00
                       8.2616890064E+00  8.2616890064E+00  8.0751924383E+00
                       5.5077926709E+00  5.5077926709E+00  2.7424581130E+00
                       5.5077926710E+00  5.5077926710E+00  8.0984222981E+00
                       8.1920392962E+00  5.5077926709E+00  5.3927268394E+00
                       5.5077926709E+00  8.1920392962E+00  5.3927268394E+00
                       5.5077926710E+00  2.8235460457E+00  5.3927268394E+00
                       2.8235460457E+00  5.5077926710E+00  5.3927268394E+00
                      -1.1574139010E-12 -1.1574139010E-12 -8.3574084830E-02
            xcart      5.2041098724E+00  5.2041098724E+00  5.0808716693E+00
                       1.5612329617E+01  1.5612329617E+01  1.5259902179E+01
                       1.0408219745E+01  1.0408219745E+01  5.1824947645E+00
                       1.0408219745E+01  1.0408219745E+01  1.5303800252E+01
                       1.5480710740E+01  1.0408219745E+01  1.0190776836E+01
                       1.0408219745E+01  1.5480710740E+01  1.0190776836E+01
                       1.0408219745E+01  5.3357287499E+00  1.0190776836E+01
                       5.3357287499E+00  1.0408219745E+01  1.0190776836E+01
                      -2.1871952953E-12 -2.1871952953E-12 -1.5793213214E-01
             xred      2.4957542197E-01  2.4957542197E-01  2.5042457803E-01
                       7.4957542197E-01  7.4957542197E-01  7.5042457803E-01
                       2.5456720852E-01  2.5456720852E-01  7.4543279148E-01
                       7.5173172129E-01  7.5173172129E-01  2.4826827871E-01
                       2.5689981984E-01  7.4425415317E-01  7.4310018016E-01
                       7.4425415317E-01  2.5689981984E-01  7.4310018016E-01
                       2.5689981984E-01  7.4425415317E-01  2.5574584683E-01
                       7.4425415317E-01  2.5689981984E-01  2.5574584683E-01
                      -7.7577197548E-03 -7.7577197548E-03  7.7577197548E-03
            znucl       55.00000   53.00000   40.00000   35.00000

 chkinp: Checking input parameters for consistency.

== DATASET  1 ==================================================================
-   mpi_nproc: 4, omp_nthreads: -1 (-1 if OMP is not activated)

--- !DatasetInfo
iteration_state: {dtset: 1, }
dimensions: {natom: 9, nkpt: 4, mband: 42, nsppol: 1, nspinor: 1, nspden: 1, mpw: 9465, }
cutoff_energies: {ecut:  20.0, pawecutdg:  -1.0, }
electrons: {nelect:   7.20000000E+01, charge:   0.00000000E+00, occopt:   1.00000000E+00, tsmear:   1.00000000E-02, }
meta: {optdriver: 0, ionmov: 0, optcell: 0, iscf: 17, paral_kgb: 0, }
...

 Real(R)+Recip(G) space primitive vectors, cartesian coordinates (Bohr,Bohr^-1):
 R(1)=  0.0000000 10.4082197 10.1790305  G(1)= -0.0480390  0.0480390  0.0491206
 R(2)= 10.4082197  0.0000000 10.1790305  G(2)=  0.0480390 -0.0480390  0.0491206
 R(3)= 10.4082197 10.4082197  0.0000000  G(3)=  0.0480390  0.0480390 -0.0491206
 Unit cell volume ucvol=  2.2054099E+03 bohr^3
 Angles (23,13,12)=  5.96331290E+01  5.96331290E+01  6.07337419E+01 degrees

 getcut: wavevector=  0.0000  0.0000  0.0000  ngfft=  60  60  60
         ecut(hartree)=     20.000   => boxcut(ratio)=   2.02479

--- Pseudopotential description ------------------------------------------------
- pspini: atom type   1  psp file is ../../../Psps_for_tests/ONCVPSP-PBE-PDv0.4/Cs-sp.psp8
- pspatm: opening atomic psp file    ../../../Psps_for_tests/ONCVPSP-PBE-PDv0.4/Cs-sp.psp8
- Cs    ONCVPSP-3.2.3.1  r_core=   2.27353   1.85623   2.01788   1.90105
- 55.00000   9.00000    170703                znucl, zion, pspdat
    8   32    3    4       600   0.00000      pspcod,pspxc,lmax,lloc,mmax,r2well
    5.99000000000000    5.00000000000000    0.00000000000000   rchrg,fchrg,qchrg
     nproj     2     2     2     2
     extension_switch     1
  pspatm : epsatm=   22.81663475
         --- l  ekb(1:nproj) -->
             0    6.176104    0.756334
             1    6.263084    0.786397
             2    3.737592    0.906929
             3   -9.272327   -2.535859
 pspatm: atomic psp has been read  and splines computed

- pspini: atom type   2  psp file is ../../../Psps_for_tests/ONCVPSP-PBE-PDv0.4/I.psp8
- pspatm: opening atomic psp file    ../../../Psps_for_tests/ONCVPSP-PBE-PDv0.4/I.psp8
- I     ONCVPSP-3.2.3.1  r_core=   2.02042   2.17032   2.27639
- 53.00000   7.00000    170510                znucl, zion, pspdat
    8   32    2    4       600   0.00000      pspcod,pspxc,lmax,lloc,mmax,r2well
    5.99000000000000    4.00000000000000    0.00000000000000   rchrg,fchrg,qchrg
     nproj     2     2     2
     extension_switch     1
  pspatm : epsatm=   19.17050482
         --- l  ekb(1:nproj) -->
             0    5.955518    0.916455
             1    4.011347    0.742302
             2    4.134838    0.711910
 pspatm: atomic psp has been read  and splines computed

- pspini: atom type   3  psp file is ../../../Psps_for_tests/ONCVPSP-PBE-PDv0.4/Zr-sp.psp8
- pspatm: opening atomic psp file    ../../../Psps_for_tests/ONCVPSP-PBE-PDv0.4/Zr-sp.psp8
- Zr    ONCVPSP-3.2.3.1  r_core=   1.56507   1.56507   1.51006
- 40.00000  12.00000    170510                znucl, zion, pspdat
    8   32    2    4       600   0.00000      pspcod,pspxc,lmax,lloc,mmax,r2well
    5.99000000000000    5.00000000000000    0.00000000000000   rchrg,fchrg,qchrg
     nproj     2     2     2
     extension_switch     1
  pspatm : epsatm=   18.79873988
         --- l  ekb(1:nproj) -->
             0   10.621766    0.898805
             1    5.849837    0.750341
             2    1.531478    0.503023
 pspatm: atomic psp has been read  and splines computed

- pspini: atom type   4  psp file is ../../../Psps_for_tests/ONCVPSP-PBE-PDv0.4/Br.psp8
- pspatm: opening atomic psp file    ../../../Psps_for_tests/ONCVPSP-PBE-PDv0.4/Br.psp8
- Br    ONCVPSP-3.2.3.1  r_core=   1.81012   1.51356   1.92136
- 35.00000   7.00000    170504                znucl, zion, pspdat
    8   32    2    4       600   0.00000      pspcod,pspxc,lmax,lloc,mmax,r2well
    5.99000000000000    8.00000000000000    0.00000000000000   rchrg,fchrg,qchrg
     nproj     2     2     2
     extension_switch     1
  pspatm : epsatm=   11.64859511
         --- l  ekb(1:nproj) -->
             0    8.455549    0.878460
             1    5.292495    0.880691
             2    2.589748    0.385882
 pspatm: atomic psp has been read  and splines computed

   1.23791853E+04                                ecore*ucvol(ha*bohr**3)

_setup2: Arith. and geom. avg. npw (full set) are    9427.125    9427.100

--- !BeginCycle
iteration_state: {dtset: 1, }
solver: {iscf: 17, nstep: 2500, nline: 4, wfoptalg: 0, }
tolerances: {toldfe: 1.00E-08, }
...

     iter   Etot(hartree)      deltaE(h)  residm     nres2
 ETOT  1  -173.21817800927    -1.732E+02 1.498E-02 3.168E+00
 ETOT  2  -178.18090742364    -4.963E+00 3.885E-03 2.020E+00
 ETOT  3  -178.18512077257    -4.213E-03 5.268E-03 6.941E-01
 ETOT  4  -178.17229495226     1.283E-02 2.489E-03 5.751E-02
 ETOT  5  -178.17264273697    -3.478E-04 2.179E-03 7.709E-03
 ETOT  6  -178.17275389577    -1.112E-04 1.109E-03 1.399E-03
 ETOT  7  -178.17275056962     3.326E-06 1.015E-03 8.971E-05
 ETOT  8  -178.17275253910    -1.969E-06 3.439E-04 5.514E-05
 ETOT  9  -178.17275119404     1.345E-06 1.461E-04 1.743E-06
 ETOT 10  -178.17275144610    -2.521E-07 4.383E-05 1.318E-06
 ETOT 11  -178.17275141893     2.717E-08 2.031E-05 7.345E-08
 ETOT 12  -178.17275143642    -1.749E-08 6.241E-06 2.463E-08
 ETOT 13  -178.17275143676    -3.384E-10 2.986E-06 2.008E-08
 ETOT 14  -178.17275143623     5.315E-10 1.705E-06 7.124E-11

 At SCF step   14, etot is converged :
  for the second time, diff in etot=  5.315E-10 < toldfe=  1.000E-08

 Cartesian components of stress tensor (hartree/bohr^3)
  sigma(1 1)= -1.07291069E-04  sigma(3 2)= -3.37611718E-14
  sigma(2 2)= -1.07291069E-04  sigma(3 1)= -3.37615353E-14
  sigma(3 3)= -1.03698794E-04  sigma(2 1)=  6.60361178E-14

--- !ResultsGS
iteration_state: {dtset: 1, }
comment   : Summary of ground state results
lattice_vectors:
- [  0.0000000,  10.4082197,  10.1790305, ]
- [ 10.4082197,   0.0000000,  10.1790305, ]
- [ 10.4082197,  10.4082197,   0.0000000, ]
lattice_lengths: [  14.55829,   14.55829,   14.71945, ]
lattice_angles: [ 59.633,  59.633,  60.734, ] # degrees, (23, 13, 12)
lattice_volume:   2.2054099E+03
convergence: {deltae:  5.315E-10, res2:  7.124E-11, residm:  1.705E-06, diffor: null, }
etotal    :  -1.78172751E+02
entropy   :   0.00000000E+00
fermie    :   9.82355645E-02
cartesian_stress_tensor: # hartree/bohr^3
- [ -1.07291069E-04,   6.60361178E-14,  -3.37615353E-14, ]
- [  6.60361178E-14,  -1.07291069E-04,  -3.37611718E-14, ]
- [ -3.37615353E-14,  -3.37611718E-14,  -1.03698794E-04, ]
pressure_GPa:   3.1214E+00
xred      :
- [  2.4958E-01,   2.4958E-01,   2.5042E-01, Cs]
- [  7.4958E-01,   7.4958E-01,   7.5042E-01, Cs]
- [  2.5457E-01,   2.5457E-01,   7.4543E-01,  I]
- [  7.5173E-01,   7.5173E-01,   2.4827E-01, Br]
- [  2.5690E-01,   7.4425E-01,   7.4310E-01,  I]
- [  7.4425E-01,   2.5690E-01,   7.4310E-01,  I]
- [  2.5690E-01,   7.4425E-01,   2.5575E-01,  I]
- [  7.4425E-01,   2.5690E-01,   2.5575E-01,  I]
- [ -7.7577E-03,  -7.7577E-03,   7.7577E-03, Zr]
cartesian_forces: # hartree/bohr
- [  5.02392894E-20,  -5.81973449E-20,  -1.15541422E-05, ]
- [  5.02392894E-20,  -5.81973449E-20,  -1.15541422E-05, ]
- [ -3.34614559E-19,   3.26656504E-19,  -3.32974287E-03, ]
- [  1.56568848E-19,  -1.64526903E-19,   2.97250731E-03, ]
- [  2.86311956E-03,   3.87776619E-14,   1.74753786E-04, ]
- [  3.87779370E-14,   2.86311956E-03,   1.74753786E-04, ]
- [ -3.87776197E-14,  -2.86311956E-03,   1.74753786E-04, ]
- [ -2.86311956E-03,  -3.87775615E-14,   1.74753786E-04, ]
- [  3.17054028E-20,  -3.96634584E-20,  -3.18671306E-04, ]
force_length_stats: {min:   1.15541422E-05, max:   3.32974287E-03, mean:   2.01309120E-03, }
...

 Integrated electronic density in atomic spheres:
 Atom  Sphere_radius  Integrated_density
    1        2.00000          4.45444474
    2        2.00000          4.45444474
    3        2.00000          2.90440171
    4        2.00000          4.22512448
    5        2.00000          2.90281317
    6        2.00000          2.90281317
    7        2.00000          2.90281317
    8        2.00000          2.90281317
    9        2.00000          8.24286489

 ----iterations are completed or convergence reached----

 Mean square residual over all n,k,spin=   21.680E-09; max=  17.048E-07
 reduced coordinates (array xred) for    9 atoms
       0.249575421970      0.249575421970      0.250424578030
       0.749575421970      0.749575421970      0.750424578030
       0.254567208520      0.254567208520      0.745432791480
       0.751731721290      0.751731721290      0.248268278710
       0.256899819840      0.744254153170      0.743100180160
       0.744254153170      0.256899819840      0.743100180160
       0.256899819840      0.744254153170      0.255745846830
       0.744254153170      0.256899819840      0.255745846830
      -0.007757719755     -0.007757719755      0.007757719755
 rms dE/dt=  2.0439E-02; max dE/dt=  3.3766E-02; dE/dt below (all hartree)
    1      -0.000009852143     -0.000009852143      0.000000000000
    2      -0.000009852143     -0.000009852143      0.000000000000
    3       0.033766092154      0.033766092154      0.000000000000
    4      -0.030384704754     -0.030384704754      0.000000000000
    5      -0.001906286232     -0.031706263807     -0.029799977575
    6      -0.031706263807     -0.001906286232     -0.029799977575
    7       0.027893691343     -0.001906286232      0.029799977575
    8      -0.001906286232      0.027893691343      0.029799977575
    9       0.003116302835      0.003116302835      0.000000000000

 cartesian coordinates (angstrom) at end:
    1      2.75389633547515     2.75389633547515     2.68868148715835
    2      8.26168900642559     8.26168900642559     8.07519243830791
    3      5.50779267091382     5.50779267091382     2.74245811299311
    4      5.50779267098799     5.50779267098799     8.09842229811018
    5      8.19203929622143     5.50779267091417     5.39272683940525
    6      5.50779267091417     8.19203929622143     5.39272683940525
    7      5.50779267098688     2.82354604567961     5.39272683940525
    8      2.82354604567961     5.50779267098688     5.39272683940525
    9     -0.00000000000116    -0.00000000000116    -0.08357408483036

 cartesian forces (hartree/bohr) at end:
    1      0.00000000000000    -0.00000000000000    -0.00001155414223
    2      0.00000000000000    -0.00000000000000    -0.00001155414223
    3     -0.00000000000000     0.00000000000000    -0.00332974287003
    4      0.00000000000000    -0.00000000000000     0.00297250731462
    5      0.00286311956374     0.00000000000004     0.00017475378636
    6      0.00000000000004     0.00286311956374     0.00017475378636
    7     -0.00000000000004    -0.00286311956374     0.00017475378644
    8     -0.00286311956374    -0.00000000000004     0.00017475378644
    9      0.00000000000000    -0.00000000000000    -0.00031867130573
 frms,max,avg= 1.4002219E-03 3.3297429E-03   0.000E+00  0.000E+00  1.252E-05 h/b

 cartesian forces (eV/Angstrom) at end:
    1      0.00000000000000    -0.00000000000000    -0.00059413783205
    2      0.00000000000000    -0.00000000000000    -0.00059413783205
    3     -0.00000000000000     0.00000000000000    -0.17122224827641
    4      0.00000000000000    -0.00000000000000     0.15285245897182
    5      0.14722751513332     0.00000000000199     0.00898620024527
    6      0.00000000000199     0.14722751513332     0.00898620024527
    7     -0.00000000000199    -0.14722751513332     0.00898620024935
    8     -0.14722751513332    -0.00000000000199     0.00898620024935
    9      0.00000000000000    -0.00000000000000    -0.01638673602056
 frms,max,avg= 7.2002298E-02 1.7122225E-01   0.000E+00  0.000E+00  6.439E-04 e/A
 length scales= 14.558286313000 14.558286313000 14.719445523000 bohr
              =  7.703913312967  7.703913312967  7.789195093854 angstroms
 prteigrs : about to open file Cs2TiI6o_EIG
 Fermi (or HOMO) energy (hartree) =   0.09824   Average Vxc (hartree)=  -0.27303
 Eigenvalues (hartree) for nkpt=   4  k points:
 kpt#   1, nband= 42, wtk=  0.12500, kpt=  0.0000  0.0000  0.0000 (reduced coord)
  -1.85074   -0.99190   -0.99103   -0.99103   -0.71125   -0.71071   -0.47673   -0.39250
  -0.36670   -0.36670   -0.35934   -0.35796   -0.20225   -0.20031   -0.20031   -0.19564
  -0.19542   -0.19542   -0.08646   -0.02775   -0.02622   -0.02622   -0.01948   -0.01948
  -0.01315   -0.00118    0.01194    0.03964    0.03964    0.05188    0.07961    0.07961
   0.08352    0.09563    0.09824    0.09824    0.17780    0.18259    0.18259    0.26831
   0.27469    0.27886
 prteigrs : prtvol=0 or 1, do not print more k-points.

--- !EnergyTerms
iteration_state     : {dtset: 1, }
comment             : Components of total free energy in Hartree
kinetic             :  4.49300256298911E+01
hartree             :  2.80349458725769E+01
xc                  : -4.41786157163611E+01
Ewald energy        : -1.28450818271271E+02
psp_core            :  5.61309955606161E+00
local_psp           : -1.03129094557572E+02
non_local_psp+x     :  1.90077014961860E+01
total_energy        : -1.78172755990489E+02
...

--- !EnergyTermsDC
iteration_state     : {dtset: 1, }
comment             : '"Double-counting" decomposition of free energy'
band_energy         : -1.88483305414027E+01
Ewald energy        : -1.28450818271271E+02
psp_core            :  5.61309955606161E+00
xc_dc               : -3.64867021796173E+01
total_energy_dc     : -1.78172751436229E+02
...

 Cartesian components of stress tensor (hartree/bohr^3)
  sigma(1 1)= -1.07291069E-04  sigma(3 2)= -3.37611718E-14
  sigma(2 2)= -1.07291069E-04  sigma(3 1)= -3.37615353E-14
  sigma(3 3)= -1.03698794E-04  sigma(2 1)=  6.60361178E-14

-Cartesian components of stress tensor (GPa)         [Pressure=  3.1214E+00 GPa]
- sigma(1 1)= -3.15661170E+00  sigma(3 2)= -9.93287801E-10
- sigma(2 2)= -3.15661170E+00  sigma(3 1)= -9.93298496E-10
- sigma(3 3)= -3.05092334E+00  sigma(2 1)=  1.94284933E-09

== END DATASET(S) ==============================================================

 -outvars: echo values of variables after computation  --------
            acell      1.4558286313E+01  1.4558286313E+01  1.4719445523E+01 Bohr
              amu      1.32905430E+02  1.26904470E+02  9.12240000E+01
                       7.99040000E+01
           diemac      1.20000000E+01
             ecut      2.00000000E+01 Hartree
           etotal     -1.7817275144E+02
            fcart      5.0239289361E-20 -5.8197344927E-20 -1.1554142233E-05
                       5.0239289361E-20 -5.8197344927E-20 -1.1554142233E-05
                      -3.3461455946E-19  3.2665650389E-19 -3.3297428700E-03
                       1.5656884789E-19 -1.6452690345E-19  2.9725073146E-03
                       2.8631195637E-03  3.8777661914E-14  1.7475378636E-04
                       3.8777937035E-14  2.8631195637E-03  1.7475378636E-04
                      -3.8777619700E-14 -2.8631195637E-03  1.7475378644E-04
                      -2.8631195637E-03 -3.8777561484E-14  1.7475378644E-04
                       3.1705402838E-20 -3.9663458404E-20 -3.1867130573E-04
-          fftalg         112
             iscf          17
           istwfk        1    1    1    1
              ixc        -428
              kpt      0.00000000E+00  0.00000000E+00  0.00000000E+00
                       5.00000000E-01  0.00000000E+00  0.00000000E+00
                       5.00000000E-01  5.00000000E-01  0.00000000E+00
                       5.00000000E-01  0.00000000E+00  5.00000000E-01
         kptns_hf      0.00000000E+00  0.00000000E+00  0.00000000E+00
                       5.00000000E-01  0.00000000E+00  0.00000000E+00
                       0.00000000E+00  5.00000000E-01  0.00000000E+00
                       5.00000000E-01  5.00000000E-01  0.00000000E+00
                       0.00000000E+00  0.00000000E+00  5.00000000E-01
                       5.00000000E-01  0.00000000E+00  5.00000000E-01
                       0.00000000E+00  5.00000000E-01  5.00000000E-01
                       5.00000000E-01  5.00000000E-01  5.00000000E-01
         kptrlatt        2    0    0      0    2    0      0    0    2
          kptrlen      2.91165726E+01
P           mkmem           1
            natom           9
            nband          42
          nbandhf          36
            ngfft          60      60      60
             nkpt           4
           nkpthf           8
-           npkpt           4
            nstep        2500
             nsym           8
           ntypat           4
              occ      2.000000  2.000000  2.000000  2.000000  2.000000  2.000000
                       2.000000  2.000000  2.000000  2.000000  2.000000  2.000000
                       2.000000  2.000000  2.000000  2.000000  2.000000  2.000000
                       2.000000  2.000000  2.000000  2.000000  2.000000  2.000000
                       2.000000  2.000000  2.000000  2.000000  2.000000  2.000000
                       2.000000  2.000000  2.000000  2.000000  2.000000  2.000000
                       0.000000  0.000000  0.000000  0.000000  0.000000  0.000000
            rprim      0.0000000000E+00  7.1493440376E-01  6.9919153193E-01
                       7.1493440376E-01  0.0000000000E+00  6.9919153193E-01
                       7.0710678119E-01  7.0710678119E-01  0.0000000000E+00
          spgroup         107
           strten     -1.0729106890E-04 -1.0729106890E-04 -1.0369879402E-04
                      -3.3761171825E-14 -3.3761535342E-14  6.6036117773E-14
           symrel      1  0  0   0  1  0   0  0  1       1  0 -1   0  1 -1   0  0 -1
                       0  1 -1   1  0 -1   0  0 -1       0  1  0   1  0  0   0  0  1
                       1  0  0   1  0 -1   1 -1  0       0  1  0   0  1 -1  -1  1  0
                       0  1 -1   0  1  0  -1  1  0       1  0 -1   1  0  0   1 -1  0
           toldfe      1.00000000E-08 Hartree
            typat      1  1  2  4  2  2  2  2  3
          usefock           1
              wtk        0.12500    0.50000    0.12500    0.25000
           xangst      2.7538963355E+00  2.7538963355E+00  2.6886814872E+00
                       8.2616890064E+00  8.2616890064E+00  8.0751924383E+00
                       5.5077926709E+00  5.5077926709E+00  2.7424581130E+00
                       5.5077926710E+00  5.5077926710E+00  8.0984222981E+00
                       8.1920392962E+00  5.5077926709E+00  5.3927268394E+00
                       5.5077926709E+00  8.1920392962E+00  5.3927268394E+00
                       5.5077926710E+00  2.8235460457E+00  5.3927268394E+00
                       2.8235460457E+00  5.5077926710E+00  5.3927268394E+00
                      -1.1574139010E-12 -1.1574139010E-12 -8.3574084830E-02
            xcart      5.2041098724E+00  5.2041098724E+00  5.0808716693E+00
                       1.5612329617E+01  1.5612329617E+01  1.5259902179E+01
                       1.0408219745E+01  1.0408219745E+01  5.1824947645E+00
                       1.0408219745E+01  1.0408219745E+01  1.5303800252E+01
                       1.5480710740E+01  1.0408219745E+01  1.0190776836E+01
                       1.0408219745E+01  1.5480710740E+01  1.0190776836E+01
                       1.0408219745E+01  5.3357287499E+00  1.0190776836E+01
                       5.3357287499E+00  1.0408219745E+01  1.0190776836E+01
                      -2.1871952953E-12 -2.1871952953E-12 -1.5793213214E-01
             xred      2.4957542197E-01  2.4957542197E-01  2.5042457803E-01
                       7.4957542197E-01  7.4957542197E-01  7.5042457803E-01
                       2.5456720852E-01  2.5456720852E-01  7.4543279148E-01
                       7.5173172129E-01  7.5173172129E-01  2.4826827871E-01
                       2.5689981984E-01  7.4425415317E-01  7.4310018016E-01
                       7.4425415317E-01  2.5689981984E-01  7.4310018016E-01
                       2.5689981984E-01  7.4425415317E-01  2.5574584683E-01
                       7.4425415317E-01  2.5689981984E-01  2.5574584683E-01
                      -7.7577197548E-03 -7.7577197548E-03  7.7577197548E-03
            znucl       55.00000   53.00000   40.00000   35.00000

- Timing analysis has been suppressed with timopt=0

 Suggested references for the acknowledgment of ABINIT usage.

 Calculation completed.
.Delivered   0 WARNINGs and   0 COMMENTs to log file.