.Version 9.2.2 of ABINIT

 ABINIT is a project of the Universite Catholique de Louvain,
 Corning Inc. and other collaborators, see ~abinit/doc/developers/contributors.txt .
 acknowledgments of the ABINIT effort.

.Starting date : Sat 26 Nov 2022.
- ( at 00h40 )

- input  file    -> Cs2TiI6.in
- output file    -> Cs2TiI6.out
- root for input  files -> Cs2TiI6i
- root for output files -> Cs2TiI6o

- inpspheads : Reading pseudopotential header in XML form from
-   ../../../Psps_for_tests/ATOMICDATA/Cs.GGA_PBE-JTH.xml
- inpspheads : Reading pseudopotential header in XML form from
-   ../../../Psps_for_tests/ATOMICDATA/I.GGA_PBE-JTH.xml
- inpspheads : Reading pseudopotential header in XML form from
-   ../../../Psps_for_tests/ATOMICDATA/Zr.GGA_PBE-JTH.xml
- inpspheads : Reading pseudopotential header in XML form from
-   ../../../Psps_for_tests/ATOMICDATA/Br.GGA_PBE-JTH.xml

 DATASET    1 : space group I4 m m (#107); Bravais tI (body-center tetrag.)
     intxc =       0    ionmov =       2      iscf =      17    lmnmax =      18
     lnmax =       6     mgfft =      64  mpssoang =       3    mqgrid =    3914
     natom =       9  nloc_mem =       2    nspden =       1   nspinor =       1
    nsppol =       1      nsym =       8    n1xccc =       1    ntypat =       4
    occopt =       1   xclevel =       2
-    mband =          42        mffmem =           1         mkmem =           4
       mpw =       10339          nfft =      262144          nkpt =          20
Pmy_natom=         2
 PAW method is used; the additional fine FFT grid is defined by:
   mgfftf=       100    nfftf =   1000000
  Rough estimation (10% accuracy) of disk space for files :

[...]

 DATASET   10 : space group I4 m m (#107); Bravais tI (body-center tetrag.)
     intxc =       0    ionmov =       2      iscf =      17    lmnmax =      18
     lnmax =       6     mgfft =      64  mpssoang =       3    mqgrid =    3879
     natom =       9  nloc_mem =       2    nspden =       1   nspinor =       1
    nsppol =       1      nsym =       8    n1xccc =       1    ntypat =       4
    occopt =       1   xclevel =       2
-    mband =          42        mffmem =           1         mkmem =           4
       mpw =       10058          nfft =      262144          nkpt =          20
Pmy_natom=         2
 PAW method is used; the additional fine FFT grid is defined by:
   mgfftf=        96    nfftf =    884736
  Rough estimation (10% accuracy) of disk space for files :

------------- Echo of variables that govern the present computation ------------
-
- outvars: echo of selected default values
-   iomode0 =  0 , fftalg0 =112 , wfoptalg0 = 10
-
- outvars: echo of global parameters not present in the input file
-  max_nthreads =    0
-
 -outvars: echo values of preprocessed input variables --------
            acell1     1.4587957788E+01  1.4587957788E+01  1.4747960833E+01 Bohr
            acell2     1.4573355227E+01  1.4573355227E+01  1.4733198110E+01 Bohr
            acell3     1.4558752667E+01  1.4558752667E+01  1.4718435386E+01 Bohr
            acell4     1.4544150107E+01  1.4544150107E+01  1.4703672663E+01 Bohr
            acell5     1.4529547546E+01  1.4529547546E+01  1.4688909939E+01 Bohr
            acell6     1.4514944986E+01  1.4514944986E+01  1.4674147216E+01 Bohr
            acell7     1.4500342426E+01  1.4500342426E+01  1.4659384492E+01 Bohr
            acell8     1.4485739865E+01  1.4485739865E+01  1.4644621769E+01 Bohr
            acell9     1.4471137305E+01  1.4471137305E+01  1.4629859045E+01 Bohr
            acell10    1.4456534745E+01  1.4456534745E+01  1.4615096321E+01 Bohr
              amu      1.32905430E+02  1.26904470E+02  9.12240000E+01
                       7.99040000E+01
           diemac      1.20000000E+01
          dilatmx      1.15000000E+00
             ecut      1.60000000E+01 Hartree
           ecutsm      5.00000000E-01 Hartree
-          fftalg         112
          getxred1          0
          getxred2         -1
          getxred3         -1
          getxred4         -1
          getxred5         -1
          getxred6         -1
          getxred7         -1
          getxred8         -1
          getxred9         -1
          getxred10        -1
           ionmov           2
              ixc     -101130
           jdtset        1    2    3    4    5    6    7    8    9   10
              kpt     -1.25000000E-01 -2.50000000E-01  0.00000000E+00
                      -1.25000000E-01  5.00000000E-01  0.00000000E+00
                      -2.50000000E-01 -3.75000000E-01  0.00000000E+00
                      -1.25000000E-01 -3.75000000E-01  1.25000000E-01
                      -1.25000000E-01  2.50000000E-01  0.00000000E+00
                      -2.50000000E-01  3.75000000E-01  0.00000000E+00
                      -1.25000000E-01  3.75000000E-01  1.25000000E-01
                      -3.75000000E-01  5.00000000E-01  0.00000000E+00
                      -2.50000000E-01  5.00000000E-01  1.25000000E-01
                      -1.25000000E-01  5.00000000E-01  2.50000000E-01
                      -1.25000000E-01  0.00000000E+00  0.00000000E+00
                      -1.25000000E-01  1.25000000E-01  1.25000000E-01
                      -1.25000000E-01  2.50000000E-01  2.50000000E-01
                      -1.25000000E-01  3.75000000E-01  3.75000000E-01
                      -3.75000000E-01  0.00000000E+00  0.00000000E+00
                      -2.50000000E-01  0.00000000E+00  1.25000000E-01
                      -3.75000000E-01  1.25000000E-01  1.25000000E-01
                      -2.50000000E-01  1.25000000E-01  2.50000000E-01
                      -3.75000000E-01  2.50000000E-01  2.50000000E-01
                      -2.50000000E-01  2.50000000E-01  3.75000000E-01
         kptrlatt        4   -4    4     -4    4    4     -4   -4    4
          kptrlen1     8.16067989E+01
          kptrlen2     8.15251105E+01
          kptrlen3     8.14434220E+01
          kptrlen4     8.13617335E+01
          kptrlen5     8.12800450E+01
          kptrlen6     8.11983565E+01
          kptrlen7     8.11166680E+01
          kptrlen8     8.10349795E+01
          kptrlen9     8.09532910E+01
          kptrlen10    8.08716026E+01
P           mkmem           4
            natom           9
            nband          42
           ndtset          10
            ngfft          64      64      64
          ngfftdg1        100     100     100
          ngfftdg2        100     100     100
          ngfftdg3        100     100     100
          ngfftdg4        100     100     100
          ngfftdg5        100     100     100
          ngfftdg6        100     100     100
          ngfftdg7         96      96      96
          ngfftdg8         96      96      96
          ngfftdg9         96      96      96
          ngfftdg10        96      96      96
             nkpt          20
            nstep        2500
             nsym           8
            ntime        1000
           ntypat           4
              occ      2.000000  2.000000  2.000000  2.000000  2.000000  2.000000
                       2.000000  2.000000  2.000000  2.000000  2.000000  2.000000
                       2.000000  2.000000  2.000000  2.000000  2.000000  2.000000
                       2.000000  2.000000  2.000000  2.000000  2.000000  2.000000
                       2.000000  2.000000  2.000000  2.000000  2.000000  2.000000
                       2.000000  2.000000  2.000000  2.000000  2.000000  2.000000
                       0.000000  0.000000  0.000000  0.000000  0.000000  0.000000
          optcell           3
        optforces           1
        pawecutdg      4.00000000E+01 Hartree
            prtwf           0
            rprim      0.0000000000E+00  7.1486244107E-01  6.9926510734E-01
                       7.1486244107E-01  0.0000000000E+00  6.9926510734E-01
                       7.0710678119E-01  7.0710678119E-01  0.0000000000E+00
           shiftk      5.00000000E-01  5.00000000E-01  5.00000000E-01
          spgroup         107
           symrel      1  0  0   0  1  0   0  0  1       1  0 -1   0  1 -1   0  0 -1
                       0  1 -1   1  0 -1   0  0 -1       0  1  0   1  0  0   0  0  1
                       1  0  0   1  0 -1   1 -1  0       0  1  0   0  1 -1  -1  1  0
                       0  1 -1   0  1  0  -1  1  0       1  0 -1   1  0  0   1 -1  0
           toldff      1.00000000E-08
           tolmxf      1.00000000E-05
            typat      1  1  2  4  2  2  2  2  3
           useylm           1
              wtk        0.03125    0.03125    0.03125    0.06250    0.03125    0.03125
                         0.06250    0.03125    0.06250    0.06250    0.03125    0.06250
                         0.06250    0.06250    0.03125    0.06250    0.06250    0.06250
                         0.06250    0.06250
           xangst1     2.7592313332E+00  2.7592313332E+00  2.6937928492E+00
                       8.2776939997E+00  8.2776939997E+00  8.0918501077E+00
                       5.5184626664E+00  5.5184626664E+00  2.7441776971E+00
                       5.5184626665E+00  5.5184626665E+00  8.1236980689E+00
                       8.2125225765E+00  5.5184626664E+00  5.4032486768E+00
                       5.5184626664E+00  8.2125225765E+00  5.4032486768E+00
                       5.5184626665E+00  2.8244027564E+00  5.4032486768E+00
                       2.8244027564E+00  5.5184626665E+00  5.4032486768E+00
                      -1.0254174081E-12 -1.0254174081E-12 -8.2055361628E-02
           xangst2     2.7564693399E+00  2.7564693399E+00  2.6910963598E+00
                       8.2694080197E+00  8.2694080197E+00  8.0837501576E+00
                       5.5129386798E+00  5.5129386798E+00  2.7414307725E+00
                       5.5129386798E+00  5.5129386798E+00  8.1155662390E+00
                       8.2043018332E+00  5.5129386798E+00  5.3978400194E+00
                       5.5129386798E+00  8.2043018332E+00  5.3978400194E+00
                       5.5129386798E+00  2.8215755265E+00  5.3978400194E+00
                       2.8215755265E+00  5.5129386798E+00  5.3978400194E+00
                      -1.0243994907E-12 -1.0243994907E-12 -8.1973224129E-02
           xangst3     2.7537073466E+00  2.7537073466E+00  2.6883998705E+00
                       8.2611220397E+00  8.2611220397E+00  8.0756502076E+00
                       5.5074146931E+00  5.5074146931E+00  2.7386838479E+00
                       5.5074146932E+00  5.5074146932E+00  8.1074344091E+00
                       8.1960810899E+00  5.5074146931E+00  5.3924313621E+00
                       5.5074146931E+00  8.1960810899E+00  5.3924313621E+00
                       5.5074146932E+00  2.8187482965E+00  5.3924313621E+00
                       2.8187482965E+00  5.5074146932E+00  5.3924313621E+00
                      -1.0233690957E-12 -1.0233690957E-12 -8.1891086630E-02
           xangst4     2.7509453533E+00  2.7509453533E+00  2.6857033811E+00
                       8.2528360598E+00  8.2528360598E+00  8.0675502575E+00
                       5.5018907065E+00  5.5018907065E+00  2.7359369232E+00
                       5.5018907065E+00  5.5018907065E+00  8.0993025792E+00
[...]
                      -1.0622140073E-12 -1.0622140073E-12 -8.4971212438E-02
           xangst7     2.7436114777E+00  2.7436114777E+00  2.6775081952E+00
                       8.2308344330E+00  8.2308344330E+00  8.0394213054E+00
                       5.4872229553E+00  5.4872229553E+00  2.7359429826E+00
                       5.4872229553E+00  5.4872229553E+00  8.0503034075E+00
                       8.1559053356E+00  5.4872229553E+00  5.3693929440E+00
                       5.4872229553E+00  8.1559053356E+00  5.3693929440E+00
                       5.4872229553E+00  2.8185405750E+00  5.3693929440E+00
                       2.8185405750E+00  5.4872229553E+00  5.3693929440E+00
                      -1.0683230033E-12 -1.0683156595E-12 -8.5442785250E-02
           xangst8     2.7409989244E+00  2.7409989244E+00  2.6749105616E+00
                       8.2229967732E+00  8.2229967732E+00  8.0308361518E+00
                       5.4819978488E+00  5.4819978488E+00  2.7342436262E+00
                       5.4819978489E+00  5.4819978489E+00  8.0385030108E+00
                       8.1467362069E+00  5.4819978488E+00  5.3637375993E+00
                       5.4819978488E+00  8.1467362069E+00  5.3637375993E+00
                       5.4819978489E+00  2.8172594907E+00  5.3637375993E+00
                       2.8172594907E+00  5.4819978489E+00  5.3637375993E+00
                      -1.0759952223E-12 -1.0759952223E-12 -8.6039025187E-02
           xangst9     2.7383649545E+00  2.7383649545E+00  2.6722165365E+00
                       8.2150948635E+00  8.2150948635E+00  8.0222383876E+00
                       5.4767299090E+00  5.4767299090E+00  2.7325944605E+00
                       5.4767299091E+00  5.4767299091E+00  8.0269350952E+00
                       8.1374934557E+00  5.4767299090E+00  5.3581894386E+00
                       5.4767299090E+00  8.1374934557E+00  5.3581894386E+00
                       5.4767299091E+00  2.8159663623E+00  5.3581894386E+00
                       2.8159663623E+00  5.4767299091E+00  5.3581894386E+00
                      -1.0839117657E-12 -1.0839044219E-12 -8.6567425733E-02
           xangst10    2.7356709446E+00  2.7356709446E+00  2.6696383940E+00
                       8.2070128337E+00  8.2070128337E+00  8.0139911556E+00
                       5.4713418891E+00  5.4713418891E+00  2.7309591329E+00
                       5.4713418892E+00  5.4713418892E+00  8.0158629182E+00
                       8.1280229505E+00  5.4713418891E+00  5.3528640162E+00
                       5.4713418891E+00  8.1280229505E+00  5.3528640162E+00
                       5.4713418892E+00  2.8146608278E+00  5.3528640162E+00
                       2.8146608278E+00  5.4713418892E+00  5.3528640162E+00
                      -1.0894921935E-12 -1.0902559497E-12 -8.7085571967E-02
            xcart1     5.2142522873E+00  5.2142522873E+00  5.0909757205E+00
                       1.5642756862E+01  1.5642756862E+01  1.5291587972E+01
                       1.0428504575E+01  1.0428504575E+01  5.1881219099E+00
                       1.0428504575E+01  1.0428504575E+01  1.5346045509E+01
                       1.5516682609E+01  1.0428504575E+01  1.0211107474E+01
                       1.0428504575E+01  1.5516682609E+01  1.0211107474E+01
                       1.0428504575E+01  5.3403265400E+00  1.0211107474E+01
                       5.3403265400E+00  1.0428504575E+01  1.0211107474E+01
                      -1.9541354822E-12 -1.9541493600E-12 -1.5626299349E-01
            xcart2     5.2091231080E+00  5.2091231080E+00  5.0858835767E+00
                       1.5627369324E+01  1.5627369324E+01  1.5275931737E+01
                       1.0418246216E+01  1.0418246216E+01  5.1853094743E+00
                       1.0418246216E+01  1.0418246216E+01  1.5325494144E+01
                       1.5498429624E+01  1.0418246216E+01  1.0201175158E+01
                       1.0418246216E+01  1.5498429624E+01  1.0201175158E+01
                       1.0418246216E+01  5.3380628075E+00  1.0201175158E+01
                       5.3380628075E+00  1.0418246216E+01  1.0201175158E+01
                      -1.9635454743E-12 -1.9635732299E-12 -1.5693428155E-01
            xcart3     5.2041098725E+00  5.2041098725E+00  5.0808716694E+00
                       1.5612329618E+01  1.5612329618E+01  1.5259902179E+01
                       1.0408219745E+01  1.0408219745E+01  5.1824947646E+00
                       1.0408219745E+01  1.0408219745E+01  1.5303800252E+01
                       1.5480710740E+01  1.0408219745E+01  1.0190776836E+01
                       1.0408219745E+01  1.5480710740E+01  1.0190776836E+01
                       1.0408219745E+01  5.3357287500E+00  1.0190776836E+01
                       5.3357287500E+00  1.0408219745E+01  1.0190776836E+01
                      -1.9757973008E-12 -1.9757973008E-12 -1.5793213214E-01
            xcart4     5.1991486253E+00  5.1991486253E+00  5.0758389111E+00
                       1.5597445876E+01  1.5597445876E+01  1.5243648520E+01
                       1.0398297251E+01  1.0398297251E+01  5.1794606646E+00
                       1.0398297251E+01  1.0398297251E+01  1.5281626848E+01
                       1.5463190630E+01  1.0398297251E+01  1.0180209568E+01
                       1.0398297251E+01  1.5463190630E+01  1.0180209568E+01
                       1.0398297251E+01  5.3334038715E+00  1.0180209568E+01
                       5.3334038715E+00  1.0398297251E+01  1.0180209568E+01
                      -1.9860439907E-12 -1.9860162352E-12 -1.5893634765E-01
            xcart5     5.1942493059E+00  5.1942493059E+00  5.0707276630E+00
                       1.5582747918E+01  1.5582747918E+01  1.5227074342E+01
                       1.0388498612E+01  1.0388498612E+01  5.1763449184E+00
                       1.0388498612E+01  1.0388498612E+01  1.5259304686E+01
                       1.5445906873E+01  1.0388498612E+01  1.0169248745E+01
                       1.0388498612E+01  1.5445906873E+01  1.0169248745E+01
                       1.0388498612E+01  5.3310903509E+00  1.0169248745E+01
                       5.3310903509E+00  1.0388498612E+01  1.0169248745E+01
                      -1.9959262946E-12 -1.9959262946E-12 -1.5967316014E-01
            xcart6     5.1892539096E+00  5.1892539096E+00  5.0655960352E+00
                       1.5567761729E+01  1.5567761729E+01  1.5210855676E+01
                       1.0378507819E+01  1.0378507819E+01  5.1732916972E+00
                       1.0378507819E+01  1.0378507819E+01  1.5237717042E+01
                       1.5428276912E+01  1.0378507819E+01  1.0158797250E+01
                       1.0378507819E+01  1.5428276912E+01  1.0158797250E+01
                       1.0378507819E+01  5.3287387269E+00  1.0158797250E+01
                       5.3287387269E+00  1.0378507819E+01  1.0158797250E+01
                      -2.0072935682E-12 -2.0072935682E-12 -1.6057232069E-01
            xcart7     5.1846743078E+00  5.1846743078E+00  5.0597572075E+00
                       1.5554022923E+01  1.5554022923E+01  1.5192304534E+01
                       1.0369348616E+01  1.0369348616E+01  5.1701829522E+00
                       1.0369348616E+01  1.0369348616E+01  1.5212868727E+01
                       1.5412427450E+01  1.0369348616E+01  1.0146682164E+01
                       1.0369348616E+01  1.5412427450E+01  1.0146682164E+01
                       1.0369348616E+01  5.3262697812E+00  1.0146682164E+01
                       5.3262697812E+00  1.0369348616E+01  1.0146682164E+01
                      -2.0188378977E-12 -2.0188240199E-12 -1.6146346415E-01
            xcart8     5.1797372977E+00  5.1797372977E+00  5.0548483913E+00
                       1.5539211893E+01  1.5539211893E+01  1.5176080945E+01
                       1.0359474595E+01  1.0359474595E+01  5.1669716341E+00
                       1.0359474595E+01  1.0359474595E+01  1.5190569209E+01
                       1.5395100308E+01  1.0359474595E+01  1.0135995111E+01
                       1.0359474595E+01  1.5395100308E+01  1.0135995111E+01
                       1.0359474595E+01  5.3238488828E+00  1.0135995111E+01
                       5.3238488828E+00  1.0359474595E+01  1.0135995111E+01
                      -2.0333362905E-12 -2.0333362905E-12 -1.6259019434E-01
            xcart9     5.1747598159E+00  5.1747598159E+00  5.0497574218E+00
                       1.5524279448E+01  1.5524279448E+01  1.5159833525E+01
                       1.0349519632E+01  1.0349519632E+01  5.1638551627E+00
                       1.0349519632E+01  1.0349519632E+01  1.5168709016E+01
                       1.5377634040E+01  1.0349519632E+01  1.0125510607E+01
                       1.0349519632E+01  1.5377634040E+01  1.0125510607E+01
                       1.0349519632E+01  5.3214052242E+00  1.0125510607E+01
                       5.3214052242E+00  1.0349519632E+01  1.0125510607E+01
                      -2.0482963894E-12 -2.0482825116E-12 -1.6358872666E-01
            xcart10    5.1696688749E+00  5.1696688749E+00  5.0448854384E+00
                       1.5509006625E+01  1.5509006625E+01  1.5144248516E+01
                       1.0339337750E+01  1.0339337750E+01  5.1607648413E+00
                       1.0339337750E+01  1.0339337750E+01  1.5147785634E+01
                       1.5359737378E+01  1.0339337750E+01  1.0115447017E+01
                       1.0339337750E+01  1.5359737378E+01  1.0115447017E+01
                       1.0339337750E+01  5.3189381215E+00  1.0115447017E+01
                       5.3189381215E+00  1.0339337750E+01  1.0115447017E+01
                      -2.0588418697E-12 -2.0602851596E-12 -1.6456788114E-01
             xred1     2.4954265464E-01  2.4954265464E-01  2.5045734536E-01
                       7.4954265464E-01  7.4954265464E-01  7.5045734536E-01
                       2.5430443692E-01  2.5430443692E-01  7.4569556308E-01
                       7.5221198150E-01  7.5221198150E-01  2.4778801850E-01
                       2.5655913550E-01  7.4446974610E-01  7.4344086450E-01
                       7.4446974610E-01  2.5655913550E-01  7.4344086450E-01
                       2.5655913550E-01  7.4446974610E-01  2.5553025390E-01
                       7.4446974610E-01  2.5655913550E-01  2.5553025390E-01
                      -7.6594909029E-03 -7.6594909029E-03  7.6594909029E-03
             xred2     2.4955149851E-01  2.4955149851E-01  2.5044850149E-01
                       7.4955149851E-01  7.4955149851E-01  7.5044850149E-01
                       2.5443007690E-01  2.5443007690E-01  7.4556992310E-01
                       7.5198340101E-01  7.5198340101E-01  2.4801659899E-01
                       2.5673414098E-01  7.4435780653E-01  7.4326585902E-01
                       7.4435780653E-01  2.5673414098E-01  7.4326585902E-01
                       2.5673414098E-01  7.4435780653E-01  2.5564219347E-01
                       7.4435780653E-01  2.5673414098E-01  2.5564219347E-01
                      -7.7003699628E-03 -7.7003699628E-03  7.7003699628E-03
             xred3     2.4957542197E-01  2.4957542197E-01  2.5042457803E-01
                       7.4957542197E-01  7.4957542197E-01  7.5042457803E-01
                       2.5456720852E-01  2.5456720852E-01  7.4543279148E-01
                       7.5173172129E-01  7.5173172129E-01  2.4826827871E-01
                       2.5689981984E-01  7.4425415317E-01  7.4310018016E-01
                       7.4425415317E-01  2.5689981984E-01  7.4310018016E-01
                       2.5689981984E-01  7.4425415317E-01  2.5574584683E-01
                       7.4425415317E-01  2.5689981984E-01  2.5574584683E-01
                      -7.7577197548E-03 -7.7577197548E-03  7.7577197548E-03
             xred4     2.4960336132E-01  2.4960336132E-01  2.5039663868E-01
                       7.4960336132E-01  7.4960336132E-01  7.5039663868E-01
                       2.5469894029E-01  2.5469894029E-01  7.4530105971E-01
                       7.5147093800E-01  7.5147093800E-01  2.4852906200E-01
                       2.5706540163E-01  7.4415412943E-01  7.4293459837E-01
                       7.4415412943E-01  2.5706540163E-01  7.4293459837E-01
                       2.5706540163E-01  7.4415412943E-01  2.5584587057E-01
                       7.4415412943E-01  2.5706540163E-01  2.5584587057E-01
                      -7.8156630467E-03 -7.8156630467E-03  7.8156630467E-03
             xred5     2.4963344712E-01  2.4963344712E-01  2.5036655288E-01
                       7.4963344712E-01  7.4963344712E-01  7.5036655288E-01
                       2.5483301635E-01  2.5483301635E-01  7.4516698365E-01
                       7.5122015667E-01  7.5122015667E-01  2.4877984333E-01
                       2.5722135267E-01  7.4404899253E-01  7.4277864733E-01
                       7.4404899253E-01  2.5722135267E-01  7.4277864733E-01
                       2.5722135267E-01  7.4404899253E-01  2.5595100747E-01
                       7.4404899253E-01  2.5722135267E-01  2.5595100747E-01
                      -7.8607576719E-03 -7.8607576719E-03  7.8607576719E-03
             xred6     2.4965334621E-01  2.4965334621E-01  2.5034665379E-01
                       7.4965334621E-01  7.4965334621E-01  7.5034665379E-01
                       2.5496103009E-01  2.5496103009E-01  7.4503896991E-01
                       7.5097718444E-01  7.5097718444E-01  2.4902281556E-01
                       2.5738707673E-01  7.4394730102E-01  7.4261292327E-01
                       7.4394730102E-01  2.5738707673E-01  7.4261292327E-01
                       2.5738707673E-01  7.4394730102E-01  2.5605269898E-01
                       7.4394730102E-01  2.5738707673E-01  2.5605269898E-01
                      -7.9136624575E-03 -7.9136624575E-03  7.9136624575E-03
             xred7     2.4967843941E-01  2.4967843941E-01  2.5032156059E-01
                       7.4967843941E-01  7.4967843941E-01  7.5032156059E-01
                       2.5512750079E-01  2.5512750079E-01  7.4487249921E-01
                       7.5069319868E-01  7.5069319868E-01  2.4930680132E-01
                       2.5752509405E-01  7.4386989943E-01  7.4247490595E-01
                       7.4386989943E-01  2.5752509405E-01  7.4247490595E-01
                       2.5752509405E-01  7.4386989943E-01  2.5613010057E-01
                       7.4386989943E-01  2.5752509405E-01  2.5613010057E-01
                      -7.9675652603E-03 -7.9675652603E-03  7.9675652603E-03
             xred8     2.4971506012E-01  2.4971506012E-01  2.5028493988E-01
                       7.4971506012E-01  7.4971506012E-01  7.5028493988E-01
                       2.5525407141E-01  2.5525407141E-01  7.4474592859E-01
                       7.5043079626E-01  7.5043079626E-01  2.4956920374E-01
                       2.5768483163E-01  7.4377374147E-01  7.4231516837E-01
                       7.4377374147E-01  2.5768483163E-01  7.4231516837E-01
                       2.5768483163E-01  7.4377374147E-01  2.5622625853E-01
                       7.4377374147E-01  2.5768483163E-01  2.5622625853E-01
                      -8.0321341042E-03 -8.0321341042E-03  8.0321341042E-03
             xred9     2.4973884322E-01  2.4973884322E-01  2.5026115678E-01
                       7.4973884322E-01  7.4973884322E-01  7.5026115678E-01
                       2.5538161681E-01  2.5538161681E-01  7.4461838319E-01
                       7.5017778606E-01  7.5017778606E-01  2.4982221394E-01
                       2.5784797087E-01  7.4367867476E-01  7.4215202913E-01
                       7.4367867476E-01  2.5784797087E-01  7.4215202913E-01
                       2.5784797087E-01  7.4367867476E-01  2.5632132524E-01
                       7.4367867476E-01  2.5784797087E-01  2.5632132524E-01
                      -8.0903805762E-03 -8.0903805762E-03  8.0903805762E-03
             xred10    2.4976255433E-01  2.4976255433E-01  2.5023744567E-01
                       7.4976255433E-01  7.4976255433E-01  7.5023744567E-01
                       2.5549952021E-01  2.5549952021E-01  7.4450047979E-01
                       7.4993767025E-01  7.4993767025E-01  2.5006232975E-01
                       2.5801479587E-01  7.4357777387E-01  7.4198520413E-01
                       7.4357777387E-01  2.5801479587E-01  7.4198520413E-01
                       2.5801479587E-01  7.4357777387E-01  2.5642222613E-01
                       7.4357777387E-01  2.5801479587E-01  2.5642222613E-01
                      -8.1474386002E-03 -8.1474386002E-03  8.1474386002E-03
            znucl       55.00000   53.00000   40.00000   35.00000

- Timing analysis has been suppressed with timopt=0

 Suggested references for the acknowledgment of ABINIT usage.

 Calculation completed.
.Delivered   0 WARNINGs and 159 COMMENTs to log file.