.Version 9.2.2 of ABINIT

 ABINIT is a project of the Universite Catholique de Louvain,
 Corning Inc. and other collaborators, see ~abinit/doc/developers/contributors.txt .
 acknowledgments of the ABINIT effort.

.Starting date : Mon 17 Oct 2022.
- ( at 13h11 )

- input  file    -> Cs2TiI6.in
- output file    -> Cs2TiI6.out
- root for input  files -> Cs2TiI6i
- root for output files -> Cs2TiI6o

- inpspheads : Reading pseudopotential header in XML form from
-   ../../../Psps_for_tests/ATOMICDATA/Cs.GGA_PBE-JTH.xml
- inpspheads : Reading pseudopotential header in XML form from
-   ../../../Psps_for_tests/ATOMICDATA/I.GGA_PBE-JTH.xml
- inpspheads : Reading pseudopotential header in XML form from
-   ../../../Psps_for_tests/ATOMICDATA/Hf.GGA_PBE-JTH.xml
- inpspheads : Reading pseudopotential header in XML form from
-   ../../../Psps_for_tests/ATOMICDATA/Br.GGA_PBE-JTH.xml

 DATASET    1 : space group I4 m m (#107); Bravais tI (body-center tetrag.)
     intxc =       0    ionmov =       2      iscf =      17    lmnmax =      18
     lnmax =       6     mgfft =      72  mpssoang =       3    mqgrid =    4172
     natom =       9  nloc_mem =       2    nspden =       1   nspinor =       1
    nsppol =       1      nsym =       8    n1xccc =       1    ntypat =       4
    occopt =       1   xclevel =       2
-    mband =          42        mffmem =           1         mkmem =           5
       mpw =       12538          nfft =      373248          nkpt =          20
Pmy_natom=         3
 PAW method is used; the additional fine FFT grid is defined by:
   mgfftf=       108    nfftf =   1259712
  Rough estimation (10% accuracy) of disk space for files :

[...]

 DATASET   10 : space group I4 m m (#107); Bravais tI (body-center tetrag.)
     intxc =       0    ionmov =       2      iscf =      17    lmnmax =      18
     lnmax =       6     mgfft =      60  mpssoang =       3    mqgrid =    3792
     natom =       9  nloc_mem =       2    nspden =       1   nspinor =       1
    nsppol =       1      nsym =       8    n1xccc =       1    ntypat =       4
    occopt =       1   xclevel =       2
-    mband =          42        mffmem =           1         mkmem =           5
       mpw =        9408          nfft =      216000          nkpt =          20
Pmy_natom=         3
 PAW method is used; the additional fine FFT grid is defined by:
   mgfftf=        96    nfftf =    884736
  Rough estimation (10% accuracy) of disk space for files :

------------- Echo of variables that govern the present computation ------------
-
- outvars: echo of selected default values
-   iomode0 =  0 , fftalg0 =112 , wfoptalg0 = 10
-
- outvars: echo of global parameters not present in the input file
-  max_nthreads =    0
-
 -outvars: echo values of preprocessed input variables --------
            acell1     1.5519020732E+01  1.5794425924E+01  1.5519020732E+01 Bohr
            acell2     1.5362262947E+01  1.5634886268E+01  1.5362262947E+01 Bohr
            acell3     1.5205505161E+01  1.5475346613E+01  1.5205505161E+01 Bohr
            acell4     1.5048747376E+01  1.5315806957E+01  1.5048747376E+01 Bohr
            acell5     1.4891989591E+01  1.5156267301E+01  1.4891989591E+01 Bohr
            acell6     1.4735231806E+01  1.4996727645E+01  1.4735231806E+01 Bohr
            acell7     1.4578474021E+01  1.4837187989E+01  1.4578474021E+01 Bohr
            acell8     1.4421716236E+01  1.4677648334E+01  1.4421716236E+01 Bohr
            acell9     1.4264958450E+01  1.4518108678E+01  1.4264958450E+01 Bohr
            acell10    1.4108200665E+01  1.4358569022E+01  1.4108200665E+01 Bohr
              amu      1.32905430E+02  1.26904470E+02  1.78490000E+02
                       7.99040000E+01
           diemac      1.20000000E+01
          dilatmx      1.15000000E+00
             ecut      1.60000000E+01 Hartree
           ecutsm      5.00000000E-01 Hartree
-          fftalg         112
          getxred1          0
          getxred2         -1
          getxred3         -1
          getxred4         -1
          getxred5         -1
          getxred6         -1
          getxred7         -1
          getxred8         -1
          getxred9         -1
          getxred10        -1
           ionmov           2
              ixc     -101130
           jdtset        1    2    3    4    5    6    7    8    9   10
              kpt      0.00000000E+00 -1.25000000E-01  0.00000000E+00
                       0.00000000E+00 -3.75000000E-01  0.00000000E+00
                       1.25000000E-01 -2.50000000E-01  0.00000000E+00
                       1.25000000E-01 -1.25000000E-01  1.25000000E-01
                       1.25000000E-01  5.00000000E-01  0.00000000E+00
                       2.50000000E-01 -3.75000000E-01  0.00000000E+00
                       1.25000000E-01 -3.75000000E-01  1.25000000E-01
                       2.50000000E-01 -2.50000000E-01  1.25000000E-01
                       2.50000000E-01 -1.25000000E-01  2.50000000E-01
                       1.25000000E-01  2.50000000E-01  0.00000000E+00
                       2.50000000E-01  3.75000000E-01  0.00000000E+00
                       3.75000000E-01  5.00000000E-01  0.00000000E+00
                       1.25000000E-01  3.75000000E-01  1.25000000E-01
                       2.50000000E-01  5.00000000E-01  1.25000000E-01
                       3.75000000E-01 -3.75000000E-01  1.25000000E-01
                       2.50000000E-01 -3.75000000E-01  2.50000000E-01
                       3.75000000E-01 -2.50000000E-01  2.50000000E-01
                       3.75000000E-01 -1.25000000E-01  3.75000000E-01
                       5.00000000E-01  2.50000000E-01  1.25000000E-01
                      -3.75000000E-01  3.75000000E-01  1.25000000E-01
         kptrlatt        4    4   -4     -4    4    4      4   -4    4
          kptrlen1     8.62027598E+01
          kptrlen2     8.53320249E+01
          kptrlen3     8.44612899E+01
          kptrlen4     8.35905550E+01
          kptrlen5     8.27198200E+01
          kptrlen6     8.18490851E+01
          kptrlen7     8.09783501E+01
          kptrlen8     8.01076152E+01
          kptrlen9     7.92368802E+01
          kptrlen10    7.83661453E+01
P           mkmem           5
            natom           9
            nband          42
           ndtset          10
            ngfft1         72      72      72
            ngfft2         72      72      72
            ngfft3         72      72      72
            ngfft4         64      64      64
            ngfft5         64      64      64
            ngfft6         64      64      64
            ngfft7         64      64      64
            ngfft8         64      64      64
            ngfft9         64      64      64
            ngfft10        60      60      60
          ngfftdg1        108     108     108
          ngfftdg2        108     108     108
          ngfftdg3        108     108     108
          ngfftdg4        108     108     108
          ngfftdg5        100     100     100
          ngfftdg6        100     100     100
          ngfftdg7        100     100     100
          ngfftdg8        100     100     100
          ngfftdg9         96      96      96
          ngfftdg10        96      96      96
             nkpt          20
            nstep        2500
             nsym           8
            ntime        1000
           ntypat           4
              occ      2.000000  2.000000  2.000000  2.000000  2.000000  2.000000
                       2.000000  2.000000  2.000000  2.000000  2.000000  2.000000
                       2.000000  2.000000  2.000000  2.000000  2.000000  2.000000
                       2.000000  2.000000  2.000000  2.000000  2.000000  2.000000
                       2.000000  2.000000  2.000000  2.000000  2.000000  2.000000
                       2.000000  2.000000  2.000000  2.000000  2.000000  2.000000
                       0.000000  0.000000  0.000000  0.000000  0.000000  0.000000
          optcell           3
        optforces           1
        pawecutdg      4.00000000E+01 Hartree
            prtwf           0
            rprim      0.0000000000E+00  6.9433150207E-01  7.1965531001E-01
                       7.0710678119E-01  0.0000000000E+00  7.0710678119E-01
                       7.1965531001E-01  6.9433150207E-01  0.0000000000E+00
           shiftk     -5.00000000E-01  5.00000000E-01  5.00000000E-01
          spgroup         107
           symrel      1  0  0   0  1  0   0  0  1       0  0  1   0  1  0   1  0  0
                       0 -1  1   0 -1  0   1 -1  0       1 -1  0   0 -1  0   0 -1  1
                       0 -1  1  -1  0  1   0  0  1       0  0  1  -1  0  1   0 -1  1
                       1  0  0   1  0 -1   1 -1  0       1 -1  0   1  0 -1   1  0  0
           toldff      1.00000000E-08
           tolmxf      1.00000000E-06
            typat      1  1  4  2  2  4  2  2  3
           useylm           1
              wtk        0.03125    0.03125    0.06250    0.03125    0.06250    0.06250
                         0.03125    0.06250    0.03125    0.06250    0.06250    0.06250
                         0.03125    0.06250    0.06250    0.03125    0.06250    0.03125
                         0.06250    0.06250
           xangst1     2.9550169947E+00  2.8511582749E+00  2.9550169947E+00
                       8.8650509840E+00  8.5532252506E+00  8.8650509840E+00
                       5.9100339893E+00  8.8288864770E+00  5.9100339893E+00
                       5.9100339893E+00  5.7020526285E+00  2.8505580421E+00
                       5.9100339894E+00  5.7020526285E+00  8.9695099366E+00
                       5.9100339894E+00  2.5751414857E+00  5.9100339894E+00
                       8.9695099366E+00  5.7020526285E+00  5.9100339894E+00
                       2.8505580421E+00  5.7020526285E+00  5.9100339893E+00
                       4.3409652079E-16 -4.9703504488E-05  4.3409652079E-16
           xangst2     2.9251683382E+00  2.8223586964E+00  2.9251683382E+00
                       8.7755050145E+00  8.4668290360E+00  8.7755050145E+00
                       5.8503366763E+00  8.7397058055E+00  5.8503366763E+00
                       5.8503366763E+00  5.6444561373E+00  2.8217645265E+00
                       5.8503366763E+00  5.6444561373E+00  8.8789088261E+00
                       5.8503366764E+00  2.5491299555E+00  5.8503366764E+00
                       8.8789088261E+00  5.6444561373E+00  5.8503366763E+00
                       2.8217645265E+00  5.6444561373E+00  5.8503366763E+00
                       4.2971136632E-16 -4.9201448887E-05  4.2971136632E-16
           xangst3     2.8953196816E+00  2.7935591179E+00  2.8953196816E+00
                       8.6859590449E+00  8.3804328213E+00  8.6859590449E+00
                       5.7906393633E+00  8.6505251340E+00  5.7906393633E+00
                       5.7906393633E+00  5.5868596461E+00  2.7929710110E+00
                       5.7906393633E+00  5.5868596461E+00  8.7883077156E+00
                       5.7906393633E+00  2.5231184254E+00  5.7906393633E+00
                       8.7883077156E+00  5.5868596461E+00  5.7906393633E+00
[...]
                      -4.3615170721E-17  3.5200280518E-06 -4.3608913342E-17
           xangst7     2.7866205103E+00  2.6577251392E+00  2.7866205103E+00
                       8.3598615308E+00  7.9731732535E+00  8.3598615308E+00
                       5.5732410205E+00  8.0479235072E+00  5.5732410205E+00
                       5.5732410205E+00  5.3154529243E+00  2.8316175384E+00
                       5.5732410206E+00  5.3154529243E+00  8.3148645026E+00
                       5.5732410206E+00  2.5829819490E+00  5.5732410206E+00
                       8.3148645026E+00  5.3154529243E+00  5.5732410206E+00
                       2.8316175384E+00  5.3154529243E+00  5.5732410205E+00
                      -2.8925176572E-17  3.3872673507E-06 -2.8920156343E-17
           xangst8     2.7594284611E+00  2.6238730925E+00  2.7594284611E+00
                       8.2782853832E+00  7.8716081361E+00  8.2782853832E+00
                       5.5188569221E+00  7.9185598053E+00  5.5188569221E+00
                       5.5188569221E+00  5.2477377849E+00  2.8205533557E+00
                       5.5188569221E+00  5.2477377849E+00  8.2171604885E+00
                       5.5188569221E+00  2.5769174814E+00  5.5188569221E+00
                       8.2171604885E+00  5.2477377849E+00  5.5188569221E+00
                       2.8205533557E+00  5.2477377849E+00  5.5188569221E+00
                      -3.9357528856E-17  4.2793949474E-06 -3.9363372173E-17
           xangst9     2.7321126281E+00  2.5902643767E+00  2.7321126281E+00
                       8.1963378842E+00  7.7707882078E+00  8.1963378842E+00
                       5.4642252561E+00  7.7914241631E+00  5.4642252561E+00
                       5.4642252561E+00  5.1805282614E+00  2.8079934051E+00
                       5.4642252561E+00  5.1805282614E+00  8.1204571072E+00
                       5.4642252561E+00  2.5696307175E+00  5.4642252561E+00
                       8.1204571072E+00  5.1805282614E+00  5.4642252561E+00
                       2.8079934051E+00  5.1805282614E+00  5.4642252561E+00
                      -2.7482368749E-17  3.2934844340E-06 -2.7476004728E-17
           xangst10    2.7043970653E+00  2.5574317875E+00  2.7043970653E+00
                       8.1131911960E+00  7.6722866229E+00  8.1131911960E+00
                       5.4087941306E+00  7.6684972539E+00  5.4087941306E+00
                       5.4087941306E+00  5.1148579828E+00  2.7941095312E+00
                       5.4087941307E+00  5.1148579828E+00  8.0234787300E+00
                       5.4087941307E+00  2.5612200318E+00  5.4087941307E+00
                       8.0234787300E+00  5.1148579828E+00  5.4087941307E+00
                       2.7941095312E+00  5.1148579828E+00  5.4087941306E+00
                      -3.4160263959E-17  3.7914191142E-06 -3.4212377689E-17
            xcart1     5.5856832824E+00  5.3847073926E+00  5.5856832824E+00
                       1.6757049847E+01  1.6154225557E+01  1.6757049847E+01
                       1.1171366565E+01  1.6624886758E+01  1.1171366565E+01
                       1.1171366565E+01  1.0769545372E+01  5.4335589857E+00
                       1.1171366565E+01  1.0769545372E+01  1.6909174144E+01
                       1.1171366565E+01  4.9141910034E+00  1.1171366565E+01
                       1.6909174144E+01  1.0769545372E+01  1.1171366565E+01
                       5.4335589857E+00  1.0769545372E+01  1.1171366565E+01
                      -2.3460248058E-16  2.2042753113E-05 -2.3461430872E-16
            xcart2     5.5302290865E+00  5.3285644847E+00  5.5302290865E+00
                       1.6590687259E+01  1.5985572341E+01  1.6590687259E+01
                       1.1060458173E+01  1.6402402327E+01  1.1060458173E+01
                       1.1060458173E+01  1.0656991232E+01  5.4241061431E+00
                       1.1060458173E+01  1.0656991232E+01  1.6696810203E+01
                       1.1060458173E+01  4.9116245320E+00  1.1060458173E+01
                       1.6696810203E+01  1.0656991232E+01  1.1060458173E+01
                       5.4241061431E+00  1.0656991232E+01  1.1060458173E+01
                      -1.6753487832E-17  2.4432733630E-06 -1.6764613012E-17
            xcart3     5.4763928810E+00  5.2690961245E+00  5.4763928810E+00
                       1.6429178643E+01  1.5807365880E+01  1.6429178643E+01
                       1.0952785762E+01  1.6168187143E+01  1.0952785762E+01
                       1.0952785762E+01  1.0538307526E+01  5.4132714692E+00
                       1.0952785762E+01  1.0538307526E+01  1.6492300055E+01
                       1.0952785762E+01  4.9083450236E+00  1.0952785762E+01
                       1.6492300055E+01  1.0538307526E+01  1.0952785762E+01
                       5.4132714692E+00  1.0538307526E+01  1.0952785762E+01
                      -2.5919115776E-17  1.2152756058E-06 -2.5905852036E-17
            xcart4     5.4220504882E+00  5.2107676682E+00  5.4220504882E+00
                       1.6266151465E+01  1.5632259383E+01  1.6266151465E+01
                       1.0844100976E+01  1.5939010919E+01  1.0844100976E+01
                       1.0844100976E+01  1.0421496834E+01  5.4006937638E+00
                       1.0844100976E+01  1.0421496834E+01  1.6287508189E+01
                       1.0844100976E+01  4.9039709242E+00  1.0844100976E+01
                       1.6287508189E+01  1.0421496834E+01  1.0844100976E+01
                       5.4006937638E+00  1.0421496834E+01  1.0844100976E+01
                      -1.0196838658E-16  4.1856258657E-06 -1.0198101638E-16
            xcart5     5.3706543111E+00  5.1467075958E+00  5.3706543111E+00
                       1.6111962933E+01  1.5440128226E+01  1.6111962933E+01
                       1.0741308622E+01  1.5688963669E+01  1.0741308622E+01
                       1.0741308622E+01  1.0293429736E+01  5.3864911335E+00
                       1.0741308622E+01  1.0293429736E+01  1.6096126111E+01
                       1.0741308622E+01  4.8979040316E+00  1.0741308622E+01
                       1.6096126111E+01  1.0293429736E+01  1.0741308622E+01
                       5.3864911335E+00  1.0293429736E+01  1.0741308622E+01
                      -3.5090708732E-17  8.4536599357E-06 -3.5095826494E-17
            xcart6     5.3181643152E+00  5.0848088535E+00  5.3181643152E+00
                       1.5954492946E+01  1.5254396898E+01  1.5954492946E+01
                       1.0636328630E+01  1.5448778221E+01  1.0636328630E+01
                       1.0636328630E+01  1.0169593565E+01  5.3698151651E+00
                       1.0636328630E+01  1.0169593565E+01  1.5902842096E+01
                       1.0636328630E+01  4.8904045561E+00  1.0636328630E+01
                       1.5902842096E+01  1.0169593565E+01  1.0636328630E+01
                       5.3698151651E+00  1.0169593565E+01  1.0636328630E+01
                      -8.2420727902E-17  6.6518889980E-06 -8.2408903169E-17
            xcart7     5.2659496007E+00  5.0223726495E+00  5.2659496007E+00
                       1.5797848802E+01  1.5067113859E+01  1.5797848802E+01
                       1.0531899201E+01  1.5208371367E+01  1.0531899201E+01
                       1.0531899201E+01  1.0044750299E+01  5.3509816607E+00
                       1.0531899201E+01  1.0044750299E+01  1.5712816742E+01
                       1.0531899201E+01  4.8811284897E+00  1.0531899201E+01
                       1.5712816742E+01  1.0044750299E+01  1.0531899201E+01
                       5.3509816607E+00  1.0044750299E+01  1.0531899201E+01
                      -5.4660662066E-17  6.4010076317E-06 -5.4651175209E-17
            xcart8     5.2145640747E+00  4.9584015523E+00  5.2145640747E+00
                       1.5643692224E+01  1.4875183603E+01  1.5643692224E+01
                       1.0429128149E+01  1.4963909399E+01  1.0429128149E+01
                       1.0429128149E+01  9.9167872307E+00  5.3300733855E+00
                       1.0429128149E+01  9.9167872307E+00  1.5528182913E+01
                       1.0429128149E+01  4.8696683069E+00  1.0429128149E+01
                       1.5528182913E+01  9.9167872307E+00  1.0429128149E+01
                       5.3300733855E+00  9.9167872307E+00  1.0429128149E+01
                      -7.4374950804E-17  8.0868844651E-06 -7.4385993073E-17
            xcart9     5.1629446312E+00  4.8948902838E+00  5.1629446312E+00
                       1.5488833894E+01  1.4684661549E+01  1.5488833894E+01
                       1.0325889262E+01  1.4723657853E+01  1.0325889262E+01
                       1.0325889262E+01  9.7897796376E+00  5.3063385186E+00
                       1.0325889263E+01  9.7897796376E+00  1.5345440006E+01
                       1.0325889263E+01  4.8558983187E+00  1.0325889263E+01
                       1.5345440006E+01  9.7897796376E+00  1.0325889263E+01
                       5.3063385186E+00  9.7897796376E+00  1.0325889262E+01
                      -5.1934150418E-17  6.2237836033E-06 -5.1922124162E-17
            xcart10    5.1105698080E+00  4.8328456818E+00  5.1105698080E+00
                       1.5331709424E+01  1.4498520530E+01  1.5331709424E+01
                       1.0221139616E+01  1.4491359661E+01  1.0221139616E+01
                       1.0221139616E+01  9.6656807961E+00  5.2801017993E+00
                       1.0221139616E+01  9.6656807961E+00  1.5162177433E+01
                       1.0221139616E+01  4.8400044262E+00  1.0221139616E+01
                       1.5162177433E+01  9.6656807961E+00  1.0221139616E+01
                       5.2801017993E+00  9.6656807961E+00  1.0221139616E+01
                      -6.4553543510E-17  7.1647437808E-06 -6.4652024187E-17
             xred1     2.4999760019E-01  2.5000239981E-01  2.4999760019E-01
                       7.4999760019E-01  7.5000239981E-01  7.4999760019E-01
                       7.7184914423E-01  2.2815085577E-01  7.7184914423E-01
                       2.4319259316E-01  2.4319006684E-01  7.5680993316E-01
                       7.5680993316E-01  7.5680740684E-01  2.4319259316E-01
                       2.2815277937E-01  7.7184722063E-01  2.2815277937E-01
                       2.4319259316E-01  7.5680740684E-01  7.5680993316E-01
                       7.5680993316E-01  2.4319006684E-01  2.4319259316E-01
                       1.0233862266E-06 -1.0233862266E-06  1.0233862266E-06
             xred2     2.5000284116E-01  2.4999715884E-01  2.5000284116E-01
                       7.5000284116E-01  7.4999715884E-01  7.5000284116E-01
                       7.6955945552E-01  2.3044054448E-01  7.6955945552E-01
                       2.4520181734E-01  2.4520337729E-01  7.5479662271E-01
                       7.5479662271E-01  7.5479818266E-01  2.4520181734E-01
                       2.3044106743E-01  7.6955893257E-01  2.3044106743E-01
                       2.4520181734E-01  7.5479818266E-01  7.5479662271E-01
                       7.5479662271E-01  2.4520337729E-01  2.4520181734E-01
                       1.1463223993E-07 -1.1463223993E-07  1.1463223993E-07
             xred3     2.4999816130E-01  2.5000183870E-01  2.4999816130E-01
                       7.4999816130E-01  7.5000183870E-01  7.4999816130E-01
                       7.6711772985E-01  2.3288227015E-01  7.6711772985E-01
                       2.4712026889E-01  2.4711668478E-01  7.5288331522E-01
                       7.5288331522E-01  7.5287973111E-01  2.4712026889E-01
                       2.3288192166E-01  7.6711807834E-01  2.3288192166E-01
                       2.4712026889E-01  7.5287973111E-01  7.5288331522E-01
                       7.5288331522E-01  2.4711668478E-01  2.4712026889E-01
                       5.7660110907E-08 -5.7660110909E-08  5.7660110907E-08
             xred4     2.5000104643E-01  2.4999895357E-01  2.5000104643E-01
                       7.5000104643E-01  7.4999895357E-01  7.5000104643E-01
                       7.6471830305E-01  2.3528169695E-01  7.6471830305E-01
                       2.4901552938E-01  2.4901503816E-01  7.5098496184E-01
                       7.5098496184E-01  7.5098447062E-01  2.4901552938E-01
                       2.3528162083E-01  7.6471837917E-01  2.3528162083E-01
                       2.4901552938E-01  7.5098447062E-01  7.5098496184E-01
                       7.5098496184E-01  2.4901503816E-01  2.4901552938E-01
                       2.0081702218E-07 -2.0081702219E-07  2.0081702218E-07
             xred5     2.4999986791E-01  2.5000013209E-01  2.4999986791E-01
                       7.4999986791E-01  7.5000013209E-01  7.4999986791E-01
                       7.6208697927E-01  2.3791302073E-01  7.6208697927E-01
                       2.5073763472E-01  2.5073675011E-01  7.4926324989E-01
                       7.4926324989E-01  7.4926236528E-01  2.5073763472E-01
                       2.3791430505E-01  7.6208569495E-01  2.3791430505E-01
                       2.5073763472E-01  7.4926236528E-01  7.4926324989E-01
                       7.4926324989E-01  2.5073675011E-01  2.5073763472E-01
                       4.1063414386E-07 -4.1063414385E-07  4.1063414386E-07
             xred6     2.5000072920E-01  2.4999927080E-01  2.5000072920E-01
                       7.5000072920E-01  7.4999927080E-01  7.5000072920E-01
                       7.5955772022E-01  2.4044227978E-01  7.5955772022E-01
                       2.5242831083E-01  2.5242776797E-01  7.4757223203E-01
                       7.4757223203E-01  7.4757168917E-01  2.5242831083E-01
                       2.4044260863E-01  7.5955739137E-01  2.4044260863E-01
                       2.5242831083E-01  7.4757168917E-01  7.4757223203E-01
                       7.4757223203E-01  2.5242776797E-01  2.5242831083E-01
                       3.2704810504E-07 -3.2704810505E-07  3.2704810504E-07
             xred7     2.5000010178E-01  2.4999989822E-01  2.5000010178E-01
                       7.5000010178E-01  7.4999989822E-01  7.5000010178E-01
                       7.5703151777E-01  2.4296848223E-01  7.5703151777E-01
                       2.5403733405E-01  2.5403642913E-01  7.4596357087E-01
                       7.4596357087E-01  7.4596266595E-01  2.5403733405E-01
                       2.4296935022E-01  7.5703064978E-01  2.4296935022E-01
                       2.5403733405E-01  7.4596266595E-01  7.4596357087E-01
                       7.4596357087E-01  2.5403642913E-01  2.5403733405E-01
                       3.1862481562E-07 -3.1862481562E-07  3.1862481562E-07
             xred8     2.5000053077E-01  2.4999946923E-01  2.5000053077E-01
                       7.5000053077E-01  7.4999946923E-01  7.5000053077E-01
                       7.5447404828E-01  2.4552595172E-01  7.5447404828E-01
                       2.5553808320E-01  2.5553756082E-01  7.4446243918E-01
                       7.4446243918E-01  7.4446191680E-01  2.5553808320E-01
                       2.4552663768E-01  7.5447336232E-01  2.4552663768E-01
                       2.5553808320E-01  7.4446191680E-01  7.4446243918E-01
                       7.4446243918E-01  2.5553756082E-01  2.5553808320E-01
                       4.0773732971E-07 -4.0773732971E-07  4.0773732971E-07
             xred9     2.5000023754E-01  2.4999976246E-01  2.5000023754E-01
                       7.5000023754E-01  7.4999976246E-01  7.5000023754E-01
                       7.5199192371E-01  2.4800807629E-01  7.5199192371E-01
                       2.5694384349E-01  2.5694298831E-01  7.4305701169E-01
                       7.4305701169E-01  7.4305615651E-01  2.5694384349E-01
                       2.4800877298E-01  7.5199122702E-01  2.4800877298E-01
                       2.5694384349E-01  7.4305615651E-01  7.4305701169E-01
                       7.4305701169E-01  2.5694298831E-01  2.5694384349E-01
                       3.1787175790E-07 -3.1787175790E-07  3.1787175790E-07
             xred10    2.5000042716E-01  2.4999957284E-01  2.5000042716E-01
                       7.5000042716E-01  7.4999957284E-01  7.5000042716E-01
                       7.4962999935E-01  2.5037000065E-01  7.4962999935E-01
                       2.5829351164E-01  2.5829289630E-01  7.4170710370E-01
                       7.4170710370E-01  7.4170648836E-01  2.5829351164E-01
                       2.5037074504E-01  7.4962925496E-01  2.5037074504E-01
                       2.5829351164E-01  7.4170648836E-01  7.4170710370E-01
                       7.4170710370E-01  2.5829289630E-01  2.5829351164E-01
                       3.7062822271E-07 -3.7062822271E-07  3.7062822271E-07
            znucl       55.00000   53.00000   72.00000   35.00000

- Timing analysis has been suppressed with timopt=0

 Suggested references for the acknowledgment of ABINIT usage.

 Calculation completed.
.Delivered   0 WARNINGs and 183 COMMENTs to log file.