.Version 9.2.2 of ABINIT

 ABINIT is a project of the Universite Catholique de Louvain,
 Corning Inc. and other collaborators, see ~abinit/doc/developers/contributors.txt .
 acknowledgments of the ABINIT effort.

.Starting date : Sat 26 Nov 2022.
- ( at 08h55 )

- input  file    -> Cs2TiI6.in
- output file    -> Cs2TiI6.out
- root for input  files -> Cs2TiI6i
- root for output files -> Cs2TiI6o

- inpspheads : Reading pseudopotential header in XML form from
-   ../../../Psps_for_tests/ATOMICDATA/Cs.GGA_PBE-JTH.xml
- inpspheads : Reading pseudopotential header in XML form from
-   ../../../Psps_for_tests/ATOMICDATA/I.GGA_PBE-JTH.xml
- inpspheads : Reading pseudopotential header in XML form from
-   ../../../Psps_for_tests/ATOMICDATA/Zr.GGA_PBE-JTH.xml
- inpspheads : Reading pseudopotential header in XML form from
-   ../../../Psps_for_tests/ATOMICDATA/Br.GGA_PBE-JTH.xml

 DATASET    1 : space group I4/m m m (#139); Bravais tI (body-center tetrag.)
     intxc =       0    ionmov =       2      iscf =      17    lmnmax =      18
     lnmax =       6     mgfft =      64  mpssoang =       3    mqgrid =    3874
     natom =       9  nloc_mem =       2    nspden =       1   nspinor =       1
    nsppol =       1      nsym =      16    n1xccc =       1    ntypat =       4
    occopt =       1   xclevel =       2
-    mband =          42        mffmem =           1         mkmem =           4
       mpw =       10058          nfft =      262144          nkpt =          20
Pmy_natom=         2
 PAW method is used; the additional fine FFT grid is defined by:
   mgfftf=       100    nfftf =   1000000
  Rough estimation (10% accuracy) of disk space for files :

[...]

 DATASET    9 : space group I4/m m m (#139); Bravais tI (body-center tetrag.)
     intxc =       0    ionmov =       2      iscf =      17    lmnmax =      18
     lnmax =       6     mgfft =      64  mpssoang =       3    mqgrid =    3843
     natom =       9  nloc_mem =       2    nspden =       1   nspinor =       1
    nsppol =       1      nsym =      16    n1xccc =       1    ntypat =       4
    occopt =       1   xclevel =       2
-    mband =          42        mffmem =           1         mkmem =           4
       mpw =        9797          nfft =      262144          nkpt =          20
Pmy_natom=         2
 PAW method is used; the additional fine FFT grid is defined by:
   mgfftf=        96    nfftf =    884736
  Rough estimation (10% accuracy) of disk space for files :

------------- Echo of variables that govern the present computation ------------
-
- outvars: echo of selected default values
-   iomode0 =  0 , fftalg0 =112 , wfoptalg0 = 10
-
- outvars: echo of global parameters not present in the input file
-  max_nthreads =    0
-
 -outvars: echo values of preprocessed input variables --------
            acell1     1.4384684566E+01  1.4384684566E+01  1.4747946689E+01 Bohr
            acell2     1.4370285483E+01  1.4370285483E+01  1.4733183979E+01 Bohr
            acell3     1.4355886399E+01  1.4355886399E+01  1.4718421270E+01 Bohr
            acell4     1.4341487315E+01  1.4341487315E+01  1.4703658560E+01 Bohr
            acell5     1.4327088232E+01  1.4327088232E+01  1.4688895851E+01 Bohr
            acell6     1.4312689148E+01  1.4312689148E+01  1.4674133142E+01 Bohr
            acell7     1.4298290064E+01  1.4298290064E+01  1.4659370432E+01 Bohr
            acell8     1.4283890981E+01  1.4283890981E+01  1.4644607723E+01 Bohr
            acell9     1.4269491897E+01  1.4269491897E+01  1.4629845013E+01 Bohr
              amu      1.32905430E+02  1.26904470E+02  9.12240000E+01
                       7.99040000E+01
           diemac      1.20000000E+01
          dilatmx      1.15000000E+00
             ecut      1.60000000E+01 Hartree
           ecutsm      5.00000000E-01 Hartree
-          fftalg         112
          getxred1          0
          getxred2         -1
          getxred3         -1
          getxred4         -1
          getxred5         -1
          getxred6         -1
          getxred7         -1
          getxred8         -1
          getxred9         -1
           ionmov           2
              ixc     -101130
           jdtset        1    2    3    4    5    6    7    8    9
              kpt     -1.25000000E-01 -2.50000000E-01  0.00000000E+00
                      -1.25000000E-01  5.00000000E-01  0.00000000E+00
                      -2.50000000E-01 -3.75000000E-01  0.00000000E+00
                      -1.25000000E-01 -3.75000000E-01  1.25000000E-01
                      -1.25000000E-01  2.50000000E-01  0.00000000E+00
                      -2.50000000E-01  3.75000000E-01  0.00000000E+00
                      -1.25000000E-01  3.75000000E-01  1.25000000E-01
                      -3.75000000E-01  5.00000000E-01  0.00000000E+00
                      -2.50000000E-01  5.00000000E-01  1.25000000E-01
                      -1.25000000E-01  5.00000000E-01  2.50000000E-01
                      -1.25000000E-01  0.00000000E+00  0.00000000E+00
                      -1.25000000E-01  1.25000000E-01  1.25000000E-01
                      -1.25000000E-01  2.50000000E-01  2.50000000E-01
                      -1.25000000E-01  3.75000000E-01  3.75000000E-01
                      -3.75000000E-01  0.00000000E+00  0.00000000E+00
                      -2.50000000E-01  0.00000000E+00  1.25000000E-01
                      -3.75000000E-01  1.25000000E-01  1.25000000E-01
                      -2.50000000E-01  1.25000000E-01  2.50000000E-01
                      -3.75000000E-01  2.50000000E-01  2.50000000E-01
                      -2.50000000E-01  2.50000000E-01  3.75000000E-01
         kptrlatt        4   -4    4     -4    4    4     -4   -4    4
          kptrlen1     7.92638871E+01
          kptrlen2     7.91845439E+01
          kptrlen3     7.91052006E+01
          kptrlen4     7.90258574E+01
          kptrlen5     7.89465142E+01
          kptrlen6     7.88671709E+01
          kptrlen7     7.87878277E+01
          kptrlen8     7.87084845E+01
          kptrlen9     7.86291412E+01
P           mkmem           4
            natom           9
            nband          42
           ndtset           9
            ngfft          64      64      64
          ngfftdg1        100     100     100
          ngfftdg2        100     100     100
          ngfftdg3        100     100     100
          ngfftdg4        100     100     100
          ngfftdg5        100     100     100
          ngfftdg6        100     100     100
          ngfftdg7         96      96      96
          ngfftdg8         96      96      96
          ngfftdg9         96      96      96
             nkpt          20
            nstep        2500
             nsym          16
            ntime        1000
           ntypat           4
              occ      2.000000  2.000000  2.000000  2.000000  2.000000  2.000000
                       2.000000  2.000000  2.000000  2.000000  2.000000  2.000000
                       2.000000  2.000000  2.000000  2.000000  2.000000  2.000000
                       2.000000  2.000000  2.000000  2.000000  2.000000  2.000000
                       2.000000  2.000000  2.000000  2.000000  2.000000  2.000000
                       2.000000  2.000000  2.000000  2.000000  2.000000  2.000000
                       0.000000  0.000000  0.000000  0.000000  0.000000  0.000000
          optcell           3
        optforces           1
        pawecutdg      4.00000000E+01 Hartree
            prtwf           0
            rprim      0.0000000000E+00  7.2496362806E-01  6.8878714998E-01
                       7.2496362806E-01  0.0000000000E+00  6.8878714998E-01
                       7.0710678119E-01  7.0710678119E-01  0.0000000000E+00
           shiftk      5.00000000E-01  5.00000000E-01  5.00000000E-01
          spgroup         139
           symrel      1  0  0   0  1  0   0  0  1      -1  0  0   0 -1  0   0  0 -1
                      -1  0  1   0 -1  1   0  0  1       1  0 -1   0  1 -1   0  0 -1
                       0  1 -1   1  0 -1   0  0 -1       0 -1  1  -1  0  1   0  0  1
                       0 -1  0  -1  0  0   0  0 -1       0  1  0   1  0  0   0  0  1
                       1  0  0   1  0 -1   1 -1  0      -1  0  0  -1  0  1  -1  1  0
                       0 -1  0   0 -1  1   1 -1  0       0  1  0   0  1 -1  -1  1  0
                       0  1 -1   0  1  0  -1  1  0       0 -1  1   0 -1  0   1 -1  0
                      -1  0  1  -1  0  0  -1  1  0       1  0 -1   1  0  0   1 -1  0
           toldff      1.00000000E-08
           tolmxf      1.00000000E-05
            typat      1  1  4  4  2  2  2  2  3
           useylm           1
              wtk        0.03125    0.03125    0.03125    0.06250    0.03125    0.03125
                         0.06250    0.03125    0.06250    0.06250    0.03125    0.06250
                         0.06250    0.06250    0.03125    0.06250    0.06250    0.06250
                         0.06250    0.06250
           xangst1     2.7592286868E+00  2.7592286868E+00  2.6215401569E+00
                       8.2776860603E+00  8.2776860603E+00  7.8646204707E+00
                       5.5184573736E+00  5.5184573736E+00  2.5918061227E+00
                       5.5184573734E+00  5.5184573734E+00  7.8943545049E+00
                       8.2033133228E+00  5.5184573736E+00  5.2430803138E+00
                       5.5184573736E+00  8.2033133228E+00  5.2430803138E+00
                       5.5184573735E+00  2.8336014242E+00  5.2430803138E+00
                       2.8336014242E+00  5.5184573735E+00  5.2430803138E+00
                      -1.8808354113E-21  4.1798698460E-21 -1.0238234088E-20
           xangst2     2.7564666961E+00  2.7564666961E+00  2.6189159926E+00
                       8.2694000882E+00  8.2694000882E+00  7.8567479777E+00
                       5.5129333922E+00  5.5129333922E+00  2.5892117221E+00
                       5.5129333921E+00  5.5129333921E+00  7.8864522482E+00
                       8.1951017980E+00  5.5129333922E+00  5.2378319852E+00
                       5.5129333922E+00  8.1951017980E+00  5.2378319852E+00
                       5.5129333921E+00  2.8307649863E+00  5.2378319852E+00
                       2.8307649863E+00  5.5129333921E+00  5.2378319852E+00
                      -1.8789526932E-21  4.1756857921E-21 -1.0227985605E-20
           xangst3     2.7537047054E+00  2.7537047054E+00  2.6162918283E+00
                       8.2611141162E+00  8.2611141162E+00  7.8488754848E+00
                       5.5074094109E+00  5.5074094109E+00  2.5866173216E+00
                       5.5074094107E+00  5.5074094107E+00  7.8785499914E+00
                       8.1868902732E+00  5.5074094108E+00  5.2325836565E+00
                       5.5074094108E+00  8.1868902732E+00  5.2325836565E+00
                       5.5074094107E+00  2.8279285484E+00  5.2325836565E+00
                       2.8279285484E+00  5.5074094107E+00  5.2325836565E+00
                      -1.8770699751E-21  4.1715017382E-21 -1.0217737123E-20
           xangst4     2.7509427147E+00  2.7509427147E+00  2.6136676639E+00
                       8.2528281442E+00  8.2528281442E+00  7.8410029918E+00
[...]
                       5.1834455841E-21 -9.5340391376E-22  6.1494698567E-21
           xangst4     2.7519890941E+00  2.7519890941E+00  2.6116804701E+00
                       8.2559672822E+00  8.2559672822E+00  7.8350414103E+00
                       5.5039781882E+00  5.5039781882E+00  2.5916736478E+00
                       5.5039781881E+00  5.5039781881E+00  7.8550482326E+00
                       8.1761950714E+00  5.5039781882E+00  5.2233609402E+00
                       5.5039781882E+00  8.1761950714E+00  5.2233609402E+00
                       5.5039781881E+00  2.8317613048E+00  5.2233609402E+00
                       2.8317613048E+00  5.5039781881E+00  5.2233609402E+00
                      -1.5353739854E-21  3.7932831975E-21 -9.8631161527E-21
           xangst5     2.7494235230E+00  2.7494235230E+00  2.6086835368E+00
                       8.2482705690E+00  8.2482705690E+00  7.8260506103E+00
                       5.4988470460E+00  5.4988470460E+00  2.5909507395E+00
                       5.4988470459E+00  5.4988470459E+00  7.8437834075E+00
                       8.1671403466E+00  5.4988470460E+00  5.2173670735E+00
                       5.4988470460E+00  8.1671403466E+00  5.2173670735E+00
                       5.4988470459E+00  2.8305537454E+00  5.2173670735E+00
                       2.8305537454E+00  5.4988470459E+00  5.2173670735E+00
                      -1.7764861790E-21  4.1927201921E-21 -9.7323708935E-21
           xangst6     2.7469771852E+00  2.7469771852E+00  2.6054604882E+00
                       8.2409315555E+00  8.2409315555E+00  7.8163814647E+00
                       5.4939543704E+00  5.4939543704E+00  2.5901987341E+00
                       5.4939543703E+00  5.4939543703E+00  7.8316432188E+00
                       8.1585849418E+00  5.4939543704E+00  5.2109209765E+00
                       5.4939543704E+00  8.1585849418E+00  5.2109209765E+00
                       5.4939543703E+00  2.8293237989E+00  5.2109209765E+00
                       2.8293237989E+00  5.4939543703E+00  5.2109209765E+00
                      -1.8724841434E-21  4.1613104267E-21 -1.0175436113E-20
           xangst7     2.7444912671E+00  2.7444912671E+00  2.6023127061E+00
                       8.2334738013E+00  8.2334738013E+00  7.8069381184E+00
                       5.4889825343E+00  5.4889825343E+00  2.5894905191E+00
                       5.4889825342E+00  5.4889825342E+00  7.8197603054E+00
                       8.1498536807E+00  5.4889825343E+00  5.2046254123E+00
                       5.4889825343E+00  8.1498536807E+00  5.2046254123E+00
                       5.4889825342E+00  2.8281113877E+00  5.2046254123E+00
                       2.8281113877E+00  5.4889825342E+00  5.2046254123E+00
                      -1.6577591906E-21  3.2949294710E-21 -9.6050221361E-21
           xangst8     2.7419353996E+00  2.7419353996E+00  2.5992977003E+00
                       8.2258061988E+00  8.2258061988E+00  7.7978931009E+00
                       5.4838707993E+00  5.4838707993E+00  2.5887644461E+00
                       5.4838707991E+00  5.4838707991E+00  7.8084263552E+00
                       8.1408525587E+00  5.4838707993E+00  5.1985954006E+00
                       5.4838707993E+00  8.1408525587E+00  5.1985954006E+00
                       5.4838707991E+00  2.8268890397E+00  5.1985954006E+00
                       2.8268890397E+00  5.4838707991E+00  5.1985954006E+00
                      -5.5793381307E-21  7.0889169005E-21 -4.5377694096E-21
           xangst9     2.7393967792E+00  2.7393967792E+00  2.5962500923E+00
                       8.2181903377E+00  8.2181903377E+00  7.7887502769E+00
                       5.4787935585E+00  5.4787935585E+00  2.5880373814E+00
                       5.4787935584E+00  5.4787935584E+00  7.7969629878E+00
                       8.1319482404E+00  5.4787935585E+00  5.1925001846E+00
                       5.4787935585E+00  8.1319482404E+00  5.1925001846E+00
                       5.4787935584E+00  2.8256388765E+00  5.1925001846E+00
                       2.8256388765E+00  5.4787935584E+00  5.1925001846E+00
                      -8.5219591069E-21  1.0127419032E-20 -9.1768720718E-21
            xcart1     5.2141677897E+00  5.2141677897E+00  4.9540286027E+00
                       1.5642503369E+01  1.5642503369E+01  1.4862085808E+01
                       1.0428335580E+01  1.0428335580E+01  4.9015841172E+00
                       1.0428335579E+01  1.0428335579E+01  1.4914530294E+01
                       1.5498814411E+01  1.0428335580E+01  9.9080572054E+00
                       1.0428335580E+01  1.5498814411E+01  9.9080572054E+00
                       1.0428335579E+01  5.3578567476E+00  9.9080572054E+00
                       5.3578567476E+00  1.0428335579E+01  9.9080572054E+00
                      -3.5542510364E-21  7.8987808516E-21 -1.9347597777E-20
            xcart2     5.2098037804E+00  5.2098037804E+00  4.9474446106E+00
                       1.5629411341E+01  1.5629411341E+01  1.4842333832E+01
                       1.0419607561E+01  1.0419607561E+01  4.9001849028E+00
                       1.0419607561E+01  1.0419607561E+01  1.4889593540E+01
                       1.5483533016E+01  1.0419607561E+01  9.8948892213E+00
                       1.0419607561E+01  1.5483533016E+01  9.8948892213E+00
                       1.0419607561E+01  5.3556821061E+00  9.8948892213E+00
                       5.3556821061E+00  1.0419607561E+01  9.8948892213E+00
                      -2.2403015615E-21  5.2344939114E-21 -2.0892151310E-20
            xcart3     5.2052842094E+00  5.2052842094E+00  4.9411567436E+00
                       1.5615852628E+01  1.5615852628E+01  1.4823470231E+01
                       1.0410568419E+01  1.0410568419E+01  4.8987714066E+00
                       1.0410568419E+01  1.0410568419E+01  1.4865855568E+01
                       1.5467595938E+01  1.0410568419E+01  9.8823134872E+00
                       1.0410568419E+01  1.5467595938E+01  9.8823134872E+00
                       1.0410568419E+01  5.3535408999E+00  9.8823134872E+00
                       5.3535408999E+00  1.0410568419E+01  9.8823134872E+00
                       9.7952925787E-21 -1.8016722910E-21  1.1620813892E-20
            xcart4     5.2005057085E+00  5.2005057085E+00  4.9353608351E+00
                       1.5601517125E+01  1.5601517125E+01  1.4806082505E+01
                       1.0401011417E+01  1.0401011417E+01  4.8975534201E+00
                       1.0401011417E+01  1.0401011417E+01  1.4843889920E+01
                       1.5450769494E+01  1.0401011417E+01  9.8707216701E+00
                       1.0401011417E+01  1.5450769494E+01  9.8707216701E+00
                       1.0401011417E+01  5.3512533398E+00  9.8707216701E+00
                       5.3512533398E+00  1.0401011417E+01  9.8707216701E+00
                      -2.9014363440E-21  7.1682663877E-21 -1.8638588345E-20
            xcart5     5.1956574818E+00  5.1956574818E+00  4.9296974518E+00
                       1.5586972445E+01  1.5586972445E+01  1.4789092356E+01
                       1.0391314964E+01  1.0391314964E+01  4.8961873215E+00
                       1.0391314963E+01  1.0391314963E+01  1.4822602486E+01
                       1.5433658544E+01  1.0391314964E+01  9.8593949037E+00
                       1.0391314964E+01  1.5433658544E+01  9.8593949037E+00
                       1.0391314963E+01  5.3489713832E+00  9.8593949037E+00
                       5.3489713832E+00  1.0391314963E+01  9.8593949037E+00
                      -3.3570723572E-21  7.9230929149E-21 -1.8391515612E-20
            xcart6     5.1910345733E+00  5.1910345733E+00  4.9236067728E+00
                       1.5573103720E+01  1.5573103720E+01  1.4770820318E+01
                       1.0382069147E+01  1.0382069147E+01  4.8947662372E+00
                       1.0382069146E+01  1.0382069146E+01  1.4799660854E+01
                       1.5417491172E+01  1.0382069147E+01  9.8472135456E+00
                       1.0382069147E+01  1.5417491172E+01  9.8472135456E+00
                       1.0382069146E+01  5.3466471211E+00  9.8472135456E+00
                       5.3466471211E+00  1.0382069146E+01  9.8472135456E+00
                      -3.5384822192E-21  7.8637370604E-21 -1.9228787537E-20
            xcart7     5.1863368689E+00  5.1863368689E+00  4.9176583267E+00
                       1.5559010607E+01  1.5559010607E+01  1.4752974980E+01
                       1.0372673738E+01  1.0372673738E+01  4.8934279047E+00
                       1.0372673738E+01  1.0372673738E+01  1.4777205402E+01
                       1.5400991480E+01  1.0372673738E+01  9.8353166534E+00
                       1.0372673738E+01  1.5400991480E+01  9.8353166534E+00
                       1.0372673738E+01  5.3443559961E+00  9.8353166534E+00
                       5.3443559961E+00  1.0372673738E+01  9.8353166534E+00
                      -3.1327108646E-21  6.2265143273E-21 -1.8150861338E-20
            xcart8     5.1815069793E+00  5.1815069793E+00  4.9119607914E+00
                       1.5544520938E+01  1.5544520938E+01  1.4735882374E+01
                       1.0363013959E+01  1.0363013959E+01  4.8920558256E+00
                       1.0363013959E+01  1.0363013959E+01  1.4755787340E+01
                       1.5383981824E+01  1.0363013959E+01  9.8239215828E+00
                       1.0363013959E+01  1.5383981824E+01  9.8239215828E+00
                       1.0363013959E+01  5.3420460931E+00  9.8239215828E+00
                       5.3420460931E+00  1.0363013959E+01  9.8239215828E+00
                      -1.0543421070E-20  1.3396111521E-20 -8.5751414384E-21
            xcart9     5.1767096820E+00  5.1767096820E+00  4.9062016469E+00
                       1.5530129046E+01  1.5530129046E+01  1.4718604941E+01
                       1.0353419364E+01  1.0353419364E+01  4.8906818726E+00
                       1.0353419364E+01  1.0353419364E+01  1.4734124715E+01
                       1.5367155101E+01  1.0353419364E+01  9.8124032939E+00
                       1.0353419364E+01  1.5367155101E+01  9.8124032939E+00
                       1.0353419364E+01  5.3396836269E+00  9.8124032939E+00
                       5.3396836269E+00  1.0353419364E+01  9.8124032939E+00
                      -1.6104168828E-20  1.9138048404E-20 -1.7341774972E-20
             xred1     2.5000000000E-01  2.5000000000E-01  2.5000000000E-01
                       7.5000000000E-01  7.5000000000E-01  7.5000000000E-01
                       2.4735344254E-01  2.4735344254E-01  7.5264655746E-01
                       7.5264655746E-01  7.5264655746E-01  2.4735344254E-01
                       2.5688935242E-01  7.4311064758E-01  7.4311064758E-01
                       7.4311064758E-01  2.5688935242E-01  7.4311064758E-01
                       2.5688935242E-01  7.4311064758E-01  2.5688935242E-01
                       7.4311064758E-01  2.5688935242E-01  2.5688935242E-01
                      -4.2722639981E-22 -1.5254871722E-21  1.1846608716E-21
             xred2     2.5000000000E-01  2.5000000000E-01  2.5000000000E-01
                       7.5000000000E-01  7.5000000000E-01  7.5000000000E-01
                       2.4761191324E-01  2.4761191324E-01  7.5238808676E-01
                       7.5238808676E-01  7.5238808676E-01  2.4761191324E-01
                       2.5700018330E-01  7.4299981670E-01  7.4299981670E-01
                       7.4299981670E-01  2.5700018330E-01  7.4299981670E-01
                       2.5700018330E-01  7.4299981670E-01  2.5700018330E-01
                       7.4299981670E-01  2.5700018330E-01  2.5700018330E-01
                      -6.9701523851E-22 -1.4143930696E-21  1.1993848221E-21
             xred3     2.5000000000E-01  2.5000000000E-01  2.5000000000E-01
                       7.5000000000E-01  7.5000000000E-01  7.5000000000E-01
                       2.4785549522E-01  2.4785549522E-01  7.5214450478E-01
                       7.5214450478E-01  7.5214450478E-01  2.4785549522E-01
                       2.5712048971E-01  7.4287951029E-01  7.4287951029E-01
                       7.4287951029E-01  2.5712048971E-01  7.4287951029E-01
                       2.5712048971E-01  7.4287951029E-01  2.5712048971E-01
                       7.4287951029E-01  2.5712048971E-01  2.5712048971E-01
                       3.0979805267E-23  1.1449405808E-21 -2.0404166112E-22
             xred4     2.5000000000E-01  2.5000000000E-01  2.5000000000E-01
                       7.5000000000E-01  7.5000000000E-01  7.5000000000E-01
                       2.4808487078E-01  2.4808487078E-01  7.5191512922E-01
                       7.5191512922E-01  7.5191512922E-01  2.4808487078E-01
                       2.5724677751E-01  7.4275322249E-01  7.4275322249E-01
                       7.4275322249E-01  2.5724677751E-01  7.4275322249E-01
                       2.5724677751E-01  7.4275322249E-01  2.5724677751E-01
                       7.4275322249E-01  2.5724677751E-01  2.5724677751E-01
                      -4.6006179061E-22 -1.4282082841E-21  1.1492511492E-21
             xred5     2.5000000000E-01  2.5000000000E-01  2.5000000000E-01
                       7.5000000000E-01  7.5000000000E-01  7.5000000000E-01
                       2.4830059904E-01  2.4830059904E-01  7.5169940096E-01
                       7.5169940096E-01  7.5169940096E-01  2.4830059904E-01
                       2.5737702119E-01  7.4262297881E-01  7.4262297881E-01
                       7.4262297881E-01  2.5737702119E-01  7.4262297881E-01
                       2.5737702119E-01  7.4262297881E-01  2.5737702119E-01
                       7.4262297881E-01  2.5737702119E-01  2.5737702119E-01
                      -3.8992097138E-22 -1.4754587798E-21  1.1523935692E-21
             xred6     2.5000000000E-01  2.5000000000E-01  2.5000000000E-01
                       7.5000000000E-01  7.5000000000E-01  7.5000000000E-01
                       2.4853559916E-01  2.4853559916E-01  7.5146440084E-01
                       7.5146440084E-01  7.5146440084E-01  2.4853559916E-01
                       2.5749429356E-01  7.4250570644E-01  7.4250570644E-01
                       7.4250570644E-01  2.5749429356E-01  7.4250570644E-01
                       2.5749429356E-01  7.4250570644E-01  2.5749429356E-01
                       7.4250570644E-01  2.5749429356E-01  2.5749429356E-01
                      -4.2722639981E-22 -1.5254871722E-21  1.1846608716E-21
             xred7     2.5000000000E-01  2.5000000000E-01  2.5000000000E-01
                       7.5000000000E-01  7.5000000000E-01  7.5000000000E-01
                       2.4876819309E-01  2.4876819309E-01  7.5123180691E-01
                       7.5123180691E-01  7.5123180691E-01  2.4876819309E-01
                       2.5761708751E-01  7.4238291249E-01  7.4238291249E-01
                       7.4238291249E-01  2.5761708751E-01  7.4238291249E-01
                       2.5761708751E-01  7.4238291249E-01  2.5761708751E-01
                       7.4238291249E-01  2.5761708751E-01  2.5761708751E-01
                      -4.7159088946E-22 -1.3738871950E-21  1.0718714424E-21
             xred8     2.5000000000E-01  2.5000000000E-01  2.5000000000E-01
                       7.5000000000E-01  7.5000000000E-01  7.5000000000E-01
                       2.4898691344E-01  2.4898691344E-01  7.5101308656E-01
                       7.5101308656E-01  7.5101308656E-01  2.4898691344E-01
                       2.5774577331E-01  7.4225422669E-01  7.4225422669E-01
                       7.4225422669E-01  2.5774577331E-01  7.4225422669E-01
                       2.5774577331E-01  7.4225422669E-01  2.5774577331E-01
                       7.4225422669E-01  2.5774577331E-01  2.5774577331E-01
                       7.1860494646E-22 -1.5914886891E-21  5.7407993983E-22
             xred9     2.5000000000E-01  2.5000000000E-01  2.5000000000E-01
                       7.5000000000E-01  7.5000000000E-01  7.5000000000E-01
                       2.4920917568E-01  2.4920917568E-01  7.5079082432E-01
                       7.5079082432E-01  7.5079082432E-01  2.4920917568E-01
                       2.5787053722E-01  7.4212946278E-01  7.4212946278E-01
                       7.4212946278E-01  2.5787053722E-01  7.4212946278E-01
                       2.5787053722E-01  7.4212946278E-01  2.5787053722E-01
                       7.4212946278E-01  2.5787053722E-01  2.5787053722E-01
                       8.1829425701E-22 -2.5856263216E-21  1.0301818581E-21
            znucl       55.00000   53.00000   40.00000   35.00000

- Timing analysis has been suppressed with timopt=0

 Suggested references for the acknowledgment of ABINIT usage.

 Calculation completed.
.Delivered   0 WARNINGs and  90 COMMENTs to log file.