.Version 9.2.2 of ABINIT

 ABINIT is a project of the Universite Catholique de Louvain,
 Corning Inc. and other collaborators, see ~abinit/doc/developers/contributors.txt .
 acknowledgments of the ABINIT effort.

.Starting date : Mon  5 Sep 2022.
- ( at 18h03 )

- input  file    -> Cs2TiI6.in
- output file    -> Cs2TiI6.out
- root for input  files -> Cs2TiI6i
- root for output files -> Cs2TiI6o

- inpspheads : Reading pseudopotential header in XML form from
-   ../../../Psps_for_tests/ATOMICDATA/Cs.GGA_PBE-JTH.xml
- inpspheads : Reading pseudopotential header in XML form from
-   ../../../Psps_for_tests/ATOMICDATA/I.GGA_PBE-JTH.xml
- inpspheads : Reading pseudopotential header in XML form from
-   ../../../Psps_for_tests/ATOMICDATA/Hf.GGA_PBE-JTH.xml

 Symmetries : space group Fm -3 m (#225); Bravais cF (face-center cubic)
     intxc =       0    ionmov =       2      iscf =      17    lmnmax =      18
     lnmax =       6     mgfft =      54  mpssoang =       3    mqgrid =    3432
     natom =       9  nloc_mem =       2    nspden =       1   nspinor =       1
    nsppol =       1      nsym =      48    n1xccc =       1    ntypat =       3
    occopt =       1   xclevel =       2
-    mband =          42        mffmem =           1         mkmem =           3
       mpw =        6965          nfft =      157464          nkpt =          10
Pmy_natom=         3
 PAW method is used; the additional fine FFT grid is defined by:
   mgfftf=        90    nfftf =    729000
  Rough estimation (10% accuracy) of disk space for files :

------------- Echo of variables that govern the present computation ------------
-
- outvars: echo of selected default values
-   iomode0 =  0 , fftalg0 =112 , wfoptalg0 = 10
-
- outvars: echo of global parameters not present in the input file
-  max_nthreads =    0
-
 -outvars: echo values of preprocessed input variables --------
            acell      1.6045663836E+01  1.6045663836E+01  1.6045663836E+01 Bohr
              amu      1.32905430E+02  1.26904470E+02  1.78490000E+02
           diemac      1.20000000E+01
          dilatmx      1.15000000E+00
             ecut      1.60000000E+01 Hartree
           ecutsm      5.00000000E-01 Hartree
-          fftalg         112
           ionmov           2
              ixc     -101130
              kpt     -1.25000000E-01 -2.50000000E-01  0.00000000E+00
                      -1.25000000E-01  5.00000000E-01  0.00000000E+00
                      -2.50000000E-01 -3.75000000E-01  0.00000000E+00
                      -1.25000000E-01 -3.75000000E-01  1.25000000E-01
                      -1.25000000E-01  2.50000000E-01  0.00000000E+00
                      -2.50000000E-01  3.75000000E-01  0.00000000E+00
                      -3.75000000E-01  5.00000000E-01  0.00000000E+00
                      -2.50000000E-01  5.00000000E-01  1.25000000E-01
                      -1.25000000E-01  0.00000000E+00  0.00000000E+00
                      -3.75000000E-01  0.00000000E+00  0.00000000E+00
         kptrlatt        4   -4    4     -4    4    4     -4   -4    4
          kptrlen      7.26143853E+01
P           mkmem           3
            natom           9
            nband          42
            ngfft          54      54      54
          ngfftdg          90      90      90
             nkpt          10
            nstep        2500
             nsym          48
            ntime        1000
           ntypat           3
              occ      2.000000  2.000000  2.000000  2.000000  2.000000  2.000000
                       2.000000  2.000000  2.000000  2.000000  2.000000  2.000000
                       2.000000  2.000000  2.000000  2.000000  2.000000  2.000000
                       2.000000  2.000000  2.000000  2.000000  2.000000  2.000000
                       2.000000  2.000000  2.000000  2.000000  2.000000  2.000000
                       2.000000  2.000000  2.000000  2.000000  2.000000  2.000000
                       0.000000  0.000000  0.000000  0.000000  0.000000  0.000000
        optforces           1
        pawecutdg      4.00000000E+01 Hartree
            prtwf           0
            rprim      0.0000000000E+00  5.6568542495E-01  5.6568542495E-01
                       5.6568542495E-01  0.0000000000E+00  5.6568542495E-01
                       5.6568542495E-01  5.6568542495E-01  0.0000000000E+00
           shiftk      5.00000000E-01  5.00000000E-01  5.00000000E-01
          spgroup         225
           symrel      1  0  0   0  1  0   0  0  1      -1  0  0   0 -1  0   0  0 -1
                       0 -1  1   0 -1  0   1 -1  0       0  1 -1   0  1  0  -1  1  0
                      -1  0  0  -1  0  1  -1  1  0       1  0  0   1  0 -1   1 -1  0
                       0  1 -1   1  0 -1   0  0 -1       0 -1  1  -1  0  1   0  0  1
                      -1  0  0  -1  1  0  -1  0  1       1  0  0   1 -1  0   1  0 -1
                       0 -1  1   1 -1  0   0 -1  0       0  1 -1  -1  1  0   0  1  0
                       1  0  0   0  0  1   0  1  0      -1  0  0   0  0 -1   0 -1  0
                       0  1 -1   0  0 -1   1  0 -1       0 -1  1   0  0  1  -1  0  1
                      -1  0  1  -1  1  0  -1  0  0       1  0 -1   1 -1  0   1  0  0
                       0 -1  0   1 -1  0   0 -1  1       0  1  0  -1  1  0   0  1 -1
                       1  0 -1   0  0 -1   0  1 -1      -1  0  1   0  0  1   0 -1  1
                       0  1  0   0  0  1   1  0  0       0 -1  0   0  0 -1  -1  0  0
                       1  0 -1   0  1 -1   0  0 -1      -1  0  1   0 -1  1   0  0  1
                       0 -1  0   0 -1  1   1 -1  0       0  1  0   0  1 -1  -1  1  0
                      -1  0  1  -1  0  0  -1  1  0       1  0 -1   1  0  0   1 -1  0
                       0  1  0   1  0  0   0  0  1       0 -1  0  -1  0  0   0  0 -1
                       0  0 -1   0  1 -1   1  0 -1       0  0  1   0 -1  1  -1  0  1
                       1 -1  0   0 -1  1   0 -1  0      -1  1  0   0  1 -1   0  1  0
                       0  0  1   1  0  0   0  1  0       0  0 -1  -1  0  0   0 -1  0
                      -1  1  0  -1  0  0  -1  0  1       1 -1  0   1  0  0   1  0 -1
                       0  0  1   0  1  0   1  0  0       0  0 -1   0 -1  0  -1  0  0
                       1 -1  0   0 -1  0   0 -1  1      -1  1  0   0  1  0   0  1 -1
                       0  0 -1   1  0 -1   0  1 -1       0  0  1  -1  0  1   0 -1  1
                      -1  1  0  -1  0  1  -1  0  0       1 -1  0   1  0 -1   1  0  0
           toldff      1.00000000E-08
           tolmxf      1.00000000E-05
            typat      1  1  2  2  2  2  2  2  3
           useylm           1
              wtk        0.09375    0.09375    0.09375    0.18750    0.09375    0.09375
                         0.09375    0.18750    0.03125    0.03125
           xangst      2.4016173581E+00  2.4016173581E+00  2.4016173581E+00
                       7.2048520744E+00  7.2048520744E+00  7.2048520744E+00
                       4.8032347163E+00  7.3153416293E+00  4.8032347163E+00
                       4.8032347163E+00  4.8032347163E+00  2.2911278032E+00
                       4.8032347163E+00  4.8032347163E+00  7.3153416293E+00
                       4.8032347163E+00  2.2911278032E+00  4.8032347163E+00
                       7.3153416293E+00  4.8032347163E+00  4.8032347163E+00
                       2.2911278032E+00  4.8032347163E+00  4.8032347163E+00
                       0.0000000000E+00  0.0000000000E+00  0.0000000000E+00
            xcart      4.5383990829E+00  4.5383990829E+00  4.5383990829E+00
                       1.3615197249E+01  1.3615197249E+01  1.3615197249E+01
                       9.0767981657E+00  1.3823992248E+01  9.0767981657E+00
                       9.0767981657E+00  9.0767981657E+00  4.3296040836E+00
                       9.0767981657E+00  9.0767981657E+00  1.3823992248E+01
                       9.0767981657E+00  4.3296040836E+00  9.0767981657E+00
                       1.3823992248E+01  9.0767981657E+00  9.0767981657E+00
                       4.3296040836E+00  9.0767981657E+00  9.0767981657E+00
                       0.0000000000E+00  0.0000000000E+00  0.0000000000E+00
             xred      2.5000000000E-01  2.5000000000E-01  2.5000000000E-01
                       7.5000000000E-01  7.5000000000E-01  7.5000000000E-01
                       7.6150157773E-01  2.3849842227E-01  7.6150157773E-01
                       2.3849842227E-01  2.3849842227E-01  7.6150157773E-01
                       7.6150157773E-01  7.6150157773E-01  2.3849842227E-01
                       2.3849842227E-01  7.6150157773E-01  2.3849842227E-01
                       2.3849842227E-01  7.6150157773E-01  7.6150157773E-01
                       7.6150157773E-01  2.3849842227E-01  2.3849842227E-01
                       0.0000000000E+00  0.0000000000E+00  0.0000000000E+00
            znucl       55.00000   53.00000   72.00000

 chkinp: Checking input parameters for consistency.

== DATASET  1 ==================================================================
-   mpi_nproc: 4, omp_nthreads: -1 (-1 if OMP is not activated)

--- !DatasetInfo
iteration_state: {dtset: 1, }
dimensions: {natom: 9, nkpt: 10, mband: 42, nsppol: 1, nspinor: 1, nspden: 1, mpw: 6965, }
cutoff_energies: {ecut:  16.0, pawecutdg:  40.0, }
electrons: {nelect:   7.20000000E+01, charge:   0.00000000E+00, occopt:   1.00000000E+00, tsmear:   1.00000000E-02, }
meta: {optdriver: 0, ionmov: 2, optcell: 0, iscf: 17, paral_kgb: 0, }
...

 Real(R)+Recip(G) space primitive vectors, cartesian coordinates (Bohr,Bohr^-1):
 R(1)=  0.0000000  9.0767982  9.0767982  G(1)= -0.0550855  0.0550855  0.0550855
 R(2)=  9.0767982  0.0000000  9.0767982  G(2)=  0.0550855 -0.0550855  0.0550855
 R(3)=  9.0767982  9.0767982  0.0000000  G(3)=  0.0550855  0.0550855 -0.0550855
 Unit cell volume ucvol=  1.4956433E+03 bohr^3
 Angles (23,13,12)=  6.00000000E+01  6.00000000E+01  6.00000000E+01 degrees

 Coarse grid specifications (used for wave-functions):

 getcut: wavevector=  0.0000  0.0000  0.0000  ngfft=  54  54  54
         ecut(hartree)=     21.160   => boxcut(ratio)=   2.03223

 Fine grid specifications (used for densities):

 getcut: wavevector=  0.0000  0.0000  0.0000  ngfft=  90  90  90
         ecut(hartree)=     52.900   => boxcut(ratio)=   2.14168

--- Pseudopotential description ------------------------------------------------
- pspini: atom type   1  psp file is ../../../Psps_for_tests/ATOMICDATA/Cs.GGA_PBE-JTH.xml
- pspatm: opening atomic psp file    ../../../Psps_for_tests/ATOMICDATA/Cs.GGA_PBE-JTH.xml
- pspatm : Reading pseudopotential header in XML form from ../../../Psps_for_tests/ATOMICDATA/Cs.GGA_PBE-JTH.xml
 Pseudopotential format is: paw10
 basis_size (lnmax)=  6 (lmn_size= 18), orbitals=   0   0   1   1   2   2
 Spheres core radius: rc_sph= 2.20660278
 1 radial meshes are used:
  - mesh 1: r(i)=AA*[exp(BB*(i-1))-1], size=1500 , AA= 0.15922E-03 BB= 0.87573E-02
 Shapefunction is SIN type: shapef(r)=[sin(pi*r/rshp)/(pi*r/rshp)]**2
 Radius for shape functions =  2.00394208
 mmax= 1500
 Radial grid used for partial waves is grid 1
 Radial grid used for projectors is grid 1
 Radial grid used for (t)core density is grid 1
[...]
  2.67381906611236E-01  7.32618093388765E-01  7.32618093388765E-01
  7.32618093388765E-01  2.67381906611236E-01  2.67381906611236E-01
 -2.22075365727794E-19  1.51252720889801E-19  5.00945978128168E-20
 Cartesian forces (fcart) [Ha/bohr]; max,rms= 4.98454E-09 2.34974E-09 (free atoms)
 -2.70031163252277E-25 -8.29041883815498E-26 -5.05144746981863E-26
 -2.76676155450798E-25 -8.00563345821835E-26 -4.95651900983975E-26
 -3.90425526114861E-25 -4.98454196259612E-09  6.51334651654542E-26
  8.99410412672319E-25 -1.25614290270530E-24  4.98454196259612E-09
 -2.10093235544796E-25 -1.46639254488185E-25 -4.98454196259612E-09
  2.03497070731718E-25  4.98454196259612E-09 -5.28789131681124E-25
 -4.98454196259611E-09  5.33346298191926E-25 -6.63917107472296E-25
  4.98454196259612E-09  3.36930360818794E-26 -1.64263845362249E-25
 -2.75726870851009E-25 -8.10056191819723E-26 -4.95651900983975E-26
 Reduced forces (fred)
  1.21101427631291E-24  2.90952805857337E-24  3.20352295232222E-24
  1.17654841745653E-24  2.96122684685794E-24  3.23798881117860E-24
  4.52436813429700E-08  2.95261038214384E-24  4.52436813429700E-08
 -4.52436813429700E-08 -4.52436813429701E-08  3.23798881117860E-24
  4.52436813429700E-08  4.52436813429700E-08  3.23798881117860E-24
 -4.52436813429700E-08  2.95261038214384E-24 -4.52436813429700E-08
  1.18516488217063E-24  4.52436813429700E-08  4.52436813429700E-08
  1.18516488217063E-24 -4.52436813429700E-08 -4.52436813429700E-08
  1.18516488217063E-24  2.95261038214384E-24  3.23798881117860E-24
 Total energy (etotal) [Ha]= -1.60881844356553E+02

 Difference of energy with previous step (new-old):
           Absolute (Ha)=-9.00201E-10
           Relative     =-5.59542E-12

 At Broyd/MD step   6, gradients are converged :
  max grad (force/stress) = 4.9845E-09 < tolmxf= 1.0000E-05 ha/bohr (free atoms)

 ----iterations are completed or convergence reached----

 Mean square residual over all n,k,spin=   20.672E-14; max=  68.387E-12
 reduced coordinates (array xred) for    9 atoms
       0.250000000000      0.250000000000      0.250000000000
       0.750000000000      0.750000000000      0.750000000000
       0.732618093389      0.267381906611      0.732618093389
       0.267381906611      0.267381906611      0.732618093389
       0.732618093389      0.732618093389      0.267381906611
       0.267381906611      0.732618093389      0.267381906611
       0.267381906611      0.732618093389      0.732618093389
       0.732618093389      0.267381906611      0.267381906611
      -0.000000000000      0.000000000000      0.000000000000
 rms dE/dt=  3.0162E-08; max dE/dt=  4.5244E-08; dE/dt below (all hartree)
    1       0.000000000000     -0.000000000000     -0.000000000000
    2      -0.000000000000      0.000000000000      0.000000000000
    3       0.000000045244      0.000000000000      0.000000045244
    4      -0.000000045244     -0.000000045244      0.000000000000
    5       0.000000045244      0.000000045244      0.000000000000
    6      -0.000000045244      0.000000000000     -0.000000045244
    7       0.000000000000      0.000000045244      0.000000045244
    8      -0.000000000000     -0.000000045244     -0.000000045244
    9       0.000000000000      0.000000000000      0.000000000000

 cartesian coordinates (angstrom) at end:
    1      2.40161735813120     2.40161735813120     2.40161735813120
    2      7.20485207439359     7.20485207439359     7.20485207439359
    3      4.80323471626240     7.03787331985376     4.80323471626240
    4      4.80323471626240     4.80323471626240     2.56859611267104
    5      4.80323471626240     4.80323471626240     7.03787331985376
    6      4.80323471626240     2.56859611267104     4.80323471626240
    7      7.03787331985375     4.80323471626240     4.80323471626240
    8      2.56859611267104     4.80323471626240     4.80323471626240
    9      0.00000000000000    -0.00000000000000    -0.00000000000000

 cartesian forces (hartree/bohr) at end:
    1     -0.00000000000000    -0.00000000000000    -0.00000000000000
    2     -0.00000000000000    -0.00000000000000    -0.00000000000000
    3     -0.00000000000000    -0.00000000498454     0.00000000000000
    4      0.00000000000000    -0.00000000000000     0.00000000498454
    5     -0.00000000000000    -0.00000000000000    -0.00000000498454
    6      0.00000000000000     0.00000000498454    -0.00000000000000
    7     -0.00000000498454     0.00000000000000    -0.00000000000000
    8      0.00000000498454     0.00000000000000    -0.00000000000000
    9     -0.00000000000000    -0.00000000000000    -0.00000000000000
 frms,max,avg= 2.3497356E-09 4.9845420E-09   0.000E+00  0.000E+00  0.000E+00 h/b

 cartesian forces (eV/Angstrom) at end:
    1     -0.00000000000000    -0.00000000000000    -0.00000000000000
    2     -0.00000000000000    -0.00000000000000    -0.00000000000000
    3     -0.00000000000000    -0.00000025631543     0.00000000000000
    4      0.00000000000000    -0.00000000000000     0.00000025631543
    5     -0.00000000000000    -0.00000000000000    -0.00000025631543
    6      0.00000000000000     0.00000025631543    -0.00000000000000
    7     -0.00000025631543     0.00000000000000    -0.00000000000000
    8      0.00000025631543     0.00000000000000    -0.00000000000000
    9     -0.00000000000000    -0.00000000000000    -0.00000000000000
 frms,max,avg= 1.2082825E-07 2.5631543E-07   0.000E+00  0.000E+00  0.000E+00 e/A
 length scales= 16.045663836000 16.045663836000 16.045663836000 bohr
              =  8.490999598708  8.490999598708  8.490999598708 angstroms
 prteigrs : about to open file Cs2TiI6o_EIG
 Fermi (or HOMO) energy (hartree) =  -0.03718   Average Vxc (hartree)=  -0.39918
 Eigenvalues (hartree) for nkpt=  10  k points:
 kpt#   1, nband= 42, wtk=  0.09375, kpt= -0.1250 -0.2500  0.0000 (reduced coord)
  -2.31369   -1.17213   -1.17213   -1.17213   -0.82115   -0.81764   -0.59355   -0.54111
  -0.53072   -0.53000   -0.50484   -0.50178   -0.37710   -0.37245   -0.36690   -0.35894
  -0.35778   -0.35061   -0.30609   -0.23479   -0.21470   -0.21441   -0.20729   -0.18487
  -0.18480   -0.15228   -0.14592   -0.13535   -0.13020   -0.12536   -0.08463   -0.06512
  -0.06458   -0.05185   -0.04864   -0.04263   -0.00418    0.02154    0.02165    0.07390
   0.08186    0.09231
 prteigrs : prtvol=0 or 1, do not print more k-points.

--- !EnergyTerms
iteration_state     : {dtset: 1, itime: 6, icycle: 1, }
comment             : Components of total free energy in Hartree
kinetic             :  3.88377183004608E+01
hartree             :  1.87397262268618E+01
xc                  : -5.99198477682860E+01
Ewald energy        : -1.49356109675781E+02
psp_core            :  3.34954383738906E+01
local_psp           : -3.16108417508197E+01
spherical_terms     : -1.10679280627809E+01
total_energy        : -1.60881844356454E+02
total_energy_eV     : -4.37781762288826E+03
...

--- !EnergyTermsDC
iteration_state     : {dtset: 1, itime: 6, icycle: 1, }
comment             : '"Double-counting" decomposition of free energy'
band_energy         : -3.12087185973292E+01
Ewald energy        : -1.49356109675781E+02
psp_core            :  3.34954383738906E+01
xc_dc               : -4.03778382101046E+01
spherical_terms     :  2.65653837527712E+01
total_energy_dc     : -1.60881844356553E+02
total_energy_dc_eV  : -4.37781762289094E+03
...

 rms coord change=  2.3583E-02   atom, delta coord (reduced):
     1        0.000000000000      0.000000000000      0.000000000000
     2        0.000000000000      0.000000000000      0.000000000000
     3       -0.028883484341      0.028883484341     -0.028883484341
     4        0.028883484341      0.028883484341     -0.028883484341
     5       -0.028883484341     -0.028883484341      0.028883484341
     6        0.028883484341     -0.028883484341      0.028883484341
     7        0.028883484341     -0.028883484341     -0.028883484341
     8       -0.028883484341      0.028883484341      0.028883484341
     9       -0.000000000000      0.000000000000      0.000000000000

 Cartesian components of stress tensor (hartree/bohr^3)
  sigma(1 1)= -1.36307707E-03  sigma(3 2)=  0.00000000E+00
  sigma(2 2)= -1.36307707E-03  sigma(3 1)=  0.00000000E+00
  sigma(3 3)= -1.36307707E-03  sigma(2 1)=  0.00000000E+00

-Cartesian components of stress tensor (GPa)         [Pressure=  4.0103E+01 GPa]
- sigma(1 1)= -4.01031052E+01  sigma(3 2)=  0.00000000E+00
- sigma(2 2)= -4.01031052E+01  sigma(3 1)=  0.00000000E+00
- sigma(3 3)= -4.01031052E+01  sigma(2 1)=  0.00000000E+00

== END DATASET(S) ==============================================================

 -outvars: echo values of variables after computation  --------
            acell      1.6045663836E+01  1.6045663836E+01  1.6045663836E+01 Bohr
              amu      1.32905430E+02  1.26904470E+02  1.78490000E+02
           diemac      1.20000000E+01
          dilatmx      1.15000000E+00
             ecut      1.60000000E+01 Hartree
           ecutsm      5.00000000E-01 Hartree
           etotal     -1.6088184436E+02
            fcart     -2.7003116325E-25 -8.2904188382E-26 -5.0514474698E-26
                      -2.7667615545E-25 -8.0056334582E-26 -4.9565190098E-26
                      -3.9042552611E-25 -4.9845419626E-09  6.5133465165E-26
                       8.9941041267E-25 -1.2561429027E-24  4.9845419626E-09
                      -2.1009323554E-25 -1.4663925449E-25 -4.9845419626E-09
                       2.0349707073E-25  4.9845419626E-09 -5.2878913168E-25
                      -4.9845419626E-09  5.3334629819E-25 -6.6391710747E-25
                       4.9845419626E-09  3.3693036082E-26 -1.6426384536E-25
                      -2.7572687085E-25 -8.1005619182E-26 -4.9565190098E-26
-          fftalg         112
           ionmov           2
              ixc     -101130
              kpt     -1.25000000E-01 -2.50000000E-01  0.00000000E+00
                      -1.25000000E-01  5.00000000E-01  0.00000000E+00
                      -2.50000000E-01 -3.75000000E-01  0.00000000E+00
                      -1.25000000E-01 -3.75000000E-01  1.25000000E-01
                      -1.25000000E-01  2.50000000E-01  0.00000000E+00
                      -2.50000000E-01  3.75000000E-01  0.00000000E+00
                      -3.75000000E-01  5.00000000E-01  0.00000000E+00
                      -2.50000000E-01  5.00000000E-01  1.25000000E-01
                      -1.25000000E-01  0.00000000E+00  0.00000000E+00
                      -3.75000000E-01  0.00000000E+00  0.00000000E+00
         kptrlatt        4   -4    4     -4    4    4     -4   -4    4
          kptrlen      7.26143853E+01
P           mkmem           3
            natom           9
            nband          42
            ngfft          54      54      54
          ngfftdg          90      90      90
             nkpt          10
            nstep        2500
             nsym          48
            ntime        1000
           ntypat           3
              occ      2.000000  2.000000  2.000000  2.000000  2.000000  2.000000
                       2.000000  2.000000  2.000000  2.000000  2.000000  2.000000
                       2.000000  2.000000  2.000000  2.000000  2.000000  2.000000
                       2.000000  2.000000  2.000000  2.000000  2.000000  2.000000
                       2.000000  2.000000  2.000000  2.000000  2.000000  2.000000
                       2.000000  2.000000  2.000000  2.000000  2.000000  2.000000
                       0.000000  0.000000  0.000000  0.000000  0.000000  0.000000
        optforces           1
        pawecutdg      4.00000000E+01 Hartree
            prtwf           0
            rprim      0.0000000000E+00  5.6568542495E-01  5.6568542495E-01
                       5.6568542495E-01  0.0000000000E+00  5.6568542495E-01
                       5.6568542495E-01  5.6568542495E-01  0.0000000000E+00
           shiftk      5.00000000E-01  5.00000000E-01  5.00000000E-01
          spgroup         225
           strten     -1.3630770708E-03 -1.3630770708E-03 -1.3630770708E-03
                       0.0000000000E+00  0.0000000000E+00  0.0000000000E+00
           symrel      1  0  0   0  1  0   0  0  1      -1  0  0   0 -1  0   0  0 -1
                       0 -1  1   0 -1  0   1 -1  0       0  1 -1   0  1  0  -1  1  0
                      -1  0  0  -1  0  1  -1  1  0       1  0  0   1  0 -1   1 -1  0
                       0  1 -1   1  0 -1   0  0 -1       0 -1  1  -1  0  1   0  0  1
                      -1  0  0  -1  1  0  -1  0  1       1  0  0   1 -1  0   1  0 -1
                       0 -1  1   1 -1  0   0 -1  0       0  1 -1  -1  1  0   0  1  0
                       1  0  0   0  0  1   0  1  0      -1  0  0   0  0 -1   0 -1  0
                       0  1 -1   0  0 -1   1  0 -1       0 -1  1   0  0  1  -1  0  1
                      -1  0  1  -1  1  0  -1  0  0       1  0 -1   1 -1  0   1  0  0
                       0 -1  0   1 -1  0   0 -1  1       0  1  0  -1  1  0   0  1 -1
                       1  0 -1   0  0 -1   0  1 -1      -1  0  1   0  0  1   0 -1  1
                       0  1  0   0  0  1   1  0  0       0 -1  0   0  0 -1  -1  0  0
                       1  0 -1   0  1 -1   0  0 -1      -1  0  1   0 -1  1   0  0  1
                       0 -1  0   0 -1  1   1 -1  0       0  1  0   0  1 -1  -1  1  0
                      -1  0  1  -1  0  0  -1  1  0       1  0 -1   1  0  0   1 -1  0
                       0  1  0   1  0  0   0  0  1       0 -1  0  -1  0  0   0  0 -1
                       0  0 -1   0  1 -1   1  0 -1       0  0  1   0 -1  1  -1  0  1
                       1 -1  0   0 -1  1   0 -1  0      -1  1  0   0  1 -1   0  1  0
                       0  0  1   1  0  0   0  1  0       0  0 -1  -1  0  0   0 -1  0
                      -1  1  0  -1  0  0  -1  0  1       1 -1  0   1  0  0   1  0 -1
                       0  0  1   0  1  0   1  0  0       0  0 -1   0 -1  0  -1  0  0
                       1 -1  0   0 -1  0   0 -1  1      -1  1  0   0  1  0   0  1 -1
                       0  0 -1   1  0 -1   0  1 -1       0  0  1  -1  0  1   0 -1  1
                      -1  1  0  -1  0  1  -1  0  0       1 -1  0   1  0 -1   1  0  0
           toldff      1.00000000E-08
           tolmxf      1.00000000E-05
            typat      1  1  2  2  2  2  2  2  3
           useylm           1
              wtk        0.09375    0.09375    0.09375    0.18750    0.09375    0.09375
                         0.09375    0.18750    0.03125    0.03125
           xangst      2.4016173581E+00  2.4016173581E+00  2.4016173581E+00
                       7.2048520744E+00  7.2048520744E+00  7.2048520744E+00
                       4.8032347163E+00  7.0378733199E+00  4.8032347163E+00
                       4.8032347163E+00  4.8032347163E+00  2.5685961127E+00
                       4.8032347163E+00  4.8032347163E+00  7.0378733199E+00
                       4.8032347163E+00  2.5685961127E+00  4.8032347163E+00
                       7.0378733199E+00  4.8032347163E+00  4.8032347163E+00
                       2.5685961127E+00  4.8032347163E+00  4.8032347163E+00
                       9.6711843122E-19 -8.2606399498E-19 -3.4017778638E-19
            xcart      4.5383990829E+00  4.5383990829E+00  4.5383990829E+00
                       1.3615197249E+01  1.3615197249E+01  1.3615197249E+01
                       9.0767981657E+00  1.3299653132E+01  9.0767981657E+00
                       9.0767981657E+00  9.0767981657E+00  4.8539431989E+00
                       9.0767981657E+00  9.0767981657E+00  1.3299653132E+01
                       9.0767981657E+00  4.8539431989E+00  9.0767981657E+00
                       1.3299653132E+01  9.0767981657E+00  9.0767981657E+00
                       4.8539431989E+00  9.0767981657E+00  9.0767981657E+00
                       1.8275889731E-18 -1.5610347187E-18 -6.4284285276E-19
             xred      2.5000000000E-01  2.5000000000E-01  2.5000000000E-01
                       7.5000000000E-01  7.5000000000E-01  7.5000000000E-01
                       7.3261809339E-01  2.6738190661E-01  7.3261809339E-01
                       2.6738190661E-01  2.6738190661E-01  7.3261809339E-01
                       7.3261809339E-01  7.3261809339E-01  2.6738190661E-01
                       2.6738190661E-01  7.3261809339E-01  2.6738190661E-01
                       2.6738190661E-01  7.3261809339E-01  7.3261809339E-01
                       7.3261809339E-01  2.6738190661E-01  2.6738190661E-01
                      -2.2207536573E-19  1.5125272089E-19  5.0094597813E-20
            znucl       55.00000   53.00000   72.00000

- Timing analysis has been suppressed with timopt=0

 Suggested references for the acknowledgment of ABINIT usage.

 Calculation completed.
.Delivered   0 WARNINGs and   6 COMMENTs to log file.