.Version 9.2.2 of ABINIT

 ABINIT is a project of the Universite Catholique de Louvain,
 Corning Inc. and other collaborators, see ~abinit/doc/developers/contributors.txt .
 acknowledgments of the ABINIT effort.

.Starting date : Tue 13 Sep 2022.
- ( at 13h46 )

- input  file    -> Cs2TiI6.in
- output file    -> Cs2TiI6.out
- root for input  files -> Cs2TiI6i
- root for output files -> Cs2TiI6o

- inpspheads : Reading pseudopotential header in XML form from
-   ../../../Psps_for_tests/ATOMICDATA/Cs.GGA_PBE-JTH.xml
- inpspheads : Reading pseudopotential header in XML form from
-   ../../../Psps_for_tests/ATOMICDATA/I.GGA_PBE-JTH.xml
- inpspheads : Reading pseudopotential header in XML form from
-   ../../../Psps_for_tests/ATOMICDATA/Hf.GGA_PBE-JTH.xml

 DATASET    1 : space group Fm -3 m (#225); Bravais cF (face-center cubic)
     intxc =       0    ionmov =       0      iscf =      17    lmnmax =      18
     lnmax =       6     mgfft =      54  mpssoang =       3    mqgrid =    3428
     natom =       9  nloc_mem =       2    nspden =       1   nspinor =       1
    nsppol =       1      nsym =      48    n1xccc =       1    ntypat =       3
    occopt =       1   xclevel =       2
-    mband =          42        mffmem =           1         mkmem =          37
       mpw =        6971          nfft =      157464          nkpt =         145
Pmy_natom=         3
 PAW method is used; the additional fine FFT grid is defined by:
   mgfftf=        90    nfftf =    729000
  Rough estimation (10% accuracy) of disk space for files :

[...]

 DATASET    9 : space group Fm -3 m (#225); Bravais cF (face-center cubic)
     intxc =       0    ionmov =       0      iscf =      17    lmnmax =      18
     lnmax =       6     mgfft =      54  mpssoang =       3    mqgrid =    3399
     natom =       9  nloc_mem =       2    nspden =       1   nspinor =       1
    nsppol =       1      nsym =      48    n1xccc =       1    ntypat =       3
    occopt =       1   xclevel =       2
-    mband =          42        mffmem =           1         mkmem =          37
       mpw =        6811          nfft =      157464          nkpt =         145
Pmy_natom=         3
 PAW method is used; the additional fine FFT grid is defined by:
   mgfftf=        90    nfftf =    729000
  Rough estimation (10% accuracy) of disk space for files :

------------- Echo of variables that govern the present computation ------------
-
- outvars: echo of selected default values
-   iomode0 =  0 , fftalg0 =112 , wfoptalg0 = 10
-
- outvars: echo of global parameters not present in the input file
-  max_nthreads =    0
-
 -outvars: echo values of preprocessed input variables --------
            acell      1.6045663836E+01  1.6045663836E+01  1.6045663836E+01 Bohr
              amu      1.32905430E+02  1.26904470E+02  1.78490000E+02
           diemac      1.20000000E+01
             ecut      1.60000000E+01 Hartree
-          fftalg         112
           istwfk        2    0    0    0    0    0    0    0    3    0
                         0    0    0    0    0    0    0    0    0    0
                         0    0    0    0    0    0    0    0    0    0
                         0    0    0    0    0    0    0    0    0    0
                         0    0    0    0    0    0    0    0    0    0
                       outvar_i_n : Printing only first  50 k-points.
              ixc     -101130
           jdtset        1    2    3    4    5    6    7    8    9
              kpt      0.00000000E+00  0.00000000E+00  0.00000000E+00
                       6.25000000E-02  0.00000000E+00  0.00000000E+00
                       1.25000000E-01  0.00000000E+00  0.00000000E+00
                       1.87500000E-01  0.00000000E+00  0.00000000E+00
                       2.50000000E-01  0.00000000E+00  0.00000000E+00
                       3.12500000E-01  0.00000000E+00  0.00000000E+00
                       3.75000000E-01  0.00000000E+00  0.00000000E+00
                       4.37500000E-01  0.00000000E+00  0.00000000E+00
                       5.00000000E-01  0.00000000E+00  0.00000000E+00
                       6.25000000E-02  6.25000000E-02  0.00000000E+00
                       1.25000000E-01  6.25000000E-02  0.00000000E+00
                       1.87500000E-01  6.25000000E-02  0.00000000E+00
                       2.50000000E-01  6.25000000E-02  0.00000000E+00
                       3.12500000E-01  6.25000000E-02  0.00000000E+00
                       3.75000000E-01  6.25000000E-02  0.00000000E+00
                       4.37500000E-01  6.25000000E-02  0.00000000E+00
                       5.00000000E-01  6.25000000E-02  0.00000000E+00
                      -4.37500000E-01  6.25000000E-02  0.00000000E+00
                      -3.75000000E-01  6.25000000E-02  0.00000000E+00
                      -3.12500000E-01  6.25000000E-02  0.00000000E+00
                      -2.50000000E-01  6.25000000E-02  0.00000000E+00
                      -1.87500000E-01  6.25000000E-02  0.00000000E+00
                      -1.25000000E-01  6.25000000E-02  0.00000000E+00
                      -6.25000000E-02  6.25000000E-02  0.00000000E+00
                       1.25000000E-01  1.25000000E-01  0.00000000E+00
                       1.87500000E-01  1.25000000E-01  0.00000000E+00
                       2.50000000E-01  1.25000000E-01  0.00000000E+00
                       3.12500000E-01  1.25000000E-01  0.00000000E+00
                       3.75000000E-01  1.25000000E-01  0.00000000E+00
                       4.37500000E-01  1.25000000E-01  0.00000000E+00
                       5.00000000E-01  1.25000000E-01  0.00000000E+00
                      -4.37500000E-01  1.25000000E-01  0.00000000E+00
                      -3.75000000E-01  1.25000000E-01  0.00000000E+00
                      -3.12500000E-01  1.25000000E-01  0.00000000E+00
                      -2.50000000E-01  1.25000000E-01  0.00000000E+00
                      -1.87500000E-01  1.25000000E-01  0.00000000E+00
                      -1.25000000E-01  1.25000000E-01  0.00000000E+00
                       1.87500000E-01  1.87500000E-01  0.00000000E+00
                       2.50000000E-01  1.87500000E-01  0.00000000E+00
                       3.12500000E-01  1.87500000E-01  0.00000000E+00
                       3.75000000E-01  1.87500000E-01  0.00000000E+00
                       4.37500000E-01  1.87500000E-01  0.00000000E+00
                       5.00000000E-01  1.87500000E-01  0.00000000E+00
                      -4.37500000E-01  1.87500000E-01  0.00000000E+00
                      -3.75000000E-01  1.87500000E-01  0.00000000E+00
                      -3.12500000E-01  1.87500000E-01  0.00000000E+00
                      -2.50000000E-01  1.87500000E-01  0.00000000E+00
                      -1.87500000E-01  1.87500000E-01  0.00000000E+00
                       2.50000000E-01  2.50000000E-01  0.00000000E+00
                       3.12500000E-01  2.50000000E-01  0.00000000E+00
                       outvar_i_n : Printing only first  50 k-points.
         kptrlatt       16    0    0      0   16    0      0    0   16
          kptrlen1     2.35935441E+02
          kptrlen2     2.35678710E+02
          kptrlen3     2.35421980E+02
          kptrlen4     2.35165249E+02
          kptrlen5     2.34908519E+02
          kptrlen6     2.34651788E+02
          kptrlen7     2.34395057E+02
          kptrlen8     2.34138327E+02
          kptrlen9     2.33881596E+02
P           mkmem          37
            natom           9
            nband          42
           ndtset           9
            ngfft          54      54      54
          ngfftdg          90      90      90
             nkpt         145
            nstep        2500
             nsym          48
           ntypat           3
              occ      2.000000  2.000000  2.000000  2.000000  2.000000  2.000000
                       2.000000  2.000000  2.000000  2.000000  2.000000  2.000000
                       2.000000  2.000000  2.000000  2.000000  2.000000  2.000000
                       2.000000  2.000000  2.000000  2.000000  2.000000  2.000000
                       2.000000  2.000000  2.000000  2.000000  2.000000  2.000000
                       2.000000  2.000000  2.000000  2.000000  2.000000  2.000000
                       0.000000  0.000000  0.000000  0.000000  0.000000  0.000000
        pawecutdg      4.00000000E+01 Hartree
            prtwf           0
            rprim1     0.0000000000E+00  6.4983113191E-01  6.4983113191E-01
                       6.4983113191E-01  0.0000000000E+00  6.4983113191E-01
                       6.4983113191E-01  6.4983113191E-01  0.0000000000E+00
            rprim2     0.0000000000E+00  6.4912402513E-01  6.4912402513E-01
                       6.4912402513E-01  0.0000000000E+00  6.4912402513E-01
                       6.4912402513E-01  6.4912402513E-01  0.0000000000E+00
            rprim3     0.0000000000E+00  6.4841691835E-01  6.4841691835E-01
                       6.4841691835E-01  0.0000000000E+00  6.4841691835E-01
                       6.4841691835E-01  6.4841691835E-01  0.0000000000E+00
            rprim4     0.0000000000E+00  6.4770981157E-01  6.4770981157E-01
                       6.4770981157E-01  0.0000000000E+00  6.4770981157E-01
                       6.4770981157E-01  6.4770981157E-01  0.0000000000E+00
            rprim5     0.0000000000E+00  6.4700270479E-01  6.4700270479E-01
                       6.4700270479E-01  0.0000000000E+00  6.4700270479E-01
                       6.4700270479E-01  6.4700270479E-01  0.0000000000E+00
            rprim6     0.0000000000E+00  6.4629559801E-01  6.4629559801E-01
                       6.4629559801E-01  0.0000000000E+00  6.4629559801E-01
                       6.4629559801E-01  6.4629559801E-01  0.0000000000E+00
            rprim7     0.0000000000E+00  6.4558849123E-01  6.4558849123E-01
                       6.4558849123E-01  0.0000000000E+00  6.4558849123E-01
                       6.4558849123E-01  6.4558849123E-01  0.0000000000E+00
            rprim8     0.0000000000E+00  6.4488138445E-01  6.4488138445E-01
                       6.4488138445E-01  0.0000000000E+00  6.4488138445E-01
                       6.4488138445E-01  6.4488138445E-01  0.0000000000E+00
            rprim9     0.0000000000E+00  6.4417427766E-01  6.4417427766E-01
                       6.4417427766E-01  0.0000000000E+00  6.4417427766E-01
                       6.4417427766E-01  6.4417427766E-01  0.0000000000E+00
          spgroup         225
           symrel      1  0  0   0  1  0   0  0  1      -1  0  0   0 -1  0   0  0 -1
                       0 -1  1   0 -1  0   1 -1  0       0  1 -1   0  1  0  -1  1  0
                      -1  0  0  -1  0  1  -1  1  0       1  0  0   1  0 -1   1 -1  0
                       0  1 -1   1  0 -1   0  0 -1       0 -1  1  -1  0  1   0  0  1
                      -1  0  0  -1  1  0  -1  0  1       1  0  0   1 -1  0   1  0 -1
                       0 -1  1   1 -1  0   0 -1  0       0  1 -1  -1  1  0   0  1  0
                       1  0  0   0  0  1   0  1  0      -1  0  0   0  0 -1   0 -1  0
[...]
                      -2.6091444020E-18 -3.7414756731E-18 -3.6242258196E-19
           xangst4     2.7498518751E+00  2.7498518751E+00  2.7498518751E+00
                       8.2495556252E+00  8.2495556252E+00  8.2495556252E+00
                       5.4997037501E+00  8.1982285480E+00  5.4997037501E+00
                       5.4997037501E+00  5.4997037501E+00  2.8011789522E+00
                       5.4997037501E+00  5.4997037501E+00  8.1982285480E+00
                       5.4997037501E+00  2.8011789522E+00  5.4997037501E+00
                       8.1982285480E+00  5.4997037501E+00  5.4997037501E+00
                       2.8011789522E+00  5.4997037501E+00  5.4997037501E+00
                      -2.5612168269E-18 -4.0021750726E-18  4.8874468228E-19
           xangst5     2.7468498534E+00  2.7468498534E+00  2.7468498534E+00
                       8.2405495601E+00  8.2405495601E+00  8.2405495601E+00
                       5.4936997067E+00  8.1874855279E+00  5.4936997067E+00
                       5.4936997067E+00  5.4936997067E+00  2.7999138856E+00
                       5.4936997067E+00  5.4936997067E+00  8.1874855279E+00
                       5.4936997067E+00  2.7999138856E+00  5.4936997067E+00
                       8.1874855279E+00  5.4936997067E+00  5.4936997067E+00
                       2.7999138856E+00  5.4936997067E+00  5.4936997067E+00
                      -2.2732648308E-18 -3.7395695993E-18 -2.0405294237E-19
           xangst6     2.7438478317E+00  2.7438478317E+00  2.7438478317E+00
                       8.2315434950E+00  8.2315434950E+00  8.2315434950E+00
                       5.4876956633E+00  8.1767787014E+00  5.4876956633E+00
                       5.4876956633E+00  5.4876956633E+00  2.7986126253E+00
                       5.4876956633E+00  5.4876956633E+00  8.1767787014E+00
                       5.4876956633E+00  2.7986126253E+00  5.4876956633E+00
                       8.1767787014E+00  5.4876956633E+00  5.4876956633E+00
                       2.7986126253E+00  5.4876956633E+00  5.4876956633E+00
                      -2.2695299179E-18 -3.7360820651E-18 -2.0288671004E-19
           xangst7     2.7408458100E+00  2.7408458100E+00  2.7408458100E+00
                       8.2225374299E+00  8.2225374299E+00  8.2225374299E+00
                       5.4816916199E+00  8.1660820283E+00  5.4816916199E+00
                       5.4816916199E+00  5.4816916199E+00  2.7973012116E+00
                       5.4816916199E+00  5.4816916199E+00  8.1660820283E+00
                       5.4816916199E+00  2.7973012116E+00  5.4816916199E+00
                       8.1660820283E+00  5.4816916199E+00  5.4816916199E+00
                       2.7973012116E+00  5.4816916199E+00  5.4816916199E+00
                      -2.2316335520E-18 -3.5529415049E-18 -1.9356371705E-19
           xangst8     2.7378437883E+00  2.7378437883E+00  2.7378437883E+00
                       8.2135313648E+00  8.2135313648E+00  8.2135313648E+00
                       5.4756875765E+00  8.1554567917E+00  5.4756875765E+00
                       5.4756875765E+00  5.4756875765E+00  2.7959183613E+00
                       5.4756875765E+00  5.4756875765E+00  8.1554567917E+00
                       5.4756875765E+00  2.7959183613E+00  5.4756875765E+00
                       8.1554567917E+00  5.4756875765E+00  5.4756875765E+00
                       2.7959183613E+00  5.4756875765E+00  5.4756875765E+00
                      -1.9781097303E-18 -3.8109225251E-18 -3.3356357730E-19
           xangst9     2.7348417666E+00  2.7348417666E+00  2.7348417666E+00
                       8.2045252997E+00  8.2045252997E+00  8.2045252997E+00
                       5.4696835331E+00  8.1447742620E+00  5.4696835331E+00
                       5.4696835331E+00  5.4696835331E+00  2.7945928043E+00
                       5.4696835331E+00  5.4696835331E+00  8.1447742620E+00
                       5.4696835331E+00  2.7945928043E+00  5.4696835331E+00
                       8.1447742620E+00  5.4696835331E+00  5.4696835331E+00
                       2.7945928043E+00  5.4696835331E+00  5.4696835331E+00
                      -2.2922732869E-18 -3.7319434697E-18 -1.9362964355E-19
            xcart1     5.2134859464E+00  5.2134859464E+00  5.2134859464E+00
                       1.5640457839E+01  1.5640457839E+01  1.5640457839E+01
                       1.0426971893E+01  1.5553412593E+01  1.0426971893E+01
                       1.0426971893E+01  1.0426971893E+01  5.3005311928E+00
                       1.0426971893E+01  1.0426971893E+01  1.5553412593E+01
                       1.0426971893E+01  5.3005311928E+00  1.0426971893E+01
                       1.5553412593E+01  1.0426971893E+01  1.0426971893E+01
                       5.3005311928E+00  1.0426971893E+01  1.0426971893E+01
                      -4.0900655430E-18 -7.1509209081E-18 -7.8883400334E-19
            xcart2     5.2078129476E+00  5.2078129476E+00  5.2078129476E+00
                       1.5623438843E+01  1.5623438843E+01  1.5623438843E+01
                       1.0415625895E+01  1.5533066979E+01  1.0415625895E+01
                       1.0415625895E+01  1.0415625895E+01  5.2981848112E+00
                       1.0415625895E+01  1.0415625895E+01  1.5533066979E+01
                       1.0415625895E+01  5.2981848112E+00  1.0415625895E+01
                       1.5533066979E+01  1.0415625895E+01  1.0415625895E+01
                       5.2981848112E+00  1.0415625895E+01  1.0415625895E+01
                      -4.3079557147E-18 -7.0919409908E-18 -3.8480705477E-19
            xcart3     5.2021399487E+00  5.2021399487E+00  5.2021399487E+00
                       1.5606419846E+01  1.5606419846E+01  1.5606419846E+01
                       1.0404279897E+01  1.5512739730E+01  1.0404279897E+01
                       1.0404279897E+01  1.0404279897E+01  5.2958200645E+00
                       1.0404279897E+01  1.0404279897E+01  1.5512739730E+01
                       1.0404279897E+01  5.2958200645E+00  1.0404279897E+01
                       1.5512739730E+01  1.0404279897E+01  1.0404279897E+01
                       5.2958200645E+00  1.0404279897E+01  1.0404279897E+01
                      -4.9305683609E-18 -7.0703643549E-18 -6.8487942427E-19
            xcart4     5.1964669499E+00  5.1964669499E+00  5.1964669499E+00
                       1.5589400850E+01  1.5589400850E+01  1.5589400850E+01
                       1.0392933900E+01  1.5492406731E+01  1.0392933900E+01
                       1.0392933900E+01  1.0392933900E+01  5.2934610689E+00
                       1.0392933900E+01  1.0392933900E+01  1.5492406731E+01
                       1.0392933900E+01  5.2934610689E+00  1.0392933900E+01
                       1.5492406731E+01  1.0392933900E+01  1.0392933900E+01
                       5.2934610689E+00  1.0392933900E+01  1.0392933900E+01
                      -4.8399983698E-18 -7.5630148231E-18  9.2359359840E-19
            xcart5     5.1907939510E+00  5.1907939510E+00  5.1907939510E+00
                       1.5572381853E+01  1.5572381853E+01  1.5572381853E+01
                       1.0381587902E+01  1.5472105365E+01  1.0381587902E+01
                       1.0381587902E+01  1.0381587902E+01  5.2910704394E+00
                       1.0381587902E+01  1.0381587902E+01  1.5472105365E+01
                       1.0381587902E+01  5.2910704394E+00  1.0381587902E+01
                       1.5472105365E+01  1.0381587902E+01  1.0381587902E+01
                       5.2910704394E+00  1.0381587902E+01  1.0381587902E+01
                      -4.2958479577E-18 -7.0667623976E-18 -3.8560417769E-19
            xcart6     5.1851209522E+00  5.1851209522E+00  5.1851209522E+00
                       1.5555362856E+01  1.5555362856E+01  1.5555362856E+01
                       1.0370241904E+01  1.5451872395E+01  1.0370241904E+01
                       1.0370241904E+01  1.0370241904E+01  5.2886114138E+00
                       1.0370241904E+01  1.0370241904E+01  1.5451872395E+01
                       1.0370241904E+01  5.2886114138E+00  1.0370241904E+01
                       1.5451872395E+01  1.0370241904E+01  1.0370241904E+01
                       5.2886114138E+00  1.0370241904E+01  1.0370241904E+01
                      -4.2887899953E-18 -7.0601719129E-18 -3.8340031798E-19
            xcart7     5.1794479533E+00  5.1794479533E+00  5.1794479533E+00
                       1.5538343860E+01  1.5538343860E+01  1.5538343860E+01
                       1.0358895907E+01  1.5431658612E+01  1.0358895907E+01
                       1.0358895907E+01  1.0358895907E+01  5.2861332011E+00
                       1.0358895907E+01  1.0358895907E+01  1.5431658612E+01
                       1.0358895907E+01  5.2861332011E+00  1.0358895907E+01
                       1.5431658612E+01  1.0358895907E+01  1.0358895907E+01
                       5.2861332011E+00  1.0358895907E+01  1.0358895907E+01
                      -4.2171762423E-18 -6.7140864105E-18 -3.6578241450E-19
            xcart8     5.1737749545E+00  5.1737749545E+00  5.1737749545E+00
                       1.5521324863E+01  1.5521324863E+01  1.5521324863E+01
                       1.0347549909E+01  1.5411579825E+01  1.0347549909E+01
                       1.0347549909E+01  1.0347549909E+01  5.2835199928E+00
                       1.0347549909E+01  1.0347549909E+01  1.5411579825E+01
                       1.0347549909E+01  5.2835199928E+00  1.0347549909E+01
                       1.5411579825E+01  1.0347549909E+01  1.0347549909E+01
                       5.2835199928E+00  1.0347549909E+01  1.0347549909E+01
                      -3.7380856511E-18 -7.2015998862E-18 -6.3034380901E-19
            xcart9     5.1681019556E+00  5.1681019556E+00  5.1681019556E+00
                       1.5504305867E+01  1.5504305867E+01  1.5504305867E+01
                       1.0336203911E+01  1.5391392769E+01  1.0336203911E+01
                       1.0336203911E+01  1.0336203911E+01  5.2810150531E+00
                       1.0336203911E+01  1.0336203911E+01  1.5391392769E+01
                       1.0336203911E+01  5.2810150531E+00  1.0336203911E+01
                       1.5391392769E+01  1.0336203911E+01  1.0336203911E+01
                       5.2810150531E+00  1.0336203911E+01  1.0336203911E+01
                      -4.3317687340E-18 -7.0523511011E-18 -3.6590699752E-19
             xred1     2.5000000000E-01  2.5000000000E-01  2.5000000000E-01
                       7.5000000000E-01  7.5000000000E-01  7.5000000000E-01
                       7.4582595756E-01  2.5417404244E-01  7.4582595756E-01
                       2.5417404244E-01  2.5417404244E-01  7.4582595756E-01
                       7.4582595756E-01  7.4582595756E-01  2.5417404244E-01
                       2.5417404244E-01  7.4582595756E-01  2.5417404244E-01
                       2.5417404244E-01  7.4582595756E-01  7.4582595756E-01
                       7.4582595756E-01  2.5417404244E-01  2.5417404244E-01
                      -1.8460246215E-19  1.0894924169E-19 -5.0120747208E-19
             xred2     2.5000000000E-01  2.5000000000E-01  2.5000000000E-01
                       7.5000000000E-01  7.5000000000E-01  7.5000000000E-01
                       7.4566171709E-01  2.5433828291E-01  7.4566171709E-01
                       2.5433828291E-01  2.5433828291E-01  7.4566171709E-01
                       7.4566171709E-01  7.4566171709E-01  2.5433828291E-01
                       2.5433828291E-01  7.4566171709E-01  2.5433828291E-01
                       2.5433828291E-01  7.4566171709E-01  7.4566171709E-01
                       7.4566171709E-01  2.5433828291E-01  2.5433828291E-01
                      -1.5211723053E-19  1.1517206193E-19 -5.2877713551E-19
             xred3     2.5000000000E-01  2.5000000000E-01  2.5000000000E-01
                       7.5000000000E-01  7.5000000000E-01  7.5000000000E-01
                       7.4549800098E-01  2.5450199902E-01  7.4549800098E-01
                       2.5450199902E-01  2.5450199902E-01  7.4549800098E-01
                       7.4549800098E-01  7.4549800098E-01  2.5450199902E-01
                       2.5450199902E-01  7.4549800098E-01  2.5450199902E-01
                       2.5450199902E-01  7.4549800098E-01  7.4549800098E-01
                       7.4549800098E-01  2.5450199902E-01  2.5450199902E-01
                      -1.3574583951E-19  6.9919138285E-20 -5.4381722729E-19
             xred4     2.5000000000E-01  2.5000000000E-01  2.5000000000E-01
                       7.5000000000E-01  7.5000000000E-01  7.5000000000E-01
                       7.4533365073E-01  2.5466634927E-01  7.4533365073E-01
                       2.5466634927E-01  2.5466634927E-01  7.4533365073E-01
                       7.4533365073E-01  7.4533365073E-01  2.5466634927E-01
                       2.5466634927E-01  7.4533365073E-01  2.5466634927E-01
                       2.5466634927E-01  7.4533365073E-01  7.4533365073E-01
                       7.4533365073E-01  2.5466634927E-01  2.5466634927E-01
                      -8.6569532353E-20  1.7543698858E-19 -6.4113785962E-19
             xred5     2.5000000000E-01  2.5000000000E-01  2.5000000000E-01
                       7.5000000000E-01  7.5000000000E-01  7.5000000000E-01
                       7.4517046480E-01  2.5482953520E-01  7.4517046480E-01
                       2.5482953520E-01  2.5482953520E-01  7.4517046480E-01
                       7.4517046480E-01  7.4517046480E-01  2.5482953520E-01
                       2.5482953520E-01  7.4517046480E-01  2.5482953520E-01
                       2.5482953520E-01  7.4517046480E-01  7.4517046480E-01
                       7.4517046480E-01  2.5482953520E-01  2.5482953520E-01
                      -1.5202484665E-19  1.1488176398E-19 -5.2867664760E-19
             xred6     2.5000000000E-01  2.5000000000E-01  2.5000000000E-01
                       7.5000000000E-01  7.5000000000E-01  7.5000000000E-01
                       7.4501021950E-01  2.5498978050E-01  7.4501021950E-01
                       2.5498978050E-01  2.5498978050E-01  7.4501021950E-01
                       7.4501021950E-01  7.4501021950E-01  2.5498978050E-01
                       2.5498978050E-01  7.4501021950E-01  2.5498978050E-01
                       2.5498978050E-01  7.4501021950E-01  7.4501021950E-01
                       7.4501021950E-01  2.5498978050E-01  2.5498978050E-01
                      -1.5210745635E-19  1.1513625341E-19 -5.2870326900E-19
             xred7     2.5000000000E-01  2.5000000000E-01  2.5000000000E-01
                       7.5000000000E-01  7.5000000000E-01  7.5000000000E-01
                       7.4485054929E-01  2.5514945071E-01  7.4485054929E-01
                       2.5514945071E-01  2.5514945071E-01  7.4485054929E-01
                       7.4485054929E-01  7.4485054929E-01  2.5514945071E-01
                       2.5514945071E-01  7.4485054929E-01  2.5514945071E-01
                       2.5514945071E-01  7.4485054929E-01  7.4485054929E-01
                       7.4485054929E-01  2.5514945071E-01  2.5514945071E-01
                      -1.3817556468E-19  1.0286461863E-19 -5.0997134895E-19
             xred8     2.5000000000E-01  2.5000000000E-01  2.5000000000E-01
                       7.5000000000E-01  7.5000000000E-01  7.5000000000E-01
                       7.4469705199E-01  2.5530294801E-01  7.4469705199E-01
                       2.5530294801E-01  2.5530294801E-01  7.4469705199E-01
                       7.4469705199E-01  7.4469705199E-01  2.5530294801E-01
                       2.5530294801E-01  7.4469705199E-01  2.5530294801E-01
                       2.5530294801E-01  7.4469705199E-01  7.4469705199E-01
                       7.4469705199E-01  2.5530294801E-01  2.5530294801E-01
                      -1.9781774817E-19  1.3690054414E-19 -4.9815375712E-19
             xred9     2.5000000000E-01  2.5000000000E-01  2.5000000000E-01
                       7.5000000000E-01  7.5000000000E-01  7.5000000000E-01
                       7.4453798036E-01  2.5546201964E-01  7.4453798036E-01
                       2.5546201964E-01  2.5546201964E-01  7.4453798036E-01
                       7.4453798036E-01  7.4453798036E-01  2.5546201964E-01
                       2.5546201964E-01  7.4453798036E-01  2.5546201964E-01
                       2.5546201964E-01  7.4453798036E-01  7.4453798036E-01
                       7.4453798036E-01  2.5546201964E-01  2.5546201964E-01
                      -1.4930478303E-19  1.1390426262E-19 -5.3299126702E-19
            znucl       55.00000   53.00000   72.00000

- Timing analysis has been suppressed with timopt=0

 Suggested references for the acknowledgment of ABINIT usage.

 Calculation completed.
.Delivered   0 WARNINGs and   0 COMMENTs to log file.