.Version 9.2.2 of ABINIT

 ABINIT is a project of the Universite Catholique de Louvain,
 Corning Inc. and other collaborators, see ~abinit/doc/developers/contributors.txt .
 acknowledgments of the ABINIT effort.

.Starting date : Tue 18 Jul 2023.
- ( at 01h56 )

- The starting date is more than 2 years after the initial release
- of this version of ABINIT, namely Nov 2020.
- Note that the use beyond 3 years after the release will not be supported.
- Action: please, switch to a more recent version of ABINIT.

- input  file    -> Cs2TiI6.in
- output file    -> Cs2TiI6.out
- root for input  files -> Cs2TiI6i
- root for output files -> Cs2TiI6o

 Symmetries : space group I4 m m (#107); Bravais tI (body-center tetrag.)
     intxc =       0    ionmov =       0      iscf =      17    lmnmax =       8
     lnmax =       8     mgfft =      60  mpssoang =       4    mqgrid =    3001
     natom =       9  nloc_mem =       1    nspden =       1   nspinor =       1
    nsppol =       1      nsym =       8    n1xccc =    2501    ntypat =       4
    occopt =       1   xclevel =       2
-    mband =          42        mffmem =           1         mkmem =           1
       mpw =        8388          nfft =      216000          nkpt =           4
  Rough estimation (10% accuracy) of disk space for files :

------------- Echo of variables that govern the present computation ------------
-
- outvars: echo of selected default values
-   iomode0 =  0 , fftalg0 =112 , wfoptalg0 =  0
-
- outvars: echo of global parameters not present in the input file
-  max_nthreads =    0
-
 -outvars: echo values of preprocessed input variables --------
            acell      1.4037830533E+01  1.4037830533E+01  1.4031614709E+01 Bohr
              amu      1.32905430E+02  1.26904470E+02  9.12240000E+01
                       7.99040000E+01
           diemac      1.20000000E+01
             ecut      2.00000000E+01 Hartree
-          fftalg         112
             iscf          17
           istwfk        1    1    1    1
              ixc        -428
              kpt      0.00000000E+00  0.00000000E+00  0.00000000E+00
                       5.00000000E-01  0.00000000E+00  0.00000000E+00
                       5.00000000E-01  5.00000000E-01  0.00000000E+00
                       5.00000000E-01  0.00000000E+00  5.00000000E-01
         kptns_hf      0.00000000E+00  0.00000000E+00  0.00000000E+00
                       5.00000000E-01  0.00000000E+00  0.00000000E+00
                       0.00000000E+00  5.00000000E-01  0.00000000E+00
                       5.00000000E-01  5.00000000E-01  0.00000000E+00
                       0.00000000E+00  0.00000000E+00  5.00000000E-01
                       5.00000000E-01  0.00000000E+00  5.00000000E-01
                       0.00000000E+00  5.00000000E-01  5.00000000E-01
                       5.00000000E-01  5.00000000E-01  5.00000000E-01
         kptrlatt        2    0    0      0    2    0      0    0    2
          kptrlen      2.80632294E+01
P           mkmem           1
            natom           9
            nband          42
          nbandhf          36
            ngfft          60      60      60
             nkpt           4
           nkpthf           8
-           npkpt           4
            nstep        2500
             nsym           8
           ntypat           4
              occ      2.000000  2.000000  2.000000  2.000000  2.000000  2.000000
                       2.000000  2.000000  2.000000  2.000000  2.000000  2.000000
                       2.000000  2.000000  2.000000  2.000000  2.000000  2.000000
                       2.000000  2.000000  2.000000  2.000000  2.000000  2.000000
                       2.000000  2.000000  2.000000  2.000000  2.000000  2.000000
                       2.000000  2.000000  2.000000  2.000000  2.000000  2.000000
                       0.000000  0.000000  0.000000  0.000000  0.000000  0.000000
            rprim      0.0000000000E+00  7.0679368072E-01  7.0741974308E-01
                       7.0679368072E-01  0.0000000000E+00  7.0741974308E-01
                       7.0710678119E-01  7.0710678119E-01  0.0000000000E+00
          spgroup         107
           symrel      1  0  0   0  1  0   0  0  1       1  0 -1   0  1 -1   0  0 -1
                       0  1 -1   1  0 -1   0  0 -1       0  1  0   1  0  0   0  0  1
                       0  1 -1   0  1  0  -1  1  0       1  0 -1   1  0  0   1 -1  0
                       1  0  0   1  0 -1   1 -1  0       0  1  0   0  1 -1  -1  1  0
           toldfe      1.00000000E-08 Hartree
            typat      1  1  4  2  4  4  4  4  3
          usefock           1
              wtk        0.12500    0.50000    0.12500    0.25000
           xangst      2.6252084202E+00  2.6252084202E+00  2.6477077494E+00
                       7.8756252605E+00  7.8756252605E+00  7.9027752939E+00
                       5.2504168404E+00  5.2504168404E+00  2.6744806294E+00
                       5.2504168404E+00  5.2504168404E+00  7.7421315979E+00
                       7.8923739076E+00  5.2504168404E+00  5.2515754707E+00
                       5.2504168404E+00  7.8923739076E+00  5.2515754707E+00
                       5.2504168403E+00  2.6084597731E+00  5.2515754707E+00
                       2.6084597731E+00  5.2504168403E+00  5.2515754707E+00
                      -1.2366371612E-13 -1.2366371612E-13  6.7143203470E-02
            xcart      4.9609249559E+00  4.9609249559E+00  5.0034425262E+00
                       1.4882774868E+01  1.4882774868E+01  1.4934080995E+01
                       9.9218499118E+00  9.9218499118E+00  5.0540359373E+00
                       9.9218499118E+00  9.9218499118E+00  1.4630508405E+01
                       1.4914425224E+01  9.9218499118E+00  9.9240394058E+00
                       9.9218499118E+00  1.4914425224E+01  9.9240394058E+00
                       9.9218499118E+00  4.9292745998E+00  9.9240394058E+00
                       4.9292745998E+00  9.9218499118E+00  9.9240394058E+00
                      -2.3369055603E-13 -2.3369055603E-13  1.2688226624E-01
             xred      2.5191947838E-01  2.5191947838E-01  2.4808052162E-01
                       7.5191947838E-01  7.5191947838E-01  7.4808052162E-01
                       2.5446681767E-01  2.5446681767E-01  7.4553318233E-01
                       7.3663483221E-01  7.3663483221E-01  2.6336516779E-01
                       2.4807275964E-01  7.5126272485E-01  7.5192724036E-01
                       7.5126272485E-01  2.4807275964E-01  7.5192724036E-01
                       2.4807275964E-01  7.5126272485E-01  2.4873727515E-01
                       7.5126272485E-01  2.4807275964E-01  2.4873727515E-01
                       6.3884244018E-03  6.3884244018E-03 -6.3884244018E-03
            znucl       55.00000   53.00000   40.00000   35.00000

 chkinp: Checking input parameters for consistency.

== DATASET  1 ==================================================================
-   mpi_nproc: 4, omp_nthreads: -1 (-1 if OMP is not activated)

--- !DatasetInfo
iteration_state: {dtset: 1, }
dimensions: {natom: 9, nkpt: 4, mband: 42, nsppol: 1, nspinor: 1, nspden: 1, mpw: 8388, }
cutoff_energies: {ecut:  20.0, pawecutdg:  -1.0, }
electrons: {nelect:   7.20000000E+01, charge:   0.00000000E+00, occopt:   1.00000000E+00, tsmear:   1.00000000E-02, }
meta: {optdriver: 0, ionmov: 0, optcell: 0, iscf: 17, paral_kgb: 0, }
...

 Real(R)+Recip(G) space primitive vectors, cartesian coordinates (Bohr,Bohr^-1):
 R(1)=  0.0000000  9.9218499  9.9306385  G(1)= -0.0503938  0.0503938  0.0503492
 R(2)=  9.9218499  0.0000000  9.9306385  G(2)=  0.0503938 -0.0503938  0.0503492
 R(3)=  9.9218499  9.9218499  0.0000000  G(3)=  0.0503938  0.0503938 -0.0503492
 Unit cell volume ucvol=  1.9552058E+03 bohr^3
 Angles (23,13,12)=  6.00146463E+01  6.00146463E+01  5.99707073E+01 degrees

 getcut: wavevector=  0.0000  0.0000  0.0000  ngfft=  60  60  60
         ecut(hartree)=     20.000   => boxcut(ratio)=   2.12310

--- Pseudopotential description ------------------------------------------------
- pspini: atom type   1  psp file is ../../../Psps_for_tests/ONCVPSP-PBE-PDv0.4/Cs-sp.psp8
- pspatm: opening atomic psp file    ../../../Psps_for_tests/ONCVPSP-PBE-PDv0.4/Cs-sp.psp8
- Cs    ONCVPSP-3.2.3.1  r_core=   2.27353   1.85623   2.01788   1.90105
- 55.00000   9.00000    170703                znucl, zion, pspdat
    8   32    3    4       600   0.00000      pspcod,pspxc,lmax,lloc,mmax,r2well
    5.99000000000000    5.00000000000000    0.00000000000000   rchrg,fchrg,qchrg
     nproj     2     2     2     2
     extension_switch     1
  pspatm : epsatm=   22.81663475
         --- l  ekb(1:nproj) -->
             0    6.176104    0.756334
             1    6.263084    0.786397
             2    3.737592    0.906929
             3   -9.272327   -2.535859
 pspatm: atomic psp has been read  and splines computed

- pspini: atom type   2  psp file is ../../../Psps_for_tests/ONCVPSP-PBE-PDv0.4/I.psp8
- pspatm: opening atomic psp file    ../../../Psps_for_tests/ONCVPSP-PBE-PDv0.4/I.psp8
- I     ONCVPSP-3.2.3.1  r_core=   2.02042   2.17032   2.27639
- 53.00000   7.00000    170510                znucl, zion, pspdat
    8   32    2    4       600   0.00000      pspcod,pspxc,lmax,lloc,mmax,r2well
    5.99000000000000    4.00000000000000    0.00000000000000   rchrg,fchrg,qchrg
     nproj     2     2     2
     extension_switch     1
  pspatm : epsatm=   19.17050482
         --- l  ekb(1:nproj) -->
             0    5.955518    0.916455
             1    4.011347    0.742302
             2    4.134838    0.711910
 pspatm: atomic psp has been read  and splines computed

- pspini: atom type   3  psp file is ../../../Psps_for_tests/ONCVPSP-PBE-PDv0.4/Zr-sp.psp8
- pspatm: opening atomic psp file    ../../../Psps_for_tests/ONCVPSP-PBE-PDv0.4/Zr-sp.psp8
- Zr    ONCVPSP-3.2.3.1  r_core=   1.56507   1.56507   1.51006
- 40.00000  12.00000    170510                znucl, zion, pspdat
    8   32    2    4       600   0.00000      pspcod,pspxc,lmax,lloc,mmax,r2well
    5.99000000000000    5.00000000000000    0.00000000000000   rchrg,fchrg,qchrg
     nproj     2     2     2
     extension_switch     1
  pspatm : epsatm=   18.79873988
         --- l  ekb(1:nproj) -->
             0   10.621766    0.898805
             1    5.849837    0.750341
             2    1.531478    0.503023
 pspatm: atomic psp has been read  and splines computed

- pspini: atom type   4  psp file is ../../../Psps_for_tests/ONCVPSP-PBE-PDv0.4/Br.psp8
- pspatm: opening atomic psp file    ../../../Psps_for_tests/ONCVPSP-PBE-PDv0.4/Br.psp8
- Br    ONCVPSP-3.2.3.1  r_core=   1.81012   1.51356   1.92136
- 35.00000   7.00000    170504                znucl, zion, pspdat
    8   32    2    4       600   0.00000      pspcod,pspxc,lmax,lloc,mmax,r2well
    5.99000000000000    8.00000000000000    0.00000000000000   rchrg,fchrg,qchrg
     nproj     2     2     2
     extension_switch     1
  pspatm : epsatm=   11.64859511
         --- l  ekb(1:nproj) -->
             0    8.455549    0.878460
             1    5.292495    0.880691
             2    2.589748    0.385882
 pspatm: atomic psp has been read  and splines computed

   1.02128753E+04                                ecore*ucvol(ha*bohr**3)

_setup2: Arith. and geom. avg. npw (full set) are    8365.375    8365.340

--- !BeginCycle
iteration_state: {dtset: 1, }
solver: {iscf: 17, nstep: 2500, nline: 4, wfoptalg: 0, }
tolerances: {toldfe: 1.00E-08, }
...

     iter   Etot(hartree)      deltaE(h)  residm     nres2
 ETOT  1  -184.14855725972    -1.841E+02 1.916E-02 3.848E+00
 ETOT  2  -189.48358274507    -5.335E+00 2.444E-03 2.650E+00
 ETOT  3  -189.48710930208    -3.527E-03 6.597E-03 9.519E-01
 ETOT  4  -189.47182352777     1.529E-02 3.236E-03 6.563E-02
 ETOT  5  -189.47246975704    -6.462E-04 3.074E-03 2.497E-02
 ETOT  6  -189.47233604627     1.337E-04 1.894E-03 2.393E-03
 ETOT  7  -189.47233714415    -1.098E-06 1.562E-03 2.041E-04
 ETOT  8  -189.47233922812    -2.084E-06 9.960E-04 1.633E-05
 ETOT  9  -189.47233895562     2.725E-07 3.682E-04 3.881E-06
 ETOT 10  -189.47233903019    -7.456E-08 1.340E-04 3.591E-07
 ETOT 11  -189.47233903117    -9.846E-10 5.205E-05 5.288E-08
 ETOT 12  -189.47233903520    -4.026E-09 2.073E-05 3.325E-09

 At SCF step   12, etot is converged :
  for the second time, diff in etot=  4.026E-09 < toldfe=  1.000E-08

 Cartesian components of stress tensor (hartree/bohr^3)
  sigma(1 1)= -8.12113892E-05  sigma(3 2)=  4.77107593E-15
  sigma(2 2)= -8.12113892E-05  sigma(3 1)=  4.77046883E-15
  sigma(3 3)= -8.38406304E-05  sigma(2 1)= -9.55035393E-15

--- !ResultsGS
iteration_state: {dtset: 1, }
comment   : Summary of ground state results
lattice_vectors:
- [  0.0000000,   9.9218499,   9.9306385, ]
- [  9.9218499,   0.0000000,   9.9306385, ]
- [  9.9218499,   9.9218499,   0.0000000, ]
lattice_lengths: [  14.03783,   14.03783,   14.03161, ]
lattice_angles: [ 60.015,  60.015,  59.971, ] # degrees, (23, 13, 12)
lattice_volume:   1.9552058E+03
convergence: {deltae: -4.026E-09, res2:  3.325E-09, residm:  2.073E-05, diffor: null, }
etotal    :  -1.89472339E+02
entropy   :   0.00000000E+00
fermie    :   8.51328235E-02
cartesian_stress_tensor: # hartree/bohr^3
- [ -8.12113892E-05,  -9.55035393E-15,   4.77046883E-15, ]
- [ -9.55035393E-15,  -8.12113892E-05,   4.77107593E-15, ]
- [  4.77046883E-15,   4.77107593E-15,  -8.38406304E-05, ]
pressure_GPa:   2.4151E+00
xred      :
- [  2.5192E-01,   2.5192E-01,   2.4808E-01, Cs]
- [  7.5192E-01,   7.5192E-01,   7.4808E-01, Cs]
- [  2.5447E-01,   2.5447E-01,   7.4553E-01, Br]
- [  7.3663E-01,   7.3663E-01,   2.6337E-01,  I]
- [  2.4807E-01,   7.5126E-01,   7.5193E-01, Br]
- [  7.5126E-01,   2.4807E-01,   7.5193E-01, Br]
- [  2.4807E-01,   7.5126E-01,   2.4874E-01, Br]
- [  7.5126E-01,   2.4807E-01,   2.4874E-01, Br]
- [  6.3884E-03,   6.3884E-03,  -6.3884E-03, Zr]
cartesian_forces: # hartree/bohr
- [ -7.91132264E-22,   5.69963780E-21,   8.45433976E-06, ]
- [ -7.91132264E-22,   5.69963780E-21,   8.45433976E-06, ]
- [  1.60847405E-19,  -1.55938899E-19,  -2.55023870E-03, ]
- [ -9.97744345E-20,   1.04682940E-19,   2.52181262E-03, ]
- [  2.88870896E-03,  -5.32507426E-15,  -4.61365475E-05, ]
- [ -5.32530010E-15,   2.88870896E-03,  -4.61365475E-05, ]
- [  5.32525400E-15,  -2.88870896E-03,  -4.61365475E-05, ]
- [ -2.88870896E-03,   5.32469649E-15,  -4.61365475E-05, ]
- [  1.63850877E-20,  -1.14765822E-20,   1.96063594E-04, ]
force_length_stats: {min:   8.45433976E-06, max:   2.88907737E-03, mean:   1.87125923E-03, }
...

 Integrated electronic density in atomic spheres:
 Atom  Sphere_radius  Integrated_density
    1        2.00000          4.47082763
    2        2.00000          4.47082763
    3        2.00000          4.24692364
    4        2.00000          2.91134849
    5        2.00000          4.24761403
    6        2.00000          4.24761403
    7        2.00000          4.24761403
    8        2.00000          4.24761403
    9        2.00000          8.19551793

 ----iterations are completed or convergence reached----

 Mean square residual over all n,k,spin=   33.927E-08; max=  20.726E-06
 reduced coordinates (array xred) for    9 atoms
       0.251919478380      0.251919478380      0.248080521620
       0.751919478380      0.751919478380      0.748080521620
       0.254466817670      0.254466817670      0.745533182330
       0.736634832210      0.736634832210      0.263365167790
       0.248072759640      0.751262724850      0.751927240360
       0.751262724850      0.248072759640      0.751927240360
       0.248072759640      0.751262724850      0.248737275150
       0.751262724850      0.248072759640      0.248737275150
       0.006388424402      0.006388424402     -0.006388424402
 rms dE/dt=  1.8380E-02; max dE/dt=  2.8698E-02; dE/dt below (all hartree)
    1      -0.000504998249     -0.000504998249      0.000000000000
    2      -0.000504998249     -0.000504998249      0.000000000000
    3       0.024904457277      0.024904457277      0.000000000000
    4      -0.025464250636     -0.025464250636      0.000000000000
    5       0.000037124116     -0.028624212663     -0.028661336779
    6      -0.028624212663      0.000037124116     -0.028661336779
    7       0.028698460895      0.000037124116      0.028661336779
    8       0.000037124116      0.028698460895      0.028661336779
    9      -0.002368077924     -0.002368077924      0.000000000000

 cartesian coordinates (angstrom) at end:
    1      2.62520842017726     2.62520842017726     2.64770774936010
    2      7.87562526053186     7.87562526053186     7.90277529393133
    3      5.25041684035935     5.25041684035935     2.67448062941588
    4      5.25041684035002     5.25041684035002     7.74213159789489
    5      7.89237390759064     5.25041684035948     5.25157547068176
    6      5.25041684035948     7.89237390759064     5.25157547068176
    7      5.25041684034974     2.60845977311858     5.25157547068176
    8      2.60845977311858     5.25041684034974     5.25157547068176
    9     -0.00000000000012    -0.00000000000012     0.06714320346969

 cartesian forces (hartree/bohr) at end:
    1     -0.00000000000000     0.00000000000000     0.00000845433976
    2     -0.00000000000000     0.00000000000000     0.00000845433976
    3      0.00000000000000    -0.00000000000000    -0.00255023869950
    4     -0.00000000000000     0.00000000000000     0.00252181261623
    5      0.00288870896397    -0.00000000000001    -0.00004613654750
    6     -0.00000000000001     0.00288870896397    -0.00004613654750
    7      0.00000000000001    -0.00288870896397    -0.00004613654751
    8     -0.00288870896397     0.00000000000001    -0.00004613654751
    9      0.00000000000000    -0.00000000000000     0.00019606359377
 frms,max,avg= 1.3093526E-03 2.8887090E-03   0.000E+00  0.000E+00  4.240E-05 h/b

 cartesian forces (eV/Angstrom) at end:
    1     -0.00000000000000     0.00000000000000     0.00043473959315
    2     -0.00000000000000     0.00000000000000     0.00043473959315
    3      0.00000000000000    -0.00000000000000    -0.13113853556088
    4     -0.00000000000000     0.00000000000000     0.12967680771079
    5      0.14854337488905    -0.00000000000027    -0.00237243646085
    6     -0.00000000000027     0.14854337488905    -0.00237243646085
    7      0.00000000000027    -0.14854337488905    -0.00237243646140
    8     -0.14854337488905     0.00000000000027    -0.00237243646140
    9      0.00000000000000    -0.00000000000000     0.01008199450828
 frms,max,avg= 6.7329611E-02 1.4854337E-01   0.000E+00  0.000E+00  2.180E-03 e/A
 length scales= 14.037830533000 14.037830533000 14.031614709000 bohr
              =  7.428499976112  7.428499976112  7.425210703719 angstroms
 prteigrs : about to open file Cs2TiI6o_EIG
 Fermi (or HOMO) energy (hartree) =   0.08513   Average Vxc (hartree)=  -0.27598
 Eigenvalues (hartree) for nkpt=   4  k points:
 kpt#   1, nband= 42, wtk=  0.12500, kpt=  0.0000  0.0000  0.0000 (reduced coord)
  -1.85086   -0.99207   -0.99207   -0.99118   -0.70264   -0.70164   -0.48679   -0.46695
  -0.46566   -0.46566   -0.46493   -0.36098   -0.19611   -0.19611   -0.19466   -0.18800
  -0.18800   -0.18737   -0.09135   -0.03061   -0.03015   -0.03015   -0.02824   -0.02550
  -0.02469   -0.02469   -0.00894    0.02176    0.02775    0.02775    0.05247    0.05247
   0.05755    0.07227    0.08513    0.08513    0.19123    0.19123    0.19493    0.28658
   0.29104    0.29275
 prteigrs : prtvol=0 or 1, do not print more k-points.

--- !EnergyTerms
iteration_state     : {dtset: 1, }
comment             : Components of total free energy in Hartree
kinetic             :  4.97889895708160E+01
hartree             :  3.05870614590825E+01
xc                  : -4.86385358339383E+01
Ewald energy        : -1.32907282092235E+02
psp_core            :  5.22342729517842E+00
local_psp           : -1.13128890645712E+02
non_local_psp+x     :  1.96029653465776E+01
total_energy        : -1.89472264900231E+02
...

--- !EnergyTermsDC
iteration_state     : {dtset: 1, }
comment             : '"Double-counting" decomposition of free energy'
band_energy         : -2.00228572053140E+01
Ewald energy        : -1.32907282092235E+02
psp_core            :  5.22342729517842E+00
xc_dc               : -4.17656270328254E+01
total_energy_dc     : -1.89472339035196E+02
...

 Cartesian components of stress tensor (hartree/bohr^3)
  sigma(1 1)= -8.12113892E-05  sigma(3 2)=  4.77107593E-15
  sigma(2 2)= -8.12113892E-05  sigma(3 1)=  4.77046883E-15
  sigma(3 3)= -8.38406304E-05  sigma(2 1)= -9.55035393E-15

-Cartesian components of stress tensor (GPa)         [Pressure=  2.4151E+00 GPa]
- sigma(1 1)= -2.38932116E+00  sigma(3 2)=  1.40369877E-10
- sigma(2 2)= -2.38932116E+00  sigma(3 1)=  1.40352015E-10
- sigma(3 3)= -2.46667609E+00  sigma(2 1)= -2.80981066E-10

== END DATASET(S) ==============================================================

 -outvars: echo values of variables after computation  --------
            acell      1.4037830533E+01  1.4037830533E+01  1.4031614709E+01 Bohr
              amu      1.32905430E+02  1.26904470E+02  9.12240000E+01
                       7.99040000E+01
           diemac      1.20000000E+01
             ecut      2.00000000E+01 Hartree
           etotal     -1.8947233904E+02
            fcart     -7.9113226428E-22  5.6996378000E-21  8.4543397553E-06
                      -7.9113226428E-22  5.6996378000E-21  8.4543397553E-06
                       1.6084740496E-19 -1.5593889942E-19 -2.5502386995E-03
                      -9.9774434464E-20  1.0468294000E-19  2.5218126162E-03
                       2.8887089640E-03 -5.3250742555E-15 -4.6136547497E-05
                      -5.3253001007E-15  2.8887089640E-03 -4.6136547497E-05
                       5.3252540027E-15 -2.8887089640E-03 -4.6136547507E-05
                      -2.8887089640E-03  5.3246964896E-15 -4.6136547507E-05
                       1.6385087696E-20 -1.1476582160E-20  1.9606359377E-04
-          fftalg         112
             iscf          17
           istwfk        1    1    1    1
              ixc        -428
              kpt      0.00000000E+00  0.00000000E+00  0.00000000E+00
                       5.00000000E-01  0.00000000E+00  0.00000000E+00
                       5.00000000E-01  5.00000000E-01  0.00000000E+00
                       5.00000000E-01  0.00000000E+00  5.00000000E-01
         kptns_hf      0.00000000E+00  0.00000000E+00  0.00000000E+00
                       5.00000000E-01  0.00000000E+00  0.00000000E+00
                       0.00000000E+00  5.00000000E-01  0.00000000E+00
                       5.00000000E-01  5.00000000E-01  0.00000000E+00
                       0.00000000E+00  0.00000000E+00  5.00000000E-01
                       5.00000000E-01  0.00000000E+00  5.00000000E-01
                       0.00000000E+00  5.00000000E-01  5.00000000E-01
                       5.00000000E-01  5.00000000E-01  5.00000000E-01
         kptrlatt        2    0    0      0    2    0      0    0    2
          kptrlen      2.80632294E+01
P           mkmem           1
            natom           9
            nband          42
          nbandhf          36
            ngfft          60      60      60
             nkpt           4
           nkpthf           8
-           npkpt           4
            nstep        2500
             nsym           8
           ntypat           4
              occ      2.000000  2.000000  2.000000  2.000000  2.000000  2.000000
                       2.000000  2.000000  2.000000  2.000000  2.000000  2.000000
                       2.000000  2.000000  2.000000  2.000000  2.000000  2.000000
                       2.000000  2.000000  2.000000  2.000000  2.000000  2.000000
                       2.000000  2.000000  2.000000  2.000000  2.000000  2.000000
                       2.000000  2.000000  2.000000  2.000000  2.000000  2.000000
                       0.000000  0.000000  0.000000  0.000000  0.000000  0.000000
            rprim      0.0000000000E+00  7.0679368072E-01  7.0741974308E-01
                       7.0679368072E-01  0.0000000000E+00  7.0741974308E-01
                       7.0710678119E-01  7.0710678119E-01  0.0000000000E+00
          spgroup         107
           strten     -8.1211389232E-05 -8.1211389232E-05 -8.3840630425E-05
                       4.7710759336E-15  4.7704688313E-15 -9.5503539348E-15
           symrel      1  0  0   0  1  0   0  0  1       1  0 -1   0  1 -1   0  0 -1
                       0  1 -1   1  0 -1   0  0 -1       0  1  0   1  0  0   0  0  1
                       0  1 -1   0  1  0  -1  1  0       1  0 -1   1  0  0   1 -1  0
                       1  0  0   1  0 -1   1 -1  0       0  1  0   0  1 -1  -1  1  0
           toldfe      1.00000000E-08 Hartree
            typat      1  1  4  2  4  4  4  4  3
          usefock           1
              wtk        0.12500    0.50000    0.12500    0.25000
           xangst      2.6252084202E+00  2.6252084202E+00  2.6477077494E+00
                       7.8756252605E+00  7.8756252605E+00  7.9027752939E+00
                       5.2504168404E+00  5.2504168404E+00  2.6744806294E+00
                       5.2504168404E+00  5.2504168404E+00  7.7421315979E+00
                       7.8923739076E+00  5.2504168404E+00  5.2515754707E+00
                       5.2504168404E+00  7.8923739076E+00  5.2515754707E+00
                       5.2504168403E+00  2.6084597731E+00  5.2515754707E+00
                       2.6084597731E+00  5.2504168403E+00  5.2515754707E+00
                      -1.2366371612E-13 -1.2366371612E-13  6.7143203470E-02
            xcart      4.9609249559E+00  4.9609249559E+00  5.0034425262E+00
                       1.4882774868E+01  1.4882774868E+01  1.4934080995E+01
                       9.9218499118E+00  9.9218499118E+00  5.0540359373E+00
                       9.9218499118E+00  9.9218499118E+00  1.4630508405E+01
                       1.4914425224E+01  9.9218499118E+00  9.9240394058E+00
                       9.9218499118E+00  1.4914425224E+01  9.9240394058E+00
                       9.9218499118E+00  4.9292745998E+00  9.9240394058E+00
                       4.9292745998E+00  9.9218499118E+00  9.9240394058E+00
                      -2.3369055603E-13 -2.3369055603E-13  1.2688226624E-01
             xred      2.5191947838E-01  2.5191947838E-01  2.4808052162E-01
                       7.5191947838E-01  7.5191947838E-01  7.4808052162E-01
                       2.5446681767E-01  2.5446681767E-01  7.4553318233E-01
                       7.3663483221E-01  7.3663483221E-01  2.6336516779E-01
                       2.4807275964E-01  7.5126272485E-01  7.5192724036E-01
                       7.5126272485E-01  2.4807275964E-01  7.5192724036E-01
                       2.4807275964E-01  7.5126272485E-01  2.4873727515E-01
                       7.5126272485E-01  2.4807275964E-01  2.4873727515E-01
                       6.3884244018E-03  6.3884244018E-03 -6.3884244018E-03
            znucl       55.00000   53.00000   40.00000   35.00000

- Timing analysis has been suppressed with timopt=0

 Suggested references for the acknowledgment of ABINIT usage.

 Calculation completed.
.Delivered   0 WARNINGs and   0 COMMENTs to log file.