.Version 9.2.2 of ABINIT

 ABINIT is a project of the Universite Catholique de Louvain,
 Corning Inc. and other collaborators, see ~abinit/doc/developers/contributors.txt .
 acknowledgments of the ABINIT effort.

.Starting date : Wed 26 Oct 2022.
- ( at 16h32 )

- input  file    -> Cs2TiI6.in
- output file    -> Cs2TiI6.out
- root for input  files -> Cs2TiI6i
- root for output files -> Cs2TiI6o

- inpspheads : Reading pseudopotential header in XML form from
-   ../../../Psps_for_tests/ATOMICDATA/Cs.GGA_PBE-JTH.xml
- inpspheads : Reading pseudopotential header in XML form from
-   ../../../Psps_for_tests/ATOMICDATA/I.GGA_PBE-JTH.xml
- inpspheads : Reading pseudopotential header in XML form from
-   ../../../Psps_for_tests/ATOMICDATA/Hf.GGA_PBE-JTH.xml
- inpspheads : Reading pseudopotential header in XML form from
-   ../../../Psps_for_tests/ATOMICDATA/Br.GGA_PBE-JTH.xml

 DATASET    1 : space group I4 m m (#107); Bravais tI (body-center tetrag.)
     intxc =       0    ionmov =       0      iscf =      17    lmnmax =      18
     lnmax =       6     mgfft =      60  mpssoang =       3    mqgrid =    3664
     natom =       9  nloc_mem =       2    nspden =       1   nspinor =       1
    nsppol =       1      nsym =       8    n1xccc =       1    ntypat =       4
    occopt =       1   xclevel =       2
-    mband =          42        mffmem =           1         mkmem =          28
       mpw =        8480          nfft =      216000          nkpt =         163
Pmy_natom=         2
 PAW method is used; the additional fine FFT grid is defined by:
   mgfftf=        96    nfftf =    884736
  Rough estimation (10% accuracy) of disk space for files :

[...]

 DATASET    9 : space group I4 m m (#107); Bravais tI (body-center tetrag.)
     intxc =       0    ionmov =       0      iscf =      17    lmnmax =      18
     lnmax =       6     mgfft =      54  mpssoang =       3    mqgrid =    3367
     natom =       9  nloc_mem =       2    nspden =       1   nspinor =       1
    nsppol =       1      nsym =       8    n1xccc =       1    ntypat =       4
    occopt =       1   xclevel =       2
-    mband =          42        mffmem =           1         mkmem =          28
       mpw =        6606          nfft =      157464          nkpt =         163
Pmy_natom=         2
 PAW method is used; the additional fine FFT grid is defined by:
   mgfftf=        90    nfftf =    729000
  Rough estimation (10% accuracy) of disk space for files :

------------- Echo of variables that govern the present computation ------------
-
- outvars: echo of selected default values
-   iomode0 =  0 , fftalg0 =112 , wfoptalg0 = 10
-
- outvars: echo of global parameters not present in the input file
-  max_nthreads =    0
-
 -outvars: echo values of preprocessed input variables --------
            acell1     1.5717069862E+01  1.5844896156E+01  1.5717069862E+01 Bohr
            acell2     1.5558317349E+01  1.5684834469E+01  1.5558317349E+01 Bohr
            acell3     1.5398210388E+01  1.5527647269E+01  1.5398210388E+01 Bohr
            acell4     1.5238288778E+01  1.5370071461E+01  1.5238288778E+01 Bohr
            acell5     1.5077348679E+01  1.5214673445E+01  1.5077348679E+01 Bohr
            acell6     1.4915903673E+01  1.5060374231E+01  1.4915903673E+01 Bohr
            acell7     1.4754653617E+01  1.4905680897E+01  1.4754653617E+01 Bohr
            acell8     1.4593128499E+01  1.4751605733E+01  1.4593128499E+01 Bohr
            acell9     1.4431211574E+01  1.4598412271E+01  1.4431211574E+01 Bohr
              amu      1.32905430E+02  1.26904470E+02  1.78490000E+02
                       7.99040000E+01
           diemac      1.20000000E+01
             ecut      1.60000000E+01 Hartree
-          fftalg         112
           istwfk        2    0    0    0    0    0    3    0    0    0
                         0    0    0    0    0    0    0    0    0    0
                         0    0    0    0    0    0    0    0    0    0
                         0    0    0    0    0    0    0    0    0    0
                         0    0    7    0    0    0    0    0    0    0
                       outvar_i_n : Printing only first  50 k-points.
              ixc     -101130
           jdtset        1    2    3    4    5    6    7    8    9
              kpt      0.00000000E+00  0.00000000E+00  0.00000000E+00
                       8.33333333E-02  0.00000000E+00  0.00000000E+00
                       1.66666667E-01  0.00000000E+00  0.00000000E+00
                       2.50000000E-01  0.00000000E+00  0.00000000E+00
                       3.33333333E-01  0.00000000E+00  0.00000000E+00
                       4.16666667E-01  0.00000000E+00  0.00000000E+00
                       5.00000000E-01  0.00000000E+00  0.00000000E+00
                       8.33333333E-02  8.33333333E-02  0.00000000E+00
                       1.66666667E-01  8.33333333E-02  0.00000000E+00
                       2.50000000E-01  8.33333333E-02  0.00000000E+00
                       3.33333333E-01  8.33333333E-02  0.00000000E+00
                       4.16666667E-01  8.33333333E-02  0.00000000E+00
                       5.00000000E-01  8.33333333E-02  0.00000000E+00
                      -4.16666667E-01  8.33333333E-02  0.00000000E+00
                      -3.33333333E-01  8.33333333E-02  0.00000000E+00
                      -2.50000000E-01  8.33333333E-02  0.00000000E+00
                      -1.66666667E-01  8.33333333E-02  0.00000000E+00
                      -8.33333333E-02  8.33333333E-02  0.00000000E+00
                       1.66666667E-01  1.66666667E-01  0.00000000E+00
                       2.50000000E-01  1.66666667E-01  0.00000000E+00
                       3.33333333E-01  1.66666667E-01  0.00000000E+00
                       4.16666667E-01  1.66666667E-01  0.00000000E+00
                       5.00000000E-01  1.66666667E-01  0.00000000E+00
                      -4.16666667E-01  1.66666667E-01  0.00000000E+00
                      -3.33333333E-01  1.66666667E-01  0.00000000E+00
                      -2.50000000E-01  1.66666667E-01  0.00000000E+00
                      -1.66666667E-01  1.66666667E-01  0.00000000E+00
                       2.50000000E-01  2.50000000E-01  0.00000000E+00
                       3.33333333E-01  2.50000000E-01  0.00000000E+00
                       4.16666667E-01  2.50000000E-01  0.00000000E+00
                       5.00000000E-01  2.50000000E-01  0.00000000E+00
                      -4.16666667E-01  2.50000000E-01  0.00000000E+00
                      -3.33333333E-01  2.50000000E-01  0.00000000E+00
                      -2.50000000E-01  2.50000000E-01  0.00000000E+00
                       3.33333333E-01  3.33333333E-01  0.00000000E+00
                       4.16666667E-01  3.33333333E-01  0.00000000E+00
                       5.00000000E-01  3.33333333E-01  0.00000000E+00
                      -4.16666667E-01  3.33333333E-01  0.00000000E+00
                      -3.33333333E-01  3.33333333E-01  0.00000000E+00
                       4.16666667E-01  4.16666667E-01  0.00000000E+00
                       5.00000000E-01  4.16666667E-01  0.00000000E+00
                      -4.16666667E-01  4.16666667E-01  0.00000000E+00
                       5.00000000E-01  5.00000000E-01  0.00000000E+00
                       8.33333333E-02  0.00000000E+00  8.33333333E-02
                       1.66666667E-01  0.00000000E+00  8.33333333E-02
                       2.50000000E-01  0.00000000E+00  8.33333333E-02
                       3.33333333E-01  0.00000000E+00  8.33333333E-02
                       4.16666667E-01  0.00000000E+00  8.33333333E-02
                       5.00000000E-01  0.00000000E+00  8.33333333E-02
                      -4.16666667E-01  0.00000000E+00  8.33333333E-02
                       outvar_i_n : Printing only first  50 k-points.
         kptrlatt       12    0    0      0   12    0      0    0   12
          kptrlen1     1.88604838E+02
          kptrlen2     1.86699808E+02
          kptrlen3     1.84778525E+02
          kptrlen4     1.82859465E+02
          kptrlen5     1.80928184E+02
          kptrlen6     1.78990844E+02
          kptrlen7     1.77055843E+02
          kptrlen8     1.75117542E+02
          kptrlen9     1.73174539E+02
P           mkmem          28
            natom           9
            nband          42
           ndtset           9
            ngfft1         60      60      60
            ngfft2         60      60      60
            ngfft3         60      60      60
            ngfft4         60      60      60
            ngfft5         60      60      60
            ngfft6         60      60      60
            ngfft7         54      54      54
            ngfft8         54      54      54
            ngfft9         54      54      54
          ngfftdg1         96      96      96
          ngfftdg2         90      90      90
          ngfftdg3         90      90      90
          ngfftdg4         90      90      90
          ngfftdg5         90      90      90
          ngfftdg6         90      90      90
          ngfftdg7         90      90      90
          ngfftdg8         90      90      90
          ngfftdg9         90      90      90
             nkpt         163
            nstep        2500
             nsym           8
           ntypat           4
              occ      2.000000  2.000000  2.000000  2.000000  2.000000  2.000000
                       2.000000  2.000000  2.000000  2.000000  2.000000  2.000000
                       2.000000  2.000000  2.000000  2.000000  2.000000  2.000000
                       2.000000  2.000000  2.000000  2.000000  2.000000  2.000000
                       2.000000  2.000000  2.000000  2.000000  2.000000  2.000000
                       2.000000  2.000000  2.000000  2.000000  2.000000  2.000000
                       0.000000  0.000000  0.000000  0.000000  0.000000  0.000000
        pawecutdg      4.00000000E+01 Hartree
            prtwf           0
            rprim1     0.0000000000E+00  7.0130875360E-01  7.1285765208E-01
                       7.0710678119E-01  0.0000000000E+00  7.0710678119E-01
                       7.1285765208E-01  7.0130875360E-01  0.0000000000E+00
            rprim2     0.0000000000E+00  7.0130958733E-01  7.1285683185E-01
                       7.0710678119E-01  0.0000000000E+00  7.0710678119E-01
                       7.1285683185E-01  7.0130958733E-01  0.0000000000E+00
            rprim3     0.0000000000E+00  7.0111247367E-01  7.1305069895E-01
                       7.0710678119E-01  0.0000000000E+00  7.0710678119E-01
                       7.1305069895E-01  7.0111247367E-01  0.0000000000E+00
            rprim4     0.0000000000E+00  7.0093828274E-01  7.1322193165E-01
                       7.0710678119E-01  0.0000000000E+00  7.0710678119E-01
                       7.1322193165E-01  7.0093828274E-01  0.0000000000E+00
            rprim5     0.0000000000E+00  7.0060723930E-01  7.1354712265E-01
                       7.0710678119E-01  0.0000000000E+00  7.0710678119E-01
                       7.1354712265E-01  7.0060723930E-01  0.0000000000E+00
[...]
                       2.6155721634E-13 -6.0252254737E-02  2.6155721634E-13
           xangst4     2.8756235013E+00  2.8118555998E+00  2.8756235013E+00
                       8.6268705038E+00  8.4640502655E+00  8.6268705038E+00
                       5.7512470025E+00  8.6514805434E+00  5.7512470025E+00
                       5.7512470025E+00  5.6414427011E+00  2.8498350169E+00
                       5.7512470026E+00  5.6414427011E+00  8.6526589882E+00
                       5.7512470026E+00  2.7870308631E+00  5.7512470026E+00
                       8.6526589882E+00  5.6414427011E+00  5.7512470026E+00
                       2.8498350169E+00  5.6414427011E+00  5.7512470025E+00
                       4.7560754251E-13 -6.2594576392E-02  4.7560754251E-13
           xangst5     2.8465497142E+00  2.7813378083E+00  2.8465497142E+00
                       8.5396491425E+00  8.3711952221E+00  8.5396491425E+00
                       5.6930994284E+00  8.5272067555E+00  5.6930994284E+00
                       5.6930994284E+00  5.5817130584E+00  2.8421853504E+00
                       5.6930994283E+00  5.5817130584E+00  8.5440135062E+00
                       5.6930994283E+00  2.7767256867E+00  5.6930994283E+00
                       8.5440135062E+00  5.5817130584E+00  5.6930994283E+00
                       2.8421853504E+00  5.5817130584E+00  5.6930994284E+00
                      -1.6475937947E-12 -6.4422620806E-02 -1.6475937947E-12
           xangst6     2.8176815043E+00  2.7516620380E+00  2.8176815043E+00
                       8.4530445130E+00  8.2783789343E+00  8.4530445130E+00
                       5.6353630086E+00  8.4005909515E+00  5.6353630086E+00
                       5.6353630086E+00  5.5216917234E+00  2.8333594301E+00
                       5.6353630087E+00  5.5216917234E+00  8.4373665872E+00
                       5.6353630087E+00  2.7643860384E+00  5.6353630087E+00
                       8.4373665872E+00  5.5216917234E+00  5.6353630087E+00
                       2.8333594301E+00  5.5216917234E+00  5.6353630086E+00
                       1.1788471897E-12 -6.8014314248E-02  1.1788471897E-12
           xangst7     2.7887395578E+00  2.7234199977E+00  2.7887395578E+00
                       8.3662186735E+00  8.1872904242E+00  8.3662186735E+00
                       5.5774791157E+00  8.2746987097E+00  5.5774791157E+00
                       5.5774791157E+00  5.4620699608E+00  2.8230392403E+00
                       5.5774791157E+00  5.4620699608E+00  8.3319189910E+00
                       5.5774791157E+00  2.7500198211E+00  5.5774791157E+00
                       8.3319189910E+00  5.4620699608E+00  5.5774791157E+00
                       2.8230392403E+00  5.4620699608E+00  5.5774791157E+00
                       1.2607527061E-13 -7.2710415143E-02  1.2607527061E-13
           xangst8     2.7599132662E+00  2.6935281648E+00  2.7599132662E+00
                       8.2797397986E+00  8.0941040670E+00  8.2797397986E+00
                       5.5198265325E+00  8.1500038112E+00  5.5198265325E+00
                       5.5198265325E+00  5.4020272661E+00  2.8116060091E+00
                       5.5198265324E+00  5.4020272661E+00  8.2280470558E+00
                       5.5198265324E+00  2.7351072633E+00  5.5198265324E+00
                       8.2280470558E+00  5.4020272661E+00  5.5198265324E+00
                       2.8116060091E+00  5.4020272661E+00  5.5198265325E+00
                      -6.3707887393E-13 -7.6210589332E-02 -6.3707887393E-13
           xangst9     2.7312519343E+00  2.6637799219E+00  2.7312519343E+00
                       8.1937558028E+00  8.0004224581E+00  8.1937558028E+00
                       5.4625038685E+00  8.0248969941E+00  5.4625038685E+00
                       5.4625038685E+00  5.3414003404E+00  2.7987381492E+00
                       5.4625038686E+00  5.3414003404E+00  8.1262695878E+00
                       5.4625038686E+00  2.7186625265E+00  5.4625038686E+00
                       8.1262695878E+00  5.3414003404E+00  5.4625038686E+00
                       2.7987381492E+00  5.3414003404E+00  5.4625038685E+00
                       6.4728611423E-13 -8.0188818334E-02  6.4728611423E-13
            xcart1     5.6020167596E+00  5.4818694147E+00  5.6020167596E+00
                       1.6806050279E+01  1.6504388090E+01  1.6806050279E+01
                       1.1204033519E+01  1.7035048873E+01  1.1204033519E+01
                       1.1204033519E+01  1.0989346586E+01  5.4175214284E+00
                       1.1204033519E+01  1.0989346586E+01  1.6990545610E+01
                       1.1204033519E+01  5.3103428748E+00  1.1204033519E+01
                       1.6990545610E+01  1.0989346586E+01  1.1204033519E+01
                       5.4175214284E+00  1.0989346586E+01  1.1204033519E+01
                      -1.2028479672E-12 -1.0881564994E-01 -1.2028479672E-12
            xcart2     5.5454264073E+00  5.4238554520E+00  5.5454264073E+00
                       1.6636279222E+01  1.6335052572E+01  1.6636279222E+01
                       1.1090852814E+01  1.6812574835E+01  1.1090852814E+01
                       1.1090852814E+01  1.0882125758E+01  5.4087533772E+00
                       1.1090852815E+01  1.0882125758E+01  1.6772952252E+01
                       1.1090852815E+01  5.2995554405E+00  1.1090852815E+01
                       1.6772952252E+01  1.0882125758E+01  1.1090852815E+01
                       5.4087533772E+00  1.0882125758E+01  1.1090852814E+01
                       2.7572428305E-12 -1.0989454210E-01  2.7572428305E-12
            xcart3     5.4898523399E+00  5.3680463058E+00  5.4898523399E+00
                       1.6469557020E+01  1.6163923681E+01  1.6469557020E+01
                       1.0979704680E+01  1.6579899579E+01  1.0979704680E+01
                       1.0979704680E+01  1.0771188826E+01  5.3978797939E+00
                       1.0979704680E+01  1.0771188826E+01  1.6561529566E+01
                       1.0979704680E+01  5.2843234867E+00  1.0979704680E+01
                       1.6561529566E+01  1.0771188826E+01  1.0979704680E+01
                       5.3978797939E+00  1.0771188826E+01  1.0979704680E+01
                       4.9427150696E-13 -1.1386026034E-01  4.9427150696E-13
            xcart4     5.4341408787E+00  5.3136370089E+00  5.4341408787E+00
                       1.6302422636E+01  1.5994736977E+01  1.6302422636E+01
                       1.0868281757E+01  1.6348928871E+01  1.0868281757E+01
                       1.0868281757E+01  1.0660781699E+01  5.3854077059E+00
                       1.0868281757E+01  1.0660781699E+01  1.6351155809E+01
                       1.0868281757E+01  5.2667250551E+00  1.0868281757E+01
                       1.6351155809E+01  1.0660781699E+01  1.0868281757E+01
                       5.3854077059E+00  1.0660781699E+01  1.0868281757E+01
                       8.9876800208E-13 -1.1828660679E-01  8.9876800208E-13
            xcart5     5.3791993834E+00  5.2559667407E+00  5.3791993834E+00
                       1.6137598150E+01  1.5819266375E+01  1.6137598150E+01
                       1.0758398767E+01  1.6114085446E+01  1.0758398767E+01
                       1.0758398767E+01  1.0547909033E+01  5.3709519312E+00
                       1.0758398767E+01  1.0547909033E+01  1.6145845602E+01
                       1.0758398767E+01  5.2472510940E+00  1.0758398767E+01
                       1.6145845602E+01  1.0547909033E+01  1.0758398767E+01
                       5.3709519312E+00  1.0547909033E+01  1.0758398767E+01
                      -3.1135010503E-12 -1.2174111009E-01 -3.1135010503E-12
            xcart6     5.3246463729E+00  5.1998876621E+00  5.3246463729E+00
                       1.5973939119E+01  1.5643869010E+01  1.5973939119E+01
                       1.0649292746E+01  1.5874816253E+01  1.0649292746E+01
                       1.0649292746E+01  1.0434485147E+01  5.3542733590E+00
                       1.0649292746E+01  1.0434485147E+01  1.5944312133E+01
                       1.0649292746E+01  5.2239325381E+00  1.0649292746E+01
                       1.5944312133E+01  1.0434485147E+01  1.0649292746E+01
                       5.3542733590E+00  1.0434485147E+01  1.0649292746E+01
                       2.2276983410E-12 -1.2852842705E-01  2.2276983410E-12
            xcart7     5.2699540203E+00  5.1465179405E+00  5.2699540203E+00
                       1.5809862061E+01  1.5471736672E+01  1.5809862061E+01
                       1.0539908040E+01  1.5636914393E+01  1.0539908040E+01
                       1.0539908040E+01  1.0321816345E+01  5.3347710266E+00
                       1.0539908041E+01  1.0321816345E+01  1.5745045054E+01
                       1.0539908041E+01  5.1967843218E+00  1.0539908041E+01
                       1.5745045054E+01  1.0321816345E+01  1.0539908041E+01
                       5.3347710266E+00  1.0321816345E+01  1.0539908040E+01
                       2.3824773359E-13 -1.3740277163E-01  2.3824773359E-13
            xcart8     5.2154802237E+00  5.0900305626E+00  5.2154802237E+00
                       1.5646440671E+01  1.5295639978E+01  1.5646440671E+01
                       1.0430960447E+01  1.5401275185E+01  1.0430960447E+01
                       1.0430960447E+01  1.0208352095E+01  5.3131653508E+00
                       1.0430960447E+01  1.0208352095E+01  1.5548755544E+01
                       1.0430960447E+01  5.1686036718E+00  1.0430960447E+01
                       1.5548755544E+01  1.0208352095E+01  1.0430960447E+01
                       5.3131653508E+00  1.0208352095E+01  1.0430960447E+01
                      -1.2039045968E-12 -1.4401714226E-01 -1.2039045968E-12
            xcart9     5.1613181557E+00  5.0338145307E+00  5.1613181557E+00
                       1.5483954467E+01  1.5118607393E+01  1.5483954467E+01
                       1.0322636311E+01  1.5164857563E+01  1.0322636311E+01
                       1.0322636311E+01  1.0093783809E+01  5.2888486197E+00
                       1.0322636311E+01  1.0093783809E+01  1.5356424003E+01
                       1.0322636311E+01  5.1375276228E+00  1.0322636311E+01
                       1.5356424003E+01  1.0093783809E+01  1.0322636311E+01
                       5.2888486197E+00  1.0093783809E+01  1.0322636311E+01
                       1.2231934855E-12 -1.5153490557E-01  1.2231934855E-12
             xred1     2.4866682363E-01  2.5133317637E-01  2.4866682363E-01
                       7.4866682363E-01  7.5133317637E-01  7.4866682363E-01
                       7.7273848996E-01  2.2726151004E-01  7.7273848996E-01
                       2.4026182462E-01  2.4327130825E-01  7.5672869175E-01
                       7.5672869175E-01  7.5973817538E-01  2.4026182462E-01
                       2.4088609107E-01  7.5911390893E-01  2.4088609107E-01
                       2.4026182462E-01  7.5973817538E-01  7.5672869175E-01
                       7.5672869175E-01  2.4327130825E-01  2.4026182462E-01
                      -4.9360610376E-03  4.9360610376E-03 -4.9360610376E-03
             xred2     2.4854538840E-01  2.5145461160E-01  2.4854538840E-01
                       7.4854538840E-01  7.5145461160E-01  7.4854538840E-01
                       7.7042760067E-01  2.2957239933E-01  7.7042760067E-01
                       2.4250629947E-01  2.4517065988E-01  7.5482934012E-01
                       7.5482934012E-01  7.5749370053E-01  2.4250629947E-01
                       2.4284940426E-01  7.5715059574E-01  2.4284940426E-01
                       2.4250629947E-01  7.5749370053E-01  7.5482934012E-01
                       7.5482934012E-01  2.4517065988E-01  2.4250629947E-01
                      -5.0358609096E-03  5.0358609096E-03 -5.0358609096E-03
             xred3     2.4861556496E-01  2.5138443504E-01  2.4861556496E-01
                       7.4861556496E-01  7.5138443504E-01  7.4861556496E-01
                       7.6788106251E-01  2.3211893749E-01  7.6788106251E-01
                       2.4466827732E-01  2.4695512707E-01  7.5304487293E-01
                       7.5304487293E-01  7.5533172268E-01  2.4466827732E-01
                       2.4473802837E-01  7.5526197163E-01  2.4473802837E-01
                       2.4466827732E-01  7.5533172268E-01  7.5304487293E-01
                       7.5304487293E-01  2.4695512707E-01  2.4466827732E-01
                      -5.2733213052E-03  5.2733213052E-03 -5.2733213052E-03
             xred4     2.4874015901E-01  2.5125984099E-01  2.4874015901E-01
                       7.4874015901E-01  7.5125984099E-01  7.4874015901E-01
                       7.6532046887E-01  2.3467953113E-01  7.6532046887E-01
                       2.4680687748E-01  2.4870914116E-01  7.5129085884E-01
                       7.5129085884E-01  7.5319312252E-01  2.4680687748E-01
                       2.4654413267E-01  7.5345586733E-01  2.4654413267E-01
                       2.4680687748E-01  7.5319312252E-01  7.5129085884E-01
                       7.5129085884E-01  2.4870914116E-01  2.4680687748E-01
                      -5.5371921965E-03  5.5371921965E-03 -5.5371921965E-03
             xred5     2.4878432511E-01  2.5121567489E-01  2.4878432511E-01
                       7.4878432511E-01  7.5121567489E-01  7.4878432511E-01
                       7.6273920104E-01  2.3726079896E-01  7.6273920104E-01
                       2.4888820302E-01  2.5034519106E-01  7.4965480894E-01
                       7.4965480894E-01  7.5111179698E-01  2.4888820302E-01
                       2.4837178135E-01  7.5162821865E-01  2.4837178135E-01
                       2.4888820302E-01  7.5111179698E-01  7.4965480894E-01
                       7.4965480894E-01  2.5034519106E-01  2.4888820302E-01
                      -5.7624565384E-03  5.7624565384E-03 -5.7624565384E-03
             xred6     2.4894183017E-01  2.5105816983E-01  2.4894183017E-01
                       7.4894183017E-01  7.5105816983E-01  7.4894183017E-01
                       7.5999830542E-01  2.4000169458E-01  7.5999830542E-01
                       2.5093640518E-01  2.5184565620E-01  7.4815434380E-01
                       7.4815434380E-01  7.4906359482E-01  2.5093640518E-01
                       2.5009296570E-01  7.4990703430E-01  2.5009296570E-01
                       2.5093640518E-01  7.4906359482E-01  7.4815434380E-01
                       7.4815434380E-01  2.5184565620E-01  2.5093640518E-01
                      -6.1532294420E-03  6.1532294420E-03 -6.1532294420E-03
             xred7     2.4922077073E-01  2.5077922927E-01  2.4922077073E-01
                       7.4922077073E-01  7.5077922927E-01  7.4922077073E-01
                       7.5721952241E-01  2.4278047759E-01  7.5721952241E-01
                       2.5291007636E-01  2.5323959839E-01  7.4676040161E-01
                       7.4676040161E-01  7.4708992364E-01  2.5291007636E-01
                       2.5165492649E-01  7.4834507351E-01  2.5165492649E-01
                       2.5291007636E-01  7.4708992364E-01  7.4676040161E-01
                       7.4676040161E-01  2.5323959839E-01  2.5291007636E-01
                      -6.6537462886E-03  6.6537462886E-03 -6.6537462886E-03
             xred8     2.4937416060E-01  2.5062583940E-01  2.4937416060E-01
                       7.4937416060E-01  7.5062583940E-01  7.4937416060E-01
                       7.5454951090E-01  2.4545048910E-01  7.5454951090E-01
                       2.5481683203E-01  2.5454808960E-01  7.4545191040E-01
                       7.4545191040E-01  7.4518316797E-01  2.5481683203E-01
                       2.5322366659E-01  7.4677633341E-01  2.5322366659E-01
                       2.5481683203E-01  7.4518316797E-01  7.4545191040E-01
                       7.4545191040E-01  2.5454808960E-01  2.5481683203E-01
                      -7.0557835601E-03  7.0557835601E-03 -7.0557835601E-03
             xred9     2.4957451280E-01  2.5042548720E-01  2.4957451280E-01
                       7.4957451280E-01  7.5042548720E-01  7.4957451280E-01
                       7.5186757776E-01  2.4813242224E-01  7.5186757776E-01
                       2.5662299110E-01  2.5573145598E-01  7.4426854402E-01
                       7.4426854402E-01  7.4337700890E-01  2.5662299110E-01
                       2.5471656646E-01  7.4528343354E-01  2.5471656646E-01
                       2.5662299110E-01  7.4337700890E-01  7.4426854402E-01
                       7.4426854402E-01  2.5573145598E-01  2.5662299110E-01
                      -7.5130400613E-03  7.5130400613E-03 -7.5130400613E-03
            znucl       55.00000   53.00000   72.00000   35.00000

- Timing analysis has been suppressed with timopt=0

 Suggested references for the acknowledgment of ABINIT usage.

 Calculation completed.
.Delivered   0 WARNINGs and   1 COMMENTs to log file.