.Version 9.2.2 of ABINIT

 ABINIT is a project of the Universite Catholique de Louvain,
 Corning Inc. and other collaborators, see ~abinit/doc/developers/contributors.txt .
 acknowledgments of the ABINIT effort.

.Starting date : Sun 13 Nov 2022.
- ( at 19h13 )

- input  file    -> Cs2TiI6.in
- output file    -> Cs2TiI6.out
- root for input  files -> Cs2TiI6i
- root for output files -> Cs2TiI6o

- inpspheads : Reading pseudopotential header in XML form from
-   ../../../Psps_for_tests/ATOMICDATA/Cs.GGA_PBE-JTH.xml
- inpspheads : Reading pseudopotential header in XML form from
-   ../../../Psps_for_tests/ATOMICDATA/I.GGA_PBE-JTH.xml
- inpspheads : Reading pseudopotential header in XML form from
-   ../../../Psps_for_tests/ATOMICDATA/Hf.GGA_PBE-JTH.xml
- inpspheads : Reading pseudopotential header in XML form from
-   ../../../Psps_for_tests/ATOMICDATA/Br.GGA_PBE-JTH.xml

 DATASET    1 : space group I4 m m (#107); Bravais tI (body-center tetrag.)
     intxc =       0    ionmov =       0      iscf =      17    lmnmax =      18
     lnmax =       6     mgfft =      54  mpssoang =       3    mqgrid =    3435
     natom =       9  nloc_mem =       2    nspden =       1   nspinor =       1
    nsppol =       1      nsym =       8    n1xccc =       1    ntypat =       4
    occopt =       1   xclevel =       2
-    mband =          42        mffmem =           1         mkmem =          14
       mpw =        6994          nfft =      157464          nkpt =         163
Pmy_natom=         1
 PAW method is used; the additional fine FFT grid is defined by:
   mgfftf=        90    nfftf =    729000
  Rough estimation (10% accuracy) of disk space for files :

[...]

 DATASET   10 : space group I4 m m (#107); Bravais tI (body-center tetrag.)
     intxc =       0    ionmov =       0      iscf =      17    lmnmax =      18
     lnmax =       6     mgfft =      54  mpssoang =       3    mqgrid =    3404
     natom =       9  nloc_mem =       2    nspden =       1   nspinor =       1
    nsppol =       1      nsym =       8    n1xccc =       1    ntypat =       4
    occopt =       1   xclevel =       2
-    mband =          42        mffmem =           1         mkmem =          14
       mpw =        6815          nfft =      157464          nkpt =         163
Pmy_natom=         1
 PAW method is used; the additional fine FFT grid is defined by:
   mgfftf=        90    nfftf =    729000
  Rough estimation (10% accuracy) of disk space for files :

------------- Echo of variables that govern the present computation ------------
-
- outvars: echo of selected default values
-   iomode0 =  0 , fftalg0 =112 , wfoptalg0 = 10
-
- outvars: echo of global parameters not present in the input file
-  max_nthreads =    0
-
 -outvars: echo values of preprocessed input variables --------
            acell1     1.4767358706E+01  1.4791042901E+01  1.4767358706E+01 Bohr
            acell2     1.4752266755E+01  1.4776863840E+01  1.4752266755E+01 Bohr
            acell3     1.4737653810E+01  1.4761715651E+01  1.4737653810E+01 Bohr
            acell4     1.4722782770E+01  1.4747089665E+01  1.4722782770E+01 Bohr
            acell5     1.4708176284E+01  1.4731928450E+01  1.4708176284E+01 Bohr
            acell6     1.4692885063E+01  1.4718152772E+01  1.4692885063E+01 Bohr
            acell7     1.4678017007E+01  1.4703520857E+01  1.4678017007E+01 Bohr
            acell8     1.4663939584E+01  1.4687288969E+01  1.4663939584E+01 Bohr
            acell9     1.4648977758E+01  1.4672846584E+01  1.4648977758E+01 Bohr
            acell10    1.4634428765E+01  1.4657569145E+01  1.4634428765E+01 Bohr
              amu      1.32905430E+02  1.26904470E+02  1.78490000E+02
                       7.99040000E+01
           diemac      1.20000000E+01
             ecut      1.60000000E+01 Hartree
-          fftalg         112
           istwfk        2    0    0    0    0    0    3    0    0    0
                         0    0    0    0    0    0    0    0    0    0
                         0    0    0    0    0    0    0    0    0    0
                         0    0    0    0    0    0    0    0    0    0
                         0    0    7    0    0    0    0    0    0    0
                       outvar_i_n : Printing only first  50 k-points.
              ixc     -101130
           jdtset        1    2    3    4    5    6    7    8    9   10
              kpt      0.00000000E+00  0.00000000E+00  0.00000000E+00
                       8.33333333E-02  0.00000000E+00  0.00000000E+00
                       1.66666667E-01  0.00000000E+00  0.00000000E+00
                       2.50000000E-01  0.00000000E+00  0.00000000E+00
                       3.33333333E-01  0.00000000E+00  0.00000000E+00
                       4.16666667E-01  0.00000000E+00  0.00000000E+00
                       5.00000000E-01  0.00000000E+00  0.00000000E+00
                       8.33333333E-02  8.33333333E-02  0.00000000E+00
                       1.66666667E-01  8.33333333E-02  0.00000000E+00
                       2.50000000E-01  8.33333333E-02  0.00000000E+00
                       3.33333333E-01  8.33333333E-02  0.00000000E+00
                       4.16666667E-01  8.33333333E-02  0.00000000E+00
                       5.00000000E-01  8.33333333E-02  0.00000000E+00
                      -4.16666667E-01  8.33333333E-02  0.00000000E+00
                      -3.33333333E-01  8.33333333E-02  0.00000000E+00
                      -2.50000000E-01  8.33333333E-02  0.00000000E+00
                      -1.66666667E-01  8.33333333E-02  0.00000000E+00
                      -8.33333333E-02  8.33333333E-02  0.00000000E+00
                       1.66666667E-01  1.66666667E-01  0.00000000E+00
                       2.50000000E-01  1.66666667E-01  0.00000000E+00
                       3.33333333E-01  1.66666667E-01  0.00000000E+00
                       4.16666667E-01  1.66666667E-01  0.00000000E+00
                       5.00000000E-01  1.66666667E-01  0.00000000E+00
                      -4.16666667E-01  1.66666667E-01  0.00000000E+00
                      -3.33333333E-01  1.66666667E-01  0.00000000E+00
                      -2.50000000E-01  1.66666667E-01  0.00000000E+00
                      -1.66666667E-01  1.66666667E-01  0.00000000E+00
                       2.50000000E-01  2.50000000E-01  0.00000000E+00
                       3.33333333E-01  2.50000000E-01  0.00000000E+00
                       4.16666667E-01  2.50000000E-01  0.00000000E+00
                       5.00000000E-01  2.50000000E-01  0.00000000E+00
                      -4.16666667E-01  2.50000000E-01  0.00000000E+00
                      -3.33333333E-01  2.50000000E-01  0.00000000E+00
                      -2.50000000E-01  2.50000000E-01  0.00000000E+00
                       3.33333333E-01  3.33333333E-01  0.00000000E+00
                       4.16666667E-01  3.33333333E-01  0.00000000E+00
                       5.00000000E-01  3.33333333E-01  0.00000000E+00
                      -4.16666667E-01  3.33333333E-01  0.00000000E+00
                      -3.33333333E-01  3.33333333E-01  0.00000000E+00
                       4.16666667E-01  4.16666667E-01  0.00000000E+00
                       5.00000000E-01  4.16666667E-01  0.00000000E+00
                      -4.16666667E-01  4.16666667E-01  0.00000000E+00
                       5.00000000E-01  5.00000000E-01  0.00000000E+00
                       8.33333333E-02  0.00000000E+00  8.33333333E-02
                       1.66666667E-01  0.00000000E+00  8.33333333E-02
                       2.50000000E-01  0.00000000E+00  8.33333333E-02
                       3.33333333E-01  0.00000000E+00  8.33333333E-02
                       4.16666667E-01  0.00000000E+00  8.33333333E-02
                       5.00000000E-01  0.00000000E+00  8.33333333E-02
                      -4.16666667E-01  0.00000000E+00  8.33333333E-02
                       outvar_i_n : Printing only first  50 k-points.
         kptrlatt       12    0    0      0   12    0      0    0   12
          kptrlen1     1.77208304E+02
          kptrlen2     1.77027201E+02
          kptrlen3     1.76851846E+02
          kptrlen4     1.76673393E+02
          kptrlen5     1.76498115E+02
          kptrlen6     1.76314621E+02
          kptrlen7     1.76136204E+02
          kptrlen8     1.75967275E+02
          kptrlen9     1.75787733E+02
          kptrlen10    1.75613145E+02
P           mkmem          14
            natom           9
            nband          42
           ndtset          10
            ngfft          54      54      54
          ngfftdg          90      90      90
             nkpt         163
            nstep        2500
             nsym           8
           ntypat           4
              occ      2.000000  2.000000  2.000000  2.000000  2.000000  2.000000
                       2.000000  2.000000  2.000000  2.000000  2.000000  2.000000
                       2.000000  2.000000  2.000000  2.000000  2.000000  2.000000
                       2.000000  2.000000  2.000000  2.000000  2.000000  2.000000
                       2.000000  2.000000  2.000000  2.000000  2.000000  2.000000
                       2.000000  2.000000  2.000000  2.000000  2.000000  2.000000
                       0.000000  0.000000  0.000000  0.000000  0.000000  0.000000
        pawecutdg      4.00000000E+01 Hartree
            prtwf           0
            rprim1     0.0000000000E+00  7.0597088691E-01  7.0824085369E-01
                       7.0710678119E-01  0.0000000000E+00  7.0710678119E-01
                       7.0824085369E-01  7.0597088691E-01  0.0000000000E+00
            rprim2     0.0000000000E+00  7.0592582273E-01  7.0828577057E-01
                       7.0710678119E-01  0.0000000000E+00  7.0710678119E-01
                       7.0828577057E-01  7.0592582273E-01  0.0000000000E+00
            rprim3     0.0000000000E+00  7.0595041559E-01  7.0826125880E-01
                       7.0710678119E-01  0.0000000000E+00  7.0710678119E-01
                       7.0826125880E-01  7.0595041559E-01  0.0000000000E+00
            rprim4     0.0000000000E+00  7.0593743742E-01  7.0827419439E-01
                       7.0710678119E-01  0.0000000000E+00  7.0710678119E-01
                       7.0827419439E-01  7.0593743742E-01  0.0000000000E+00
            rprim5     0.0000000000E+00  7.0596303064E-01  7.0824868470E-01
                       7.0710678119E-01  0.0000000000E+00  7.0710678119E-01
                       7.0824868470E-01  7.0596303064E-01  0.0000000000E+00
            rprim6     0.0000000000E+00  7.0588865771E-01  7.0832280982E-01
                       7.0710678119E-01  0.0000000000E+00  7.0710678119E-01
                       7.0832280982E-01  7.0588865771E-01  0.0000000000E+00
            rprim7     0.0000000000E+00  7.0587600628E-01  7.0833541756E-01
                       7.0710678119E-01  0.0000000000E+00  7.0710678119E-01
                       7.0833541756E-01  7.0587600628E-01  0.0000000000E+00
            rprim8     0.0000000000E+00  7.0597905964E-01  7.0823270706E-01
                       7.0710678119E-01  0.0000000000E+00  7.0710678119E-01
                       7.0823270706E-01  7.0597905964E-01  0.0000000000E+00
[...]
                       1.3926658232E-12  5.6107536594E-02  1.3926658232E-12
           xangst7     2.7509169515E+00  2.7676542195E+00  2.7509169515E+00
                       8.2527508546E+00  8.2503852061E+00  8.2527508546E+00
                       5.5018339031E+00  8.1518507333E+00  5.5018339031E+00
                       5.5018339031E+00  5.4923476590E+00  2.6144513141E+00
                       5.5018339031E+00  5.4923476590E+00  8.3892164921E+00
                       5.5018339031E+00  2.6663869119E+00  5.5018339031E+00
                       8.3892164921E+00  5.4923476590E+00  5.5018339031E+00
                       2.6144513141E+00  5.4923476590E+00  5.5018339031E+00
                       6.8544950769E-13  5.6180185972E-02  6.8544950769E-13
           xangst8     2.7478800888E+00  2.7659706406E+00  2.7478800888E+00
                       8.2436402663E+00  8.2442429140E+00  8.2436402663E+00
                       5.4957601776E+00  8.1436710768E+00  5.4957601776E+00
                       5.4957601776E+00  5.4875601210E+00  2.6140969744E+00
                       5.4957601774E+00  5.4875601210E+00  8.3774233806E+00
                       5.4957601774E+00  2.6659956146E+00  5.4957601774E+00
                       8.3774233806E+00  5.4875601210E+00  5.4957601774E+00
                       2.6140969744E+00  5.4875601210E+00  5.4957601776E+00
                       1.2552385212E-12  5.6057457490E-02  1.2552385212E-12
           xangst9     2.7451780283E+00  2.7626341767E+00  2.7451780283E+00
                       8.2355340848E+00  8.2351129534E+00  8.2355340848E+00
                       5.4903560566E+00  8.1331873696E+00  5.4903560566E+00
                       5.4903560566E+00  5.4817016401E+00  2.6137253914E+00
                       5.4903560566E+00  5.4817016401E+00  8.3669867217E+00
                       5.4903560566E+00  2.6659048120E+00  5.4903560566E+00
                       8.3669867217E+00  5.4817016401E+00  5.4903560566E+00
                       2.6137253914E+00  5.4817016401E+00  5.4903560566E+00
                       3.6676872001E-14  5.6184341389E-02  3.6676872001E-14
           xangst10    2.7423197356E+00  2.7600901124E+00  2.7423197356E+00
                       8.2269592069E+00  8.2273983137E+00  8.2269592069E+00
                       5.4846394713E+00  8.1238146484E+00  5.4846394713E+00
                       5.4846394713E+00  5.4763772488E+00  2.6134059664E+00
                       5.4846394712E+00  5.4763772488E+00  8.3558729761E+00
                       5.4846394712E+00  2.6655120369E+00  5.4846394712E+00
                       8.3558729761E+00  5.4763772488E+00  5.4846394712E+00
                       2.6134059664E+00  5.4763772488E+00  5.4846394713E+00
                       5.6660811537E-13  5.6141503730E-02  5.6660811537E-13
            xcart1     5.2294233682E+00  5.2644225406E+00  5.2294233682E+00
                       1.5688270105E+01  1.5689747864E+01  1.5688270105E+01
                       1.0458846737E+01  1.5522615326E+01  1.0458846737E+01
                       1.0458846737E+01  1.0445002687E+01  4.9444060235E+00
                       1.0458846736E+01  1.0445002687E+01  1.5973287449E+01
                       1.0458846736E+01  5.0406485751E+00  1.0458846736E+01
                       1.5973287449E+01  1.0445002687E+01  1.0458846736E+01
                       4.9444060235E+00  1.0445002687E+01  1.0458846737E+01
                       2.5952288726E-12  1.0515752900E-01  2.5952288726E-12
            xcart2     5.2244103131E+00  5.2583419220E+00  5.2244103131E+00
                       1.5673230939E+01  1.5672347968E+01  1.5673230939E+01
                       1.0448820626E+01  1.5501738381E+01  1.0448820626E+01
                       1.0448820626E+01  1.0433493764E+01  4.9436592159E+00
                       1.0448820626E+01  1.0433493764E+01  1.5953982036E+01
                       1.0448820626E+01  5.0403444439E+00  1.0448820626E+01
                       1.5953982036E+01  1.0433493764E+01  1.0448820626E+01
                       4.9436592159E+00  1.0433493764E+01  1.0448820626E+01
                       1.1833670642E-12  1.0530059806E-01  1.1833670642E-12
            xcart3     5.2190546195E+00  5.2532480934E+00  5.2190546195E+00
                       1.5657163859E+01  1.5657300925E+01  1.5657163859E+01
                       1.0438109239E+01  1.5483579633E+01  1.0438109239E+01
                       1.0438109239E+01  1.0423203198E+01  4.9430795254E+00
                       1.0438109239E+01  1.0423203198E+01  1.5933138953E+01
                       1.0438109239E+01  5.0400351940E+00  1.0438109239E+01
                       1.5933138953E+01  1.0423203198E+01  1.0438109239E+01
                       4.9430795254E+00  1.0423203198E+01  1.0438109239E+01
                       2.0703999731E-12  1.0544601723E-01  2.0703999731E-12
            xcart4     5.2138835526E+00  5.2473117288E+00  5.2138835526E+00
                       1.5641650658E+01  1.5640675269E+01  1.5641650658E+01
                       1.0427767105E+01  1.5464120097E+01  1.0427767105E+01
                       1.0427767105E+01  1.0412314869E+01  4.9424389916E+00
                       1.0427767105E+01  1.0412314869E+01  1.5913095219E+01
                       1.0427767105E+01  5.0398656503E+00  1.0427767105E+01
                       1.5913095219E+01  1.0412314869E+01  1.0427767105E+01
                       4.9424389916E+00  1.0412314869E+01  1.0427767105E+01
                       3.3667960838E-12  1.0567610284E-01  3.3667960838E-12
            xcart5     5.2085232536E+00  5.2429744231E+00  5.2085232536E+00
                       1.5625569761E+01  1.5626403128E+01  1.5625569761E+01
                       1.0417046507E+01  1.5445707995E+01  1.0417046507E+01
                       1.0417046507E+01  1.0401974649E+01  4.9418801195E+00
                       1.0417046507E+01  1.0401974649E+01  1.5892212895E+01
                       1.0417046507E+01  5.0390167396E+00  1.0417046507E+01
                       1.5892212895E+01  1.0401974649E+01  1.0417046507E+01
                       4.9418801195E+00  1.0401974649E+01  1.0417046507E+01
                       2.4259161246E-12  1.0542875497E-01  2.4259161246E-12
            xcart6     5.2036528160E+00  5.2353976375E+00  5.2036528160E+00
                       1.5610958448E+01  1.5606938553E+01  1.5610958448E+01
                       1.0407305632E+01  1.5424298970E+01  1.0407305632E+01
                       1.0407305632E+01  1.0390147917E+01  4.9412451438E+00
                       1.0407305632E+01  1.0390147917E+01  1.5873366120E+01
                       1.0407305632E+01  5.0390726136E+00  1.0407305632E+01
                       1.5873366120E+01  1.0390147917E+01  1.0407305632E+01
                       4.9412451438E+00  1.0390147917E+01  1.0407305632E+01
                       2.6317570004E-12  1.0602787815E-01  2.6317570004E-12
            xcart7     5.1984796527E+00  5.2301085054E+00  5.1984796527E+00
                       1.5595438958E+01  1.5590968530E+01  1.5595438958E+01
                       1.0396959306E+01  1.5404765362E+01  1.0396959306E+01
                       1.0396959306E+01  1.0379032902E+01  4.9405969714E+00
                       1.0396959305E+01  1.0379032902E+01  1.5853321640E+01
                       1.0396959305E+01  5.0387410277E+00  1.0396959305E+01
                       1.5853321640E+01  1.0379032902E+01  1.0396959305E+01
                       4.9405969714E+00  1.0379032902E+01  1.0396959306E+01
                       1.2953118474E-12  1.0616516558E-01  1.2953118474E-12
            xcart8     5.1927408138E+00  5.2269270023E+00  5.1927408138E+00
                       1.5578222441E+01  1.5579361280E+01  1.5578222441E+01
                       1.0385481628E+01  1.5389308051E+01  1.0385481628E+01
                       1.0385481628E+01  1.0369985766E+01  4.9399273664E+00
                       1.0385481627E+01  1.0369985766E+01  1.5831035889E+01
                       1.0385481627E+01  5.0380015830E+00  1.0385481627E+01
                       1.5831035889E+01  1.0369985766E+01  1.0385481627E+01
                       4.9399273664E+00  1.0369985766E+01  1.0385481628E+01
                       2.3720570366E-12  1.0593324236E-01  2.3720570366E-12
            xcart9     5.1876346595E+00  5.2206219994E+00  5.1876346595E+00
                       1.5562903978E+01  1.5562108155E+01  1.5562903978E+01
                       1.0375269319E+01  1.5369496716E+01  1.0375269319E+01
                       1.0375269319E+01  1.0358914842E+01  4.9392251763E+00
                       1.0375269319E+01  1.0358914842E+01  1.5811313461E+01
                       1.0375269319E+01  5.0378299911E+00  1.0375269319E+01
                       1.5811313461E+01  1.0358914842E+01  1.0375269319E+01
                       4.9392251763E+00  1.0358914842E+01  1.0375269319E+01
                       6.9309243493E-14  1.0617301818E-01  6.9309243493E-14
            xcart10    5.1822332691E+00  5.2158144144E+00  5.1822332691E+00
                       1.5546699807E+01  1.5547529599E+01  1.5546699807E+01
                       1.0364466538E+01  1.5351784840E+01  1.0364466538E+01
                       1.0364466538E+01  1.0348853201E+01  4.9386215506E+00
                       1.0364466538E+01  1.0348853201E+01  1.5790311526E+01
                       1.0364466538E+01  5.0370877536E+00  1.0364466538E+01
                       1.5790311526E+01  1.0348853201E+01  1.0364466538E+01
                       4.9386215506E+00  1.0348853201E+01  1.0364466538E+01
                       1.0707341627E-12  1.0609206674E-01  1.0707341627E-12
             xred1     2.5248241074E-01  2.4751758926E-01  2.5248241074E-01
                       7.5248241074E-01  7.4751758926E-01  7.5248241074E-01
                       7.4446671184E-01  2.5553328816E-01  7.4446671184E-01
                       2.3731807068E-01  2.3543061262E-01  7.6456938738E-01
                       7.6456938738E-01  7.6268192932E-01  2.3731807068E-01
                       2.4175018136E-01  7.5824981864E-01  2.4175018136E-01
                       2.3731807068E-01  7.6268192932E-01  7.6456938738E-01
                       7.6456938738E-01  2.3543061262E-01  2.3731807068E-01
                       5.0433691873E-03 -5.0433691873E-03  5.0433691873E-03
             xred2     2.5246489673E-01  2.4753510327E-01  2.5246489673E-01
                       7.5246489673E-01  7.4753510327E-01  7.5246489673E-01
                       7.4427354433E-01  2.5572645567E-01  7.4427354433E-01
                       2.3750106638E-01  2.3562976750E-01  7.6437023250E-01
                       7.6437023250E-01  7.6249893362E-01  2.3750106638E-01
                       2.4199834442E-01  7.5800165558E-01  2.4199834442E-01
                       2.3750106638E-01  7.6249893362E-01  7.6437023250E-01
                       7.6437023250E-01  2.3562976750E-01  2.3750106638E-01
                       5.0557200365E-03 -5.0557200365E-03  5.0557200365E-03
             xred3     2.5246162136E-01  2.4753837864E-01  2.5246162136E-01
                       7.5246162136E-01  7.4753837864E-01  7.5246162136E-01
                       7.4411288960E-01  2.5588711040E-01  7.4411288960E-01
                       2.3770073988E-01  2.3586007580E-01  7.6413992420E-01
                       7.6413992420E-01  7.6229926012E-01  2.3770073988E-01
                       2.4221499426E-01  7.5778500574E-01  2.4221499426E-01
                       2.3770073988E-01  7.6229926012E-01  7.6413992420E-01
                       7.6413992420E-01  2.3586007580E-01  2.3770073988E-01
                       5.0675452602E-03 -5.0675452602E-03  5.0675452602E-03
             xred4     2.5243568689E-01  2.4756431311E-01  2.5243568689E-01
                       7.5243568689E-01  7.4756431311E-01  7.5243568689E-01
                       7.4394203749E-01  2.5605796251E-01  7.4394203749E-01
                       2.3789623423E-01  2.3607282757E-01  7.6392717243E-01
                       7.6392717243E-01  7.6210376577E-01  2.3789623423E-01
                       2.4245594945E-01  7.5754405055E-01  2.4245594945E-01
                       2.3789623423E-01  7.6210376577E-01  7.6392717243E-01
                       7.6392717243E-01  2.3607282757E-01  2.3789623423E-01
                       5.0838259642E-03 -5.0838259642E-03  5.0838259642E-03
             xred5     2.5246835955E-01  2.4753164045E-01  2.5246835955E-01
                       7.5246835955E-01  7.4753164045E-01  7.5246835955E-01
                       7.4376722922E-01  2.5623277078E-01  7.4376722922E-01
                       2.3809465119E-01  2.3630854131E-01  7.6369145869E-01
                       7.6369145869E-01  7.6190534881E-01  2.3809465119E-01
                       2.4264705248E-01  7.5735294752E-01  2.4264705248E-01
                       2.3809465119E-01  7.6190534881E-01  7.6369145869E-01
                       7.6369145869E-01  2.3630854131E-01  2.3809465119E-01
                       5.0767794515E-03 -5.0767794515E-03  5.0767794515E-03
             xred6     2.5239246899E-01  2.4760753101E-01  2.5239246899E-01
                       7.5239246899E-01  7.4760753101E-01  7.5239246899E-01
                       7.4358762582E-01  2.5641237418E-01  7.4358762582E-01
                       2.3829012449E-01  2.3649608037E-01  7.6350391963E-01
                       7.6350391963E-01  7.6170987551E-01  2.3829012449E-01
                       2.4292786650E-01  7.5707213350E-01  2.4292786650E-01
                       2.3829012449E-01  7.6170987551E-01  7.6350391963E-01
                       7.6350391963E-01  2.3649608037E-01  2.3829012449E-01
                       5.1114814579E-03 -5.1114814579E-03  5.1114814579E-03
             xred7     2.5239741164E-01  2.4760258836E-01  2.5239741164E-01
                       7.5239741164E-01  7.4760258836E-01  7.5239741164E-01
                       7.4341151820E-01  2.5658848180E-01  7.4341151820E-01
                       2.3847516474E-01  2.3672117163E-01  7.6327882837E-01
                       7.6327882837E-01  7.6152483526E-01  2.3847516474E-01
                       2.4316229616E-01  7.5683770384E-01  2.4316229616E-01
                       2.3847516474E-01  7.6152483526E-01  7.6327882837E-01
                       7.6327882837E-01  2.3672117163E-01  2.3847516474E-01
                       5.1233761158E-03 -5.1233761158E-03  5.1233761158E-03
             xred8     2.5244917581E-01  2.4755082419E-01  2.5244917581E-01
                       7.5244917581E-01  7.4755082419E-01  7.5244917581E-01
                       7.4327001930E-01  2.5672998070E-01  7.4327001930E-01
                       2.3867621459E-01  2.3698081737E-01  7.6301918263E-01
                       7.6301918263E-01  7.6132378541E-01  2.3867621459E-01
                       2.4332449005E-01  7.5667550995E-01  2.4332449005E-01
                       2.3867621459E-01  7.6132378541E-01  7.6301918263E-01
                       7.6301918263E-01  2.3698081737E-01  2.3867621459E-01
                       5.1163445966E-03 -5.1163445966E-03  5.1163445966E-03
             xred9     2.5241159349E-01  2.4758840651E-01  2.5241159349E-01
                       7.5241159349E-01  7.4758840651E-01  7.5241159349E-01
                       7.4309903259E-01  2.5690096741E-01  7.4309903259E-01
                       2.3887142807E-01  2.3718611073E-01  7.6281388927E-01
                       7.6281388927E-01  7.6112857193E-01  2.3887142807E-01
                       2.4357379177E-01  7.5642620823E-01  2.4357379177E-01
                       2.3887142807E-01  7.6112857193E-01  7.6281388927E-01
                       7.6281388927E-01  2.3718611073E-01  2.3887142807E-01
                       5.1333539774E-03 -5.1333539774E-03  5.1333539774E-03
             xred10    2.5241764418E-01  2.4758235582E-01  2.5241764418E-01
                       7.5241764418E-01  7.4758235582E-01  7.5241764418E-01
                       7.4294464015E-01  2.5705535985E-01  7.4294464015E-01
                       2.3907713318E-01  2.3741835574E-01  7.6258164426E-01
                       7.6258164426E-01  7.6092286682E-01  2.3907713318E-01
                       2.4376822549E-01  7.5623177451E-01  2.4376822549E-01
                       2.3907713318E-01  7.6092286682E-01  7.6258164426E-01
                       7.6258164426E-01  2.3741835574E-01  2.3907713318E-01
                       5.1342911048E-03 -5.1342911048E-03  5.1342911048E-03
            znucl       55.00000   53.00000   72.00000   35.00000

- Timing analysis has been suppressed with timopt=0

 Suggested references for the acknowledgment of ABINIT usage.

 Calculation completed.
.Delivered   0 WARNINGs and   0 COMMENTs to log file.