.Version 9.2.2 of ABINIT

 ABINIT is a project of the Universite Catholique de Louvain,
 Corning Inc. and other collaborators, see ~abinit/doc/developers/contributors.txt .
 acknowledgments of the ABINIT effort.

.Starting date : Fri 14 Jul 2023.
- ( at 21h40 )

- The starting date is more than 2 years after the initial release
- of this version of ABINIT, namely Nov 2020.
- Note that the use beyond 3 years after the release will not be supported.
- Action: please, switch to a more recent version of ABINIT.

- input  file    -> Cs2TiI6.in
- output file    -> Cs2TiI6.out
- root for input  files -> Cs2TiI6i
- root for output files -> Cs2TiI6o

 Symmetries : space group I4/m m m (#139); Bravais tI (body-center tetrag.)
     intxc =       0    ionmov =       0      iscf =      17    lmnmax =       8
     lnmax =       8     mgfft =      60  mpssoang =       4    mqgrid =    3001
     natom =       9  nloc_mem =       1    nspden =       1   nspinor =       1
    nsppol =       1      nsym =      16    n1xccc =    2501    ntypat =       4
    occopt =       1   xclevel =       2
-    mband =          42        mffmem =           1         mkmem =          41
       mpw =        8720          nfft =      216000          nkpt =         163
  Rough estimation (10% accuracy) of disk space for files :

------------- Echo of variables that govern the present computation ------------
-
- outvars: echo of selected default values
-   iomode0 =  0 , fftalg0 =112 , wfoptalg0 =  0
-
- outvars: echo of global parameters not present in the input file
-  max_nthreads =    0
-
 -outvars: echo values of preprocessed input variables --------
            acell      1.4212778538E+01  1.4212778538E+01  1.4217466964E+01 Bohr
              amu      1.32905430E+02  1.26904470E+02  9.12240000E+01
                       7.99040000E+01
           diemac      1.20000000E+01
             ecut      2.00000000E+01 Hartree
-          fftalg         112
             iscf          17
           istwfk        2    0    0    0    0    0    3    0    0    0
                         0    0    0    0    0    0    0    0    0    0
                         0    0    0    0    0    0    0    0    0    0
                         0    0    0    0    0    0    0    0    0    0
                         0    0    7    0    0    0    0    0    0    0
                       outvar_i_n : Printing only first  50 k-points.
              ixc          32
              kpt      0.00000000E+00  0.00000000E+00  0.00000000E+00
                       8.33333333E-02  0.00000000E+00  0.00000000E+00
                       1.66666667E-01  0.00000000E+00  0.00000000E+00
                       2.50000000E-01  0.00000000E+00  0.00000000E+00
                       3.33333333E-01  0.00000000E+00  0.00000000E+00
                       4.16666667E-01  0.00000000E+00  0.00000000E+00
                       5.00000000E-01  0.00000000E+00  0.00000000E+00
                       8.33333333E-02  8.33333333E-02  0.00000000E+00
                       1.66666667E-01  8.33333333E-02  0.00000000E+00
                       2.50000000E-01  8.33333333E-02  0.00000000E+00
                       3.33333333E-01  8.33333333E-02  0.00000000E+00
                       4.16666667E-01  8.33333333E-02  0.00000000E+00
                       5.00000000E-01  8.33333333E-02  0.00000000E+00
                      -4.16666667E-01  8.33333333E-02  0.00000000E+00
                      -3.33333333E-01  8.33333333E-02  0.00000000E+00
                      -2.50000000E-01  8.33333333E-02  0.00000000E+00
                      -1.66666667E-01  8.33333333E-02  0.00000000E+00
                      -8.33333333E-02  8.33333333E-02  0.00000000E+00
                       1.66666667E-01  1.66666667E-01  0.00000000E+00
                       2.50000000E-01  1.66666667E-01  0.00000000E+00
                       3.33333333E-01  1.66666667E-01  0.00000000E+00
                       4.16666667E-01  1.66666667E-01  0.00000000E+00
                       5.00000000E-01  1.66666667E-01  0.00000000E+00
                      -4.16666667E-01  1.66666667E-01  0.00000000E+00
                      -3.33333333E-01  1.66666667E-01  0.00000000E+00
                      -2.50000000E-01  1.66666667E-01  0.00000000E+00
                      -1.66666667E-01  1.66666667E-01  0.00000000E+00
                       2.50000000E-01  2.50000000E-01  0.00000000E+00
                       3.33333333E-01  2.50000000E-01  0.00000000E+00
                       4.16666667E-01  2.50000000E-01  0.00000000E+00
                       5.00000000E-01  2.50000000E-01  0.00000000E+00
                      -4.16666667E-01  2.50000000E-01  0.00000000E+00
                      -3.33333333E-01  2.50000000E-01  0.00000000E+00
                      -2.50000000E-01  2.50000000E-01  0.00000000E+00
                       3.33333333E-01  3.33333333E-01  0.00000000E+00
                       4.16666667E-01  3.33333333E-01  0.00000000E+00
                       5.00000000E-01  3.33333333E-01  0.00000000E+00
                      -4.16666667E-01  3.33333333E-01  0.00000000E+00
                      -3.33333333E-01  3.33333333E-01  0.00000000E+00
                       4.16666667E-01  4.16666667E-01  0.00000000E+00
                       5.00000000E-01  4.16666667E-01  0.00000000E+00
                      -4.16666667E-01  4.16666667E-01  0.00000000E+00
                       5.00000000E-01  5.00000000E-01  0.00000000E+00
                       8.33333333E-02  0.00000000E+00  8.33333333E-02
                       1.66666667E-01  0.00000000E+00  8.33333333E-02
                       2.50000000E-01  0.00000000E+00  8.33333333E-02
                       3.33333333E-01  0.00000000E+00  8.33333333E-02
                       4.16666667E-01  0.00000000E+00  8.33333333E-02
                       5.00000000E-01  0.00000000E+00  8.33333333E-02
                      -4.16666667E-01  0.00000000E+00  8.33333333E-02
                       outvar_i_n : Printing only first  50 k-points.
         kptrlatt       12    0    0      0   12    0      0    0   12
          kptrlen      1.70553342E+02
P           mkmem          41
            natom           9
            nband          42
            ngfft          60      60      60
             nkpt         163
            nstep        2500
             nsym          16
           ntypat           4
              occ      2.000000  2.000000  2.000000  2.000000  2.000000  2.000000
                       2.000000  2.000000  2.000000  2.000000  2.000000  2.000000
                       2.000000  2.000000  2.000000  2.000000  2.000000  2.000000
                       2.000000  2.000000  2.000000  2.000000  2.000000  2.000000
                       2.000000  2.000000  2.000000  2.000000  2.000000  2.000000
                       2.000000  2.000000  2.000000  2.000000  2.000000  2.000000
                       0.000000  0.000000  0.000000  0.000000  0.000000  0.000000
            rprim      0.0000000000E+00  7.0734003733E-01  7.0687344807E-01
                       7.0734003733E-01  0.0000000000E+00  7.0687344807E-01
                       7.0710678119E-01  7.0710678119E-01  0.0000000000E+00
          spgroup         139
           symrel      1  0  0   0  1  0   0  0  1      -1  0  0   0 -1  0   0  0 -1
                      -1  0  1   0 -1  1   0  0  1       1  0 -1   0  1 -1   0  0 -1
                       0  1 -1   1  0 -1   0  0 -1       0 -1  1  -1  0  1   0  0  1
                       0 -1  0  -1  0  0   0  0 -1       0  1  0   1  0  0   0  0  1
                       1  0  0   1  0 -1   1 -1  0      -1  0  0  -1  0  1  -1  1  0
                       0 -1  0   0 -1  1   1 -1  0       0  1  0   0  1 -1  -1  1  0
                       0  1 -1   0  1  0  -1  1  0       0 -1  1   0 -1  0   1 -1  0
                      -1  0  1  -1  0  0  -1  1  0       1  0 -1   1  0  0   1 -1  0
           toldfe      1.00000000E-08 Hartree
            typat      1  1  2  2  4  4  4  4  3
              wtk        0.00058    0.00463    0.00463    0.00463    0.00463    0.00463
                         0.00231    0.00116    0.00463    0.00463    0.00463    0.00463
                         0.00463    0.00463    0.00463    0.00463    0.00463    0.00231
                         0.00116    0.00463    0.00463    0.00463    0.00463    0.00463
                         0.00463    0.00463    0.00231    0.00116    0.00463    0.00463
                         0.00463    0.00463    0.00463    0.00231    0.00116    0.00463
                         0.00463    0.00463    0.00231    0.00116    0.00463    0.00231
                         0.00058    0.00231    0.00926    0.00926    0.00926    0.00926
                         0.00926    0.00926
                       outvars : Printing only first  50 k-points.
           xangst      2.6599799639E+00  2.6599799639E+00  2.6582253367E+00
                       7.9799398918E+00  7.9799398918E+00  7.9746760102E+00
                       5.3199599279E+00  5.3199599279E+00  2.8318924793E+00
                       5.3199599279E+00  5.3199599279E+00  7.8010088676E+00
                       8.0314800716E+00  5.3199599279E+00  5.3164506734E+00
                       5.3199599279E+00  8.0314800716E+00  5.3164506734E+00
                       5.3199599279E+00  2.6084397841E+00  5.3164506734E+00
                       2.6084397841E+00  5.3199599279E+00  5.3164506734E+00
                      -1.8855824658E-20 -3.6054405222E-20 -3.7196029527E-22
            xcart      5.0266336508E+00  5.0266336508E+00  5.0233178859E+00
                       1.5079900952E+01  1.5079900952E+01  1.5069953658E+01
                       1.0053267302E+01  1.0053267302E+01  5.3515012237E+00
                       1.0053267302E+01  1.0053267302E+01  1.4741770320E+01
                       1.5177297777E+01  1.0053267302E+01  1.0046635772E+01
                       1.0053267302E+01  1.5177297777E+01  1.0046635772E+01
                       1.0053267302E+01  4.9292368261E+00  1.0046635772E+01
                       4.9292368261E+00  1.0053267302E+01  1.0046635772E+01
                      -3.5632344614E-20 -6.8132951754E-20 -7.0290309037E-22
             xred      2.5000000000E-01  2.5000000000E-01  2.5000000000E-01
                       7.5000000000E-01  7.5000000000E-01  7.5000000000E-01
                       2.6633299670E-01  2.6633299670E-01  7.3366700330E-01
                       7.3366700330E-01  7.3366700330E-01  2.6633299670E-01
                       2.4515596165E-01  7.5484403835E-01  7.5484403835E-01
                       7.5484403835E-01  2.4515596165E-01  7.5484403835E-01
                       2.4515596165E-01  7.5484403835E-01  2.4515596165E-01
                       7.5484403835E-01  2.4515596165E-01  2.4515596165E-01
                      -1.6514021364E-21  1.5814381100E-21 -5.1257927506E-21
            znucl       55.00000   53.00000   40.00000   35.00000

 chkinp: Checking input parameters for consistency.

== DATASET  1 ==================================================================
-   mpi_nproc: 4, omp_nthreads: -1 (-1 if OMP is not activated)

--- !DatasetInfo
iteration_state: {dtset: 1, }
[...]
...

 Integrated electronic density in atomic spheres:
 Atom  Sphere_radius  Integrated_density
    1        2.00000          4.43938583
    2        2.00000          4.43938583
    3        2.00000          2.85269369
    4        2.00000          2.85269369
    5        2.00000          4.20000958
    6        2.00000          4.20000958
    7        2.00000          4.20000958
    8        2.00000          4.20000958
    9        2.00000          8.26056576

 ----iterations are completed or convergence reached----

 Mean square residual over all n,k,spin=   27.876E-07; max=  19.114E-04
 reduced coordinates (array xred) for    9 atoms
       0.250000000000      0.250000000000      0.250000000000
       0.750000000000      0.750000000000      0.750000000000
       0.266332996700      0.266332996700      0.733667003300
       0.733667003300      0.733667003300      0.266332996700
       0.245155961650      0.754844038350      0.754844038350
       0.754844038350      0.245155961650      0.754844038350
       0.245155961650      0.754844038350      0.245155961650
       0.754844038350      0.245155961650      0.245155961650
      -0.000000000000      0.000000000000     -0.000000000000
 rms dE/dt=  1.0049E-02; max dE/dt=  1.7666E-02; dE/dt below (all hartree)
    1      -0.000000000000      0.000000000000      0.000000000000
    2       0.000000000000     -0.000000000000      0.000000000000
    3       0.007574711055      0.007574711055      0.000000000000
    4      -0.007574711055     -0.007574711055      0.000000000000
    5       0.000000000000     -0.017666475317     -0.017666475317
    6      -0.017666475317      0.000000000000     -0.017666475317
    7       0.017666475317      0.000000000000      0.017666475317
    8      -0.000000000000      0.017666475317      0.017666475317
    9       0.000000000000      0.000000000000      0.000000000000

 cartesian coordinates (angstrom) at end:
    1      2.65997996393770     2.65997996393770     2.65822533672379
    2      7.97993989181310     7.97993989181311     7.97467601017136
    3      5.31995992787012     5.31995992787012     2.83189247933405
    4      5.31995992788069     5.31995992788069     7.80100886756109
    5      8.03148007163529     5.31995992786964     5.31645067344757
    6      5.31995992786964     8.03148007163529     5.31645067344757
    7      5.31995992788117     2.60843978411552     5.31645067344757
    8      2.60843978411552     5.31995992788117     5.31645067344757
    9     -0.00000000000000    -0.00000000000000    -0.00000000000000

 cartesian forces (hartree/bohr) at end:
    1      0.00000000000000    -0.00000000000000     0.00000000000000
    2      0.00000000000000    -0.00000000000000     0.00000000000000
    3      0.00000000000000    -0.00000000000000    -0.00075395497822
    4      0.00000000000000    -0.00000000000000     0.00075395497822
    5      0.00175728693838     0.00000000000000    -0.00000000000000
    6      0.00000000000000     0.00175728693838    -0.00000000000000
    7     -0.00000000000000    -0.00175728693838     0.00000000000000
    8     -0.00175728693838    -0.00000000000000     0.00000000000000
    9      0.00000000000000    -0.00000000000000     0.00000000000000
 frms,max,avg= 7.0682194E-04 1.7572869E-03   0.000E+00  0.000E+00  0.000E+00 h/b

 cartesian forces (eV/Angstrom) at end:
    1      0.00000000000000    -0.00000000000000     0.00000000000000
    2      0.00000000000000    -0.00000000000000     0.00000000000000
    3      0.00000000000000    -0.00000000000000    -0.03876992053427
    4      0.00000000000000    -0.00000000000000     0.03876992053427
    5      0.09036331999202     0.00000000000019    -0.00000000000019
    6      0.00000000000019     0.09036331999202    -0.00000000000019
    7     -0.00000000000019    -0.09036331999202     0.00000000000019
    8     -0.09036331999202    -0.00000000000019     0.00000000000019
    9      0.00000000000000    -0.00000000000000     0.00000000000000
 frms,max,avg= 3.6346242E-02 9.0363320E-02   0.000E+00  0.000E+00  0.000E+00 e/A
 length scales= 14.212778538000 14.212778538000 14.217466964000 bohr
              =  7.521078473047  7.521078473047  7.523559481230 angstroms
 prteigrs : about to open file Cs2TiI6o_EIG
 Fermi (or HOMO) energy (hartree) =   0.09952   Average Vxc (hartree)=  -0.33950
 Eigenvalues (hartree) for nkpt= 163  k points:
 kpt#   1, nband= 42, wtk=  0.00058, kpt=  0.0000  0.0000  0.0000 (reduced coord)
  -1.70928   -0.89854   -0.89854   -0.89674   -0.63547   -0.63473   -0.42156   -0.40624
  -0.40624   -0.40595   -0.31709   -0.31359   -0.16478   -0.16478   -0.16254   -0.15776
  -0.15776   -0.15642   -0.06194   -0.00517   -0.00447   -0.00447   -0.00157   -0.00104
   0.00112    0.00112    0.02849    0.04190    0.05205    0.05205    0.07492    0.08862
   0.08862    0.09482    0.09952    0.09952    0.16749    0.16749    0.17435    0.25089
   0.25681    0.25724
 prteigrs : prtvol=0 or 1, do not print more k-points.

--- !EnergyTerms
iteration_state     : {dtset: 1, }
comment             : Components of total free energy in Hartree
kinetic             :  4.82756766816603E+01
hartree             :  3.02177113549324E+01
xc                  : -5.29086672621765E+01
Ewald energy        : -1.31252519869601E+02
psp_core            :  5.29569790841335E+00
local_psp           : -1.11232223268711E+02
non_local_psp       :  2.45953178273191E+01
total_energy        : -1.87009006628163E+02
...

--- !EnergyTermsDC
iteration_state     : {dtset: 1, }
comment             : '"Double-counting" decomposition of free energy'
band_energy         : -1.67697733659513E+01
Ewald energy        : -1.31252519869601E+02
psp_core            :  5.29569790841335E+00
xc_dc               : -4.42824321724123E+01
total_energy_dc     : -1.87009027499552E+02
...

 Cartesian components of stress tensor (hartree/bohr^3)
  sigma(1 1)= -7.08909685E-04  sigma(3 2)= -4.03919962E-15
  sigma(2 2)= -7.08909685E-04  sigma(3 1)= -4.03893705E-15
  sigma(3 3)= -7.13218699E-04  sigma(2 1)=  8.07248166E-15

-Cartesian components of stress tensor (GPa)         [Pressure=  2.0899E+01 GPa]
- sigma(1 1)= -2.08568395E+01  sigma(3 2)= -1.18837336E-10
- sigma(2 2)= -2.08568395E+01  sigma(3 1)= -1.18829611E-10
- sigma(3 3)= -2.09836151E+01  sigma(2 1)=  2.37500570E-10

== END DATASET(S) ==============================================================

 -outvars: echo values of variables after computation  --------
            acell      1.4212778538E+01  1.4212778538E+01  1.4217466964E+01 Bohr
              amu      1.32905430E+02  1.26904470E+02  9.12240000E+01
                       7.99040000E+01
           diemac      1.20000000E+01
             ecut      2.00000000E+01 Hartree
           etotal     -1.8700902750E+02
            fcart      2.4093381520E-20 -3.1646825225E-20  4.3278615163E-20
                       2.4093381676E-20 -3.1646825381E-20  4.3278615057E-20
                       4.2915783390E-20 -5.0469227095E-20 -7.5395497822E-04
                       5.9481088456E-20 -6.7034532161E-20  7.5395497822E-04
                       1.7572869384E-03  3.7357999309E-15 -3.7382178787E-15
                       3.7354662775E-15  1.7572869384E-03 -3.7378283712E-15
                      -3.7354180907E-15 -1.7572869384E-03  3.7379149284E-15
                      -1.7572869384E-03 -3.7354738309E-15  3.7379149284E-15
                       2.4093381611E-20 -3.1646825316E-20  4.3278615082E-20
-          fftalg         112
             iscf          17
           istwfk        2    0    0    0    0    0    3    0    0    0
                         0    0    0    0    0    0    0    0    0    0
                         0    0    0    0    0    0    0    0    0    0
                         0    0    0    0    0    0    0    0    0    0
                         0    0    7    0    0    0    0    0    0    0
                       outvar_i_n : Printing only first  50 k-points.
              ixc          32
              kpt      0.00000000E+00  0.00000000E+00  0.00000000E+00
                       8.33333333E-02  0.00000000E+00  0.00000000E+00
                       1.66666667E-01  0.00000000E+00  0.00000000E+00
                       2.50000000E-01  0.00000000E+00  0.00000000E+00
                       3.33333333E-01  0.00000000E+00  0.00000000E+00
                       4.16666667E-01  0.00000000E+00  0.00000000E+00
                       5.00000000E-01  0.00000000E+00  0.00000000E+00
                       8.33333333E-02  8.33333333E-02  0.00000000E+00
                       1.66666667E-01  8.33333333E-02  0.00000000E+00
                       2.50000000E-01  8.33333333E-02  0.00000000E+00
                       3.33333333E-01  8.33333333E-02  0.00000000E+00
                       4.16666667E-01  8.33333333E-02  0.00000000E+00
                       5.00000000E-01  8.33333333E-02  0.00000000E+00
                      -4.16666667E-01  8.33333333E-02  0.00000000E+00
                      -3.33333333E-01  8.33333333E-02  0.00000000E+00
                      -2.50000000E-01  8.33333333E-02  0.00000000E+00
                      -1.66666667E-01  8.33333333E-02  0.00000000E+00
                      -8.33333333E-02  8.33333333E-02  0.00000000E+00
                       1.66666667E-01  1.66666667E-01  0.00000000E+00
                       2.50000000E-01  1.66666667E-01  0.00000000E+00
                       3.33333333E-01  1.66666667E-01  0.00000000E+00
                       4.16666667E-01  1.66666667E-01  0.00000000E+00
                       5.00000000E-01  1.66666667E-01  0.00000000E+00
                      -4.16666667E-01  1.66666667E-01  0.00000000E+00
                      -3.33333333E-01  1.66666667E-01  0.00000000E+00
                      -2.50000000E-01  1.66666667E-01  0.00000000E+00
                      -1.66666667E-01  1.66666667E-01  0.00000000E+00
                       2.50000000E-01  2.50000000E-01  0.00000000E+00
                       3.33333333E-01  2.50000000E-01  0.00000000E+00
                       4.16666667E-01  2.50000000E-01  0.00000000E+00
                       5.00000000E-01  2.50000000E-01  0.00000000E+00
                      -4.16666667E-01  2.50000000E-01  0.00000000E+00
                      -3.33333333E-01  2.50000000E-01  0.00000000E+00
                      -2.50000000E-01  2.50000000E-01  0.00000000E+00
                       3.33333333E-01  3.33333333E-01  0.00000000E+00
                       4.16666667E-01  3.33333333E-01  0.00000000E+00
                       5.00000000E-01  3.33333333E-01  0.00000000E+00
                      -4.16666667E-01  3.33333333E-01  0.00000000E+00
                      -3.33333333E-01  3.33333333E-01  0.00000000E+00
                       4.16666667E-01  4.16666667E-01  0.00000000E+00
                       5.00000000E-01  4.16666667E-01  0.00000000E+00
                      -4.16666667E-01  4.16666667E-01  0.00000000E+00
                       5.00000000E-01  5.00000000E-01  0.00000000E+00
                       8.33333333E-02  0.00000000E+00  8.33333333E-02
                       1.66666667E-01  0.00000000E+00  8.33333333E-02
                       2.50000000E-01  0.00000000E+00  8.33333333E-02
                       3.33333333E-01  0.00000000E+00  8.33333333E-02
                       4.16666667E-01  0.00000000E+00  8.33333333E-02
                       5.00000000E-01  0.00000000E+00  8.33333333E-02
                      -4.16666667E-01  0.00000000E+00  8.33333333E-02
                       outvar_i_n : Printing only first  50 k-points.
         kptrlatt       12    0    0      0   12    0      0    0   12
          kptrlen      1.70553342E+02
P           mkmem          41
            natom           9
            nband          42
            ngfft          60      60      60
             nkpt         163
            nstep        2500
             nsym          16
           ntypat           4
              occ      2.000000  2.000000  2.000000  2.000000  2.000000  2.000000
                       2.000000  2.000000  2.000000  2.000000  2.000000  2.000000
                       2.000000  2.000000  2.000000  2.000000  2.000000  2.000000
                       2.000000  2.000000  2.000000  2.000000  2.000000  2.000000
                       2.000000  2.000000  2.000000  2.000000  2.000000  2.000000
                       2.000000  2.000000  2.000000  2.000000  2.000000  2.000000
                       0.000000  0.000000  0.000000  0.000000  0.000000  0.000000
            rprim      0.0000000000E+00  7.0734003733E-01  7.0687344807E-01
                       7.0734003733E-01  0.0000000000E+00  7.0687344807E-01
                       7.0710678119E-01  7.0710678119E-01  0.0000000000E+00
          spgroup         139
           strten     -7.0890968530E-04 -7.0890968530E-04 -7.1321869935E-04
                      -4.0391996150E-15 -4.0389370492E-15  8.0724816624E-15
           symrel      1  0  0   0  1  0   0  0  1      -1  0  0   0 -1  0   0  0 -1
                      -1  0  1   0 -1  1   0  0  1       1  0 -1   0  1 -1   0  0 -1
                       0  1 -1   1  0 -1   0  0 -1       0 -1  1  -1  0  1   0  0  1
                       0 -1  0  -1  0  0   0  0 -1       0  1  0   1  0  0   0  0  1
                       1  0  0   1  0 -1   1 -1  0      -1  0  0  -1  0  1  -1  1  0
                       0 -1  0   0 -1  1   1 -1  0       0  1  0   0  1 -1  -1  1  0
                       0  1 -1   0  1  0  -1  1  0       0 -1  1   0 -1  0   1 -1  0
                      -1  0  1  -1  0  0  -1  1  0       1  0 -1   1  0  0   1 -1  0
           toldfe      1.00000000E-08 Hartree
            typat      1  1  2  2  4  4  4  4  3
              wtk        0.00058    0.00463    0.00463    0.00463    0.00463    0.00463
                         0.00231    0.00116    0.00463    0.00463    0.00463    0.00463
                         0.00463    0.00463    0.00463    0.00463    0.00463    0.00231
                         0.00116    0.00463    0.00463    0.00463    0.00463    0.00463
                         0.00463    0.00463    0.00231    0.00116    0.00463    0.00463
                         0.00463    0.00463    0.00463    0.00231    0.00116    0.00463
                         0.00463    0.00463    0.00231    0.00116    0.00463    0.00231
                         0.00058    0.00231    0.00926    0.00926    0.00926    0.00926
                         0.00926    0.00926
                       outvars : Printing only first  50 k-points.
           xangst      2.6599799639E+00  2.6599799639E+00  2.6582253367E+00
                       7.9799398918E+00  7.9799398918E+00  7.9746760102E+00
                       5.3199599279E+00  5.3199599279E+00  2.8318924793E+00
                       5.3199599279E+00  5.3199599279E+00  7.8010088676E+00
                       8.0314800716E+00  5.3199599279E+00  5.3164506734E+00
                       5.3199599279E+00  8.0314800716E+00  5.3164506734E+00
                       5.3199599279E+00  2.6084397841E+00  5.3164506734E+00
                       2.6084397841E+00  5.3199599279E+00  5.3164506734E+00
                      -1.8855824658E-20 -3.6054405222E-20 -3.7196029527E-22
            xcart      5.0266336508E+00  5.0266336508E+00  5.0233178859E+00
                       1.5079900952E+01  1.5079900952E+01  1.5069953658E+01
                       1.0053267302E+01  1.0053267302E+01  5.3515012237E+00
                       1.0053267302E+01  1.0053267302E+01  1.4741770320E+01
                       1.5177297777E+01  1.0053267302E+01  1.0046635772E+01
                       1.0053267302E+01  1.5177297777E+01  1.0046635772E+01
                       1.0053267302E+01  4.9292368261E+00  1.0046635772E+01
                       4.9292368261E+00  1.0053267302E+01  1.0046635772E+01
                      -3.5632344614E-20 -6.8132951754E-20 -7.0290309037E-22
             xred      2.5000000000E-01  2.5000000000E-01  2.5000000000E-01
                       7.5000000000E-01  7.5000000000E-01  7.5000000000E-01
                       2.6633299670E-01  2.6633299670E-01  7.3366700330E-01
                       7.3366700330E-01  7.3366700330E-01  2.6633299670E-01
                       2.4515596165E-01  7.5484403835E-01  7.5484403835E-01
                       7.5484403835E-01  2.4515596165E-01  7.5484403835E-01
                       2.4515596165E-01  7.5484403835E-01  2.4515596165E-01
                       7.5484403835E-01  2.4515596165E-01  2.4515596165E-01
                      -1.6514021364E-21  1.5814381100E-21 -5.1257927506E-21
            znucl       55.00000   53.00000   40.00000   35.00000

- Timing analysis has been suppressed with timopt=0

 Suggested references for the acknowledgment of ABINIT usage.

 Calculation completed.
.Delivered   0 WARNINGs and   0 COMMENTs to log file.