.Version 9.2.2 of ABINIT

 ABINIT is a project of the Universite Catholique de Louvain,
 Corning Inc. and other collaborators, see ~abinit/doc/developers/contributors.txt .
 acknowledgments of the ABINIT effort.

.Starting date : Thu 20 Jul 2023.
- ( at 13h43 )

- The starting date is more than 2 years after the initial release
- of this version of ABINIT, namely Nov 2020.
- Note that the use beyond 3 years after the release will not be supported.
- Action: please, switch to a more recent version of ABINIT.

- input  file    -> Cs2TiI6.in
- output file    -> Cs2TiI6.out
- root for input  files -> Cs2TiI6i
- root for output files -> Cs2TiI6o

 Symmetries : space group I4 m m (#107); Bravais tI (body-center tetrag.)
     intxc =       0    ionmov =       0      iscf =      17    lmnmax =       8
     lnmax =       8     mgfft =      60  mpssoang =       4    mqgrid =    3001
     natom =       9  nloc_mem =       1    nspden =       1   nspinor =       1
    nsppol =       1      nsym =       8    n1xccc =    2501    ntypat =       4
    occopt =       1   xclevel =       2
-    mband =          42        mffmem =           1         mkmem =           1
       mpw =        9808          nfft =      216000          nkpt =           4
  Rough estimation (10% accuracy) of disk space for files :

------------- Echo of variables that govern the present computation ------------
-
- outvars: echo of selected default values
-   iomode0 =  0 , fftalg0 =112 , wfoptalg0 =  0
-
- outvars: echo of global parameters not present in the input file
-  max_nthreads =    0
-
 -outvars: echo values of preprocessed input variables --------
            acell      1.4744947763E+01  1.4899098069E+01  1.4744947763E+01 Bohr
              amu      1.32905430E+02  1.26904470E+02  1.78490000E+02
                       3.54527000E+01
           diemac      1.20000000E+01
             ecut      2.00000000E+01 Hartree
-          fftalg         112
             iscf          17
           istwfk        1    1    1    1
              ixc        -428
              kpt      0.00000000E+00  0.00000000E+00  0.00000000E+00
                       5.00000000E-01  0.00000000E+00  0.00000000E+00
                       5.00000000E-01  5.00000000E-01  0.00000000E+00
                       5.00000000E-01  0.00000000E+00  5.00000000E-01
         kptns_hf      0.00000000E+00  0.00000000E+00  0.00000000E+00
                       5.00000000E-01  0.00000000E+00  0.00000000E+00
                       0.00000000E+00  5.00000000E-01  0.00000000E+00
                       5.00000000E-01  5.00000000E-01  0.00000000E+00
                       0.00000000E+00  0.00000000E+00  5.00000000E-01
                       5.00000000E-01  0.00000000E+00  5.00000000E-01
                       0.00000000E+00  5.00000000E-01  5.00000000E-01
                       5.00000000E-01  5.00000000E-01  5.00000000E-01
         kptrlatt        2    0    0      0    2    0      0    0    2
          kptrlen      2.94898955E+01
P           mkmem           1
            natom           9
            nband          42
          nbandhf          36
            ngfft          60      60      60
             nkpt           4
           nkpthf           8
-           npkpt           4
            nstep        2500
             nsym           8
           ntypat           4
              occ      2.000000  2.000000  2.000000  2.000000  2.000000  2.000000
                       2.000000  2.000000  2.000000  2.000000  2.000000  2.000000
                       2.000000  2.000000  2.000000  2.000000  2.000000  2.000000
                       2.000000  2.000000  2.000000  2.000000  2.000000  2.000000
                       2.000000  2.000000  2.000000  2.000000  2.000000  2.000000
                       2.000000  2.000000  2.000000  2.000000  2.000000  2.000000
                       0.000000  0.000000  0.000000  0.000000  0.000000  0.000000
            rprim      0.0000000000E+00  6.9963626486E-01  7.1449919306E-01
                       7.0710678119E-01  0.0000000000E+00  7.0710678119E-01
                       7.1449919306E-01  6.9963626486E-01  0.0000000000E+00
          spgroup         107
           symrel      1  0  0   0  1  0   0  0  1       0  0  1   0  1  0   1  0  0
                       0 -1  1   0 -1  0   1 -1  0       1 -1  0   0 -1  0   0 -1  1
                       0 -1  1  -1  0  1   0  0  1       0  0  1  -1  0  1   0 -1  1
                       1  0  0   1  0 -1   1 -1  0       1 -1  0   1  0 -1   1  0  0
           toldfe      1.00000000E-08 Hartree
            typat      1  1  2  4  4  4  4  4  3
          usefock           1
              wtk        0.12500    0.50000    0.25000    0.12500
           xangst      2.7875079608E+00  2.8021733916E+00  2.7875079608E+00
                       8.3625238824E+00  8.2612184876E+00  8.3625238824E+00
                       5.5750159216E+00  8.0804042496E+00  5.5750159216E+00
                       5.5750159216E+00  5.4806779191E+00  2.4602376399E+00
                       5.5750159216E+00  5.4806779191E+00  8.6897942033E+00
                       5.5750159216E+00  2.5258673724E+00  5.5750159216E+00
                       8.6897942033E+00  5.4806779191E+00  5.5750159216E+00
                       2.4602376399E+00  5.4806779191E+00  5.5750159216E+00
                       6.6144664890E-13  7.9985590107E-02  6.6144664890E-13
            xcart      5.2676266391E+00  5.2953402870E+00  5.2676266391E+00
                       1.5802879917E+01  1.5611440465E+01  1.5802879917E+01
                       1.0535253278E+01  1.5269751075E+01  1.0535253278E+01
                       1.0535253278E+01  1.0356980290E+01  4.6491753612E+00
                       1.0535253278E+01  1.0356980290E+01  1.6421331195E+01
                       1.0535253278E+01  4.7731975819E+00  1.0535253278E+01
                       1.6421331195E+01  1.0356980290E+01  1.0535253278E+01
                       4.6491753612E+00  1.0356980290E+01  1.0535253278E+01
                       1.2499530179E-12  1.5115085988E-01  1.2499530179E-12
             xred      2.5665417141E-01  2.4334582859E-01  2.5665417141E-01
                       7.5665417141E-01  7.4334582859E-01  7.5665417141E-01
                       7.4009319465E-01  2.5990680535E-01  7.4009319465E-01
                       2.2262985982E-01  2.1866711125E-01  7.8133288875E-01
                       7.8133288875E-01  7.7737014018E-01  2.2262985982E-01
                       2.3134699641E-01  7.6865300359E-01  2.3134699641E-01
                       2.2262985982E-01  7.7737014018E-01  7.8133288875E-01
                       7.8133288875E-01  2.1866711125E-01  2.2262985982E-01
                       7.3259689837E-03 -7.3259689837E-03  7.3259689837E-03
            znucl       55.00000   53.00000   72.00000   17.00000

 chkinp: Checking input parameters for consistency.

== DATASET  1 ==================================================================
-   mpi_nproc: 4, omp_nthreads: -1 (-1 if OMP is not activated)

--- !DatasetInfo
iteration_state: {dtset: 1, }
dimensions: {natom: 9, nkpt: 4, mband: 42, nsppol: 1, nspinor: 1, nspden: 1, mpw: 9808, }
cutoff_energies: {ecut:  20.0, pawecutdg:  -1.0, }
electrons: {nelect:   7.20000000E+01, charge:   0.00000000E+00, occopt:   1.00000000E+00, tsmear:   1.00000000E-02, }
meta: {optdriver: 0, ionmov: 0, optcell: 0, iscf: 17, paral_kgb: 0, }
...

 Real(R)+Recip(G) space primitive vectors, cartesian coordinates (Bohr,Bohr^-1):
 R(1)=  0.0000000 10.3161002 10.5352533  G(1)= -0.0474597  0.0484679  0.0474597
 R(2)= 10.5352533  0.0000000 10.5352533  G(2)=  0.0474597 -0.0484679  0.0474597
 R(3)= 10.5352533 10.3161002  0.0000000  G(3)=  0.0474597  0.0484679 -0.0474597
 Unit cell volume ucvol=  2.2900001E+03 bohr^3
 Angles (23,13,12)=  5.96535628E+01  6.06928744E+01  5.96535628E+01 degrees

 getcut: wavevector=  0.0000  0.0000  0.0000  ngfft=  60  60  60
         ecut(hartree)=     20.000   => boxcut(ratio)=   2.00037

--- Pseudopotential description ------------------------------------------------
- pspini: atom type   1  psp file is ../../../Psps_for_tests/ONCVPSP-PBE-PDv0.4/Cs-sp.psp8
- pspatm: opening atomic psp file    ../../../Psps_for_tests/ONCVPSP-PBE-PDv0.4/Cs-sp.psp8
- Cs    ONCVPSP-3.2.3.1  r_core=   2.27353   1.85623   2.01788   1.90105
- 55.00000   9.00000    170703                znucl, zion, pspdat
    8   32    3    4       600   0.00000      pspcod,pspxc,lmax,lloc,mmax,r2well
    5.99000000000000    5.00000000000000    0.00000000000000   rchrg,fchrg,qchrg
     nproj     2     2     2     2
     extension_switch     1
  pspatm : epsatm=   22.81663475
         --- l  ekb(1:nproj) -->
             0    6.176104    0.756334
             1    6.263084    0.786397
             2    3.737592    0.906929
             3   -9.272327   -2.535859
 pspatm: atomic psp has been read  and splines computed

- pspini: atom type   2  psp file is ../../../Psps_for_tests/ONCVPSP-PBE-PDv0.4/I.psp8
- pspatm: opening atomic psp file    ../../../Psps_for_tests/ONCVPSP-PBE-PDv0.4/I.psp8
- I     ONCVPSP-3.2.3.1  r_core=   2.02042   2.17032   2.27639
- 53.00000   7.00000    170510                znucl, zion, pspdat
    8   32    2    4       600   0.00000      pspcod,pspxc,lmax,lloc,mmax,r2well
    5.99000000000000    4.00000000000000    0.00000000000000   rchrg,fchrg,qchrg
     nproj     2     2     2
     extension_switch     1
  pspatm : epsatm=   19.17050482
         --- l  ekb(1:nproj) -->
             0    5.955518    0.916455
             1    4.011347    0.742302
             2    4.134838    0.711910
 pspatm: atomic psp has been read  and splines computed

- pspini: atom type   3  psp file is ../../../Psps_for_tests/ONCVPSP-PBE-PDv0.4/Hf-sp.psp8
- pspatm: opening atomic psp file    ../../../Psps_for_tests/ONCVPSP-PBE-PDv0.4/Hf-sp.psp8
- Hf    ONCVPSP-3.2.3.1  r_core=   1.71613   1.71613   1.71613   2.42541
- 72.00000  12.00000    170501                znucl, zion, pspdat
    8   32    3    4       600   0.00000      pspcod,pspxc,lmax,lloc,mmax,r2well
    5.99000000000000    5.40000000000000    0.00000000000000   rchrg,fchrg,qchrg
     nproj     2     2     2     2
     extension_switch     1
  pspatm : epsatm=   21.94432712
         --- l  ekb(1:nproj) -->
             0    5.751490   -0.631383
             1   -2.986358    2.305386
             2    1.422276    0.146986
             3    8.827595    0.343102
 pspatm: atomic psp has been read  and splines computed

- pspini: atom type   4  psp file is ../../../Psps_for_tests/ONCVPSP-PBE-PDv0.4/Cl.psp8
- pspatm: opening atomic psp file    ../../../Psps_for_tests/ONCVPSP-PBE-PDv0.4/Cl.psp8
- Cl    ONCVPSP-3.2.3.1  r_core=   1.56009   1.35202   1.75774
- 17.00000   7.00000    170504                znucl, zion, pspdat
    8   32    2    4       600   0.00000      pspcod,pspxc,lmax,lloc,mmax,r2well
    5.99000000000000    8.00000000000000    0.00000000000000   rchrg,fchrg,qchrg
     nproj     2     2     2
     extension_switch     1
  pspatm : epsatm=    9.12776994
         --- l  ekb(1:nproj) -->
             0    8.139296    0.698720
             1    3.821713    1.107519
             2   -2.938609   -0.805455
 pspatm: atomic psp has been read  and splines computed

   9.53186048E+03                                ecore*ucvol(ha*bohr**3)

_setup2: Arith. and geom. avg. npw (full set) are    9772.625    9772.602

--- !BeginCycle
iteration_state: {dtset: 1, }
solver: {iscf: 17, nstep: 2500, nline: 4, wfoptalg: 0, }
tolerances: {toldfe: 1.00E-08, }
...

     iter   Etot(hartree)      deltaE(h)  residm     nres2
 ETOT  1  -192.98308432539    -1.930E+02 1.867E-02 3.154E+00
 ETOT  2  -198.77550398889    -5.792E+00 7.374E-03 3.344E+00
 ETOT  3  -198.76614624971     9.358E-03 2.886E-03 1.100E+00
 ETOT  4  -198.74596630755     2.018E-02 3.782E-03 3.379E-02
 ETOT  5  -198.74813215894    -2.166E-03 9.033E-04 2.187E-02
 ETOT  6  -198.74815965739    -2.750E-05 4.870E-04 3.559E-03
 ETOT  7  -198.74810967759     4.998E-05 3.553E-04 4.690E-04
 ETOT  8  -198.74811283079    -3.153E-06 7.468E-04 9.069E-05
 ETOT  9  -198.74811294901    -1.182E-07 5.509E-04 1.153E-05
 ETOT 10  -198.74811299595    -4.695E-08 5.819E-04 6.694E-07
 ETOT 11  -198.74811287504     1.209E-07 2.702E-04 1.821E-07
 ETOT 12  -198.74811287538    -3.462E-10 1.861E-04 1.125E-07
 ETOT 13  -198.74811287397     1.407E-09 1.203E-04 7.657E-09

 At SCF step   13, etot is converged :
  for the second time, diff in etot=  1.407E-09 < toldfe=  1.000E-08

 Cartesian components of stress tensor (hartree/bohr^3)
  sigma(1 1)=  4.21327246E-05  sigma(3 2)= -1.53794619E-14
  sigma(2 2)=  3.98611783E-05  sigma(3 1)=  3.01183270E-14
  sigma(3 3)=  4.21327246E-05  sigma(2 1)= -1.53792457E-14

--- !ResultsGS
iteration_state: {dtset: 1, }
comment   : Summary of ground state results
lattice_vectors:
- [  0.0000000,  10.3161002,  10.5352533, ]
- [ 10.5352533,   0.0000000,  10.5352533, ]
- [ 10.5352533,  10.3161002,   0.0000000, ]
lattice_lengths: [  14.74495,   14.89910,   14.74495, ]
lattice_angles: [ 59.654,  60.693,  59.654, ] # degrees, (23, 13, 12)
lattice_volume:   2.2900001E+03
convergence: {deltae:  1.407E-09, res2:  7.657E-09, residm:  1.203E-04, diffor: null, }
etotal    :  -1.98748113E+02
entropy   :   0.00000000E+00
fermie    :  -3.47863424E-03
cartesian_stress_tensor: # hartree/bohr^3
- [  4.21327246E-05,  -1.53792457E-14,   3.01183270E-14, ]
- [ -1.53792457E-14,   3.98611783E-05,  -1.53794619E-14, ]
- [  3.01183270E-14,  -1.53794619E-14,   4.21327246E-05, ]
pressure_GPa:  -1.2173E+00
xred      :
- [  2.5665E-01,   2.4335E-01,   2.5665E-01, Cs]
- [  7.5665E-01,   7.4335E-01,   7.5665E-01, Cs]
- [  7.4009E-01,   2.5991E-01,   7.4009E-01,  I]
- [  2.2263E-01,   2.1867E-01,   7.8133E-01, Cl]
- [  7.8133E-01,   7.7737E-01,   2.2263E-01, Cl]
- [  2.3135E-01,   7.6865E-01,   2.3135E-01, Cl]
- [  2.2263E-01,   7.7737E-01,   7.8133E-01, Cl]
- [  7.8133E-01,   2.1867E-01,   2.2263E-01, Cl]
- [  7.3260E-03,  -7.3260E-03,   7.3260E-03, Hf]
cartesian_forces: # hartree/bohr
- [ -4.64510997E-20,   1.23622928E-06,   5.66766096E-21, ]
- [ -4.13055083E-20,   1.23622928E-06,   5.22069563E-22, ]
- [ -9.07479713E-20,   1.69451349E-03,   4.99645325E-20, ]
- [ -2.26152766E-14,   1.71576280E-04,  -2.79286231E-03, ]
- [  2.26153617E-14,   1.71576280E-04,   2.79286231E-03, ]
- [  5.12650173E-20,  -3.13931128E-03,  -9.20484561E-20, ]
- [  2.79286231E-03,   1.71576280E-04,   2.26153189E-14, ]
- [ -2.79286231E-03,   1.71576280E-04,  -2.26152802E-14, ]
- [ -7.22294152E-20,   7.56020208E-04,   3.14459765E-20, ]
force_length_stats: {min:   1.23622928E-06, max:   3.13931128E-03, mean:   1.86498089E-03, }
...

 Integrated electronic density in atomic spheres:
 Atom  Sphere_radius  Integrated_density
    1        2.00000          4.49446352
    2        2.00000          4.49446352
    3        2.00000          2.90421535
    4        2.00000          5.09330612
    5        2.00000          5.09330612
    6        2.00000          5.07916614
    7        2.00000          5.09330612
    8        2.00000          5.09330612
    9        2.00000          8.23405964

 ----iterations are completed or convergence reached----

 Mean square residual over all n,k,spin=   14.604E-07; max=  12.031E-05
 reduced coordinates (array xred) for    9 atoms
       0.256654171410      0.243345828590      0.256654171410
       0.756654171410      0.743345828590      0.756654171410
       0.740093194650      0.259906805350      0.740093194650
       0.222629859820      0.218667111250      0.781332888750
       0.781332888750      0.777370140180      0.222629859820
       0.231346996410      0.768653003590      0.231346996410
       0.222629859820      0.777370140180      0.781332888750
       0.781332888750      0.218667111250      0.222629859820
       0.007325968984     -0.007325968984      0.007325968984
 rms dE/dt=  1.9036E-02; max dE/dt=  3.2785E-02; dE/dt below (all hartree)
    1       0.000386927710      0.000000000000      0.000386927710
    2       0.000386927710      0.000000000000      0.000386927710
    3      -0.017081090189      0.000000000000     -0.017081090189
    4       0.028053194532      0.029423511849     -0.001370317317
    5      -0.030793829166     -0.029423511849     -0.001370317317
    6       0.032785130441      0.000000000000      0.032785130441
    7      -0.001370317317     -0.029423511849     -0.030793829166
    8      -0.001370317317      0.029423511849      0.028053194532
    9      -0.007399499426      0.000000000000     -0.007399499426

 cartesian coordinates (angstrom) at end:
    1      2.78750796079769     2.80217339159348     2.78750796079769
    2      8.36252388239186     8.26121848756634     8.36252388239186
    3      5.57501592161585     8.08040424963395     5.57501592161585
    4      5.57501592161957     5.48067791912050     2.46023763986671
    5      5.57501592156913     5.48067791912050     8.68979420332199
    6      5.57501592156992     2.52586737244012     5.57501592156992
    7      8.68979420332199     5.48067791912050     5.57501592156913
    8      2.46023763986671     5.48067791912050     5.57501592161957
    9      0.00000000000066     0.07998559010743     0.00000000000066

 cartesian forces (hartree/bohr) at end:
    1     -0.00000000000000     0.00000123622928     0.00000000000000
    2     -0.00000000000000     0.00000123622928     0.00000000000000
    3     -0.00000000000000     0.00169451349463     0.00000000000000
    4     -0.00000000000002     0.00017157627998    -0.00279286231398
    5      0.00000000000002     0.00017157627994     0.00279286231398
    6      0.00000000000000    -0.00313931128093    -0.00000000000000
    7      0.00279286231398     0.00017157627994     0.00000000000002
    8     -0.00279286231398     0.00017157627998    -0.00000000000002
    9     -0.00000000000000     0.00075602020790     0.00000000000000
 frms,max,avg= 1.2854786E-03 3.1393113E-03   0.000E+00 -3.874E-05  0.000E+00 h/b

 cartesian forces (eV/Angstrom) at end:
    1     -0.00000000000000     0.00006356946009     0.00000000000000
    2     -0.00000000000000     0.00006356946009     0.00000000000000
    3     -0.00000000000000     0.08713538000088     0.00000000000000
    4     -0.00000000000116     0.00882280631166    -0.14361474239690
    5      0.00000000000116     0.00882280630928     0.14361474239690
    6      0.00000000000000    -0.16142986306800    -0.00000000000000
    7      0.14361474239690     0.00882280630928     0.00000000000116
    8     -0.14361474239690     0.00882280631166    -0.00000000000116
    9     -0.00000000000000     0.03887611890507     0.00000000000000
 frms,max,avg= 6.6101964E-02 1.6142986E-01   0.000E+00 -1.992E-03  0.000E+00 e/A
 length scales= 14.744947763000 14.899098069000 14.744947763000 bohr
              =  7.802690298030  7.884263126662  7.802690298030 angstroms
 prteigrs : about to open file Cs2TiI6o_EIG
 Fermi (or HOMO) energy (hartree) =  -0.00348   Average Vxc (hartree)=  -0.23726
 Eigenvalues (hartree) for nkpt=   4  k points:
 kpt#   1, nband= 42, wtk=  0.12500, kpt=  0.0000  0.0000  0.0000 (reduced coord)
  -2.40886   -1.19625   -1.19625   -1.19577   -0.78807   -0.78775   -0.57462   -0.55920
  -0.55790   -0.55431   -0.55431   -0.42426   -0.27058   -0.27058   -0.27052   -0.26738
  -0.26738   -0.26701   -0.16673   -0.12786   -0.12118   -0.11875   -0.11537   -0.11537
  -0.10746   -0.10746   -0.09597   -0.07172   -0.06749   -0.06749   -0.05765   -0.05765
  -0.04965   -0.02245   -0.00348   -0.00348    0.15414    0.15414    0.16038    0.20180
   0.23079    0.23486
 prteigrs : prtvol=0 or 1, do not print more k-points.

--- !EnergyTerms
iteration_state     : {dtset: 1, }
comment             : Components of total free energy in Hartree
kinetic             :  5.55207816825558E+01
hartree             :  4.86779617570730E+01
xc                  : -4.88867204814629E+01
Ewald energy        : -1.16890725955934E+02
psp_core            :  4.16238423959551E+00
local_psp           : -1.58113379973493E+02
non_local_psp+x     :  1.67814434690014E+01
total_energy        : -1.98748255262664E+02
...

--- !EnergyTermsDC
iteration_state     : {dtset: 1, }
comment             : '"Double-counting" decomposition of free energy'
band_energy         : -2.78598307970794E+01
Ewald energy        : -1.16890725955934E+02
psp_core            :  4.16238423959551E+00
xc_dc               : -5.81599403605564E+01
total_energy_dc     : -1.98748112873974E+02
...

 Cartesian components of stress tensor (hartree/bohr^3)
  sigma(1 1)=  4.21327246E-05  sigma(3 2)= -1.53794619E-14
  sigma(2 2)=  3.98611783E-05  sigma(3 1)=  3.01183270E-14
  sigma(3 3)=  4.21327246E-05  sigma(2 1)= -1.53792457E-14

-Cartesian components of stress tensor (GPa)         [Pressure= -1.2173E+00 GPa]
- sigma(1 1)=  1.23958735E+00  sigma(3 2)= -4.52479315E-10
- sigma(2 2)=  1.17275616E+00  sigma(3 1)=  8.86111624E-10
- sigma(3 3)=  1.23958735E+00  sigma(2 1)= -4.52472953E-10

== END DATASET(S) ==============================================================

 -outvars: echo values of variables after computation  --------
            acell      1.4744947763E+01  1.4899098069E+01  1.4744947763E+01 Bohr
              amu      1.32905430E+02  1.26904470E+02  1.78490000E+02
                       3.54527000E+01
           diemac      1.20000000E+01
             ecut      2.00000000E+01 Hartree
           etotal     -1.9874811287E+02
            fcart     -4.6451099703E-20  1.2362292788E-06  5.6676609588E-21
                      -4.1305508307E-20  1.2362292788E-06  5.2206956277E-22
                      -9.0747971282E-20  1.6945134946E-03  4.9964532538E-20
                      -2.2615276591E-14  1.7157627998E-04 -2.7928623140E-03
                       2.2615361728E-14  1.7157627994E-04  2.7928623140E-03
                       5.1265017343E-20 -3.1393112809E-03 -9.2048456087E-20
                       2.7928623140E-03  1.7157627994E-04  2.2615318853E-14
                      -2.7928623140E-03  1.7157627998E-04 -2.2615280240E-14
                      -7.2229415209E-20  7.5602020790E-04  3.1445976464E-20
-          fftalg         112
             iscf          17
           istwfk        1    1    1    1
              ixc        -428
              kpt      0.00000000E+00  0.00000000E+00  0.00000000E+00
                       5.00000000E-01  0.00000000E+00  0.00000000E+00
                       5.00000000E-01  5.00000000E-01  0.00000000E+00
                       5.00000000E-01  0.00000000E+00  5.00000000E-01
         kptns_hf      0.00000000E+00  0.00000000E+00  0.00000000E+00
                       5.00000000E-01  0.00000000E+00  0.00000000E+00
                       0.00000000E+00  5.00000000E-01  0.00000000E+00
                       5.00000000E-01  5.00000000E-01  0.00000000E+00
                       0.00000000E+00  0.00000000E+00  5.00000000E-01
                       5.00000000E-01  0.00000000E+00  5.00000000E-01
                       0.00000000E+00  5.00000000E-01  5.00000000E-01
                       5.00000000E-01  5.00000000E-01  5.00000000E-01
         kptrlatt        2    0    0      0    2    0      0    0    2
          kptrlen      2.94898955E+01
P           mkmem           1
            natom           9
            nband          42
          nbandhf          36
            ngfft          60      60      60
             nkpt           4
           nkpthf           8
-           npkpt           4
            nstep        2500
             nsym           8
           ntypat           4
              occ      2.000000  2.000000  2.000000  2.000000  2.000000  2.000000
                       2.000000  2.000000  2.000000  2.000000  2.000000  2.000000
                       2.000000  2.000000  2.000000  2.000000  2.000000  2.000000
                       2.000000  2.000000  2.000000  2.000000  2.000000  2.000000
                       2.000000  2.000000  2.000000  2.000000  2.000000  2.000000
                       2.000000  2.000000  2.000000  2.000000  2.000000  2.000000
                       0.000000  0.000000  0.000000  0.000000  0.000000  0.000000
            rprim      0.0000000000E+00  6.9963626486E-01  7.1449919306E-01
                       7.0710678119E-01  0.0000000000E+00  7.0710678119E-01
                       7.1449919306E-01  6.9963626486E-01  0.0000000000E+00
          spgroup         107
           strten      4.2132724602E-05  3.9861178271E-05  4.2132724602E-05
                      -1.5379461907E-14  3.0118327004E-14 -1.5379245673E-14
           symrel      1  0  0   0  1  0   0  0  1       0  0  1   0  1  0   1  0  0
                       0 -1  1   0 -1  0   1 -1  0       1 -1  0   0 -1  0   0 -1  1
                       0 -1  1  -1  0  1   0  0  1       0  0  1  -1  0  1   0 -1  1
                       1  0  0   1  0 -1   1 -1  0       1 -1  0   1  0 -1   1  0  0
           toldfe      1.00000000E-08 Hartree
            typat      1  1  2  4  4  4  4  4  3
          usefock           1
              wtk        0.12500    0.50000    0.25000    0.12500
           xangst      2.7875079608E+00  2.8021733916E+00  2.7875079608E+00
                       8.3625238824E+00  8.2612184876E+00  8.3625238824E+00
                       5.5750159216E+00  8.0804042496E+00  5.5750159216E+00
                       5.5750159216E+00  5.4806779191E+00  2.4602376399E+00
                       5.5750159216E+00  5.4806779191E+00  8.6897942033E+00
                       5.5750159216E+00  2.5258673724E+00  5.5750159216E+00
                       8.6897942033E+00  5.4806779191E+00  5.5750159216E+00
                       2.4602376399E+00  5.4806779191E+00  5.5750159216E+00
                       6.6144664890E-13  7.9985590107E-02  6.6144664890E-13
            xcart      5.2676266391E+00  5.2953402870E+00  5.2676266391E+00
                       1.5802879917E+01  1.5611440465E+01  1.5802879917E+01
                       1.0535253278E+01  1.5269751075E+01  1.0535253278E+01
                       1.0535253278E+01  1.0356980290E+01  4.6491753612E+00
                       1.0535253278E+01  1.0356980290E+01  1.6421331195E+01
                       1.0535253278E+01  4.7731975819E+00  1.0535253278E+01
                       1.6421331195E+01  1.0356980290E+01  1.0535253278E+01
                       4.6491753612E+00  1.0356980290E+01  1.0535253278E+01
                       1.2499530179E-12  1.5115085988E-01  1.2499530179E-12
             xred      2.5665417141E-01  2.4334582859E-01  2.5665417141E-01
                       7.5665417141E-01  7.4334582859E-01  7.5665417141E-01
                       7.4009319465E-01  2.5990680535E-01  7.4009319465E-01
                       2.2262985982E-01  2.1866711125E-01  7.8133288875E-01
                       7.8133288875E-01  7.7737014018E-01  2.2262985982E-01
                       2.3134699641E-01  7.6865300359E-01  2.3134699641E-01
                       2.2262985982E-01  7.7737014018E-01  7.8133288875E-01
                       7.8133288875E-01  2.1866711125E-01  2.2262985982E-01
                       7.3259689837E-03 -7.3259689837E-03  7.3259689837E-03
            znucl       55.00000   53.00000   72.00000   17.00000

- Timing analysis has been suppressed with timopt=0

 Suggested references for the acknowledgment of ABINIT usage.

 Calculation completed.
.Delivered   0 WARNINGs and   0 COMMENTs to log file.