.Version 9.2.2 of ABINIT

 ABINIT is a project of the Universite Catholique de Louvain,
 Corning Inc. and other collaborators, see ~abinit/doc/developers/contributors.txt .
 acknowledgments of the ABINIT effort.

.Starting date : Sun  6 Nov 2022.
- ( at 00h47 )

- input  file    -> Cs2TiI6.in
- output file    -> Cs2TiI6.out
- root for input  files -> Cs2TiI6i
- root for output files -> Cs2TiI6o

- inpspheads : Reading pseudopotential header in XML form from
-   ../../../Psps_for_tests/ATOMICDATA/Cs.GGA_PBE-JTH.xml
- inpspheads : Reading pseudopotential header in XML form from
-   ../../../Psps_for_tests/ATOMICDATA/I.GGA_PBE-JTH.xml
- inpspheads : Reading pseudopotential header in XML form from
-   ../../../Psps_for_tests/ATOMICDATA/Hf.GGA_PBE-JTH.xml
- inpspheads : Reading pseudopotential header in XML form from
-   ../../../Psps_for_tests/ATOMICDATA/Cl.GGA_PBE-JTH.xml

 DATASET    1 : space group I4/m m m (#139); Bravais tI (body-center tetrag.)
     intxc =       0    ionmov =       2      iscf =      17    lmnmax =      18
     lnmax =       6     mgfft =      64  mpssoang =       3    mqgrid =    3931
     natom =       9  nloc_mem =       2    nspden =       1   nspinor =       1
    nsppol =       1      nsym =      16    n1xccc =       1    ntypat =       4
    occopt =       1   xclevel =       2
-    mband =          42        mffmem =           1         mkmem =           4
       mpw =       10508          nfft =      262144          nkpt =          20
Pmy_natom=         2
 PAW method is used; the additional fine FFT grid is defined by:
   mgfftf=       100    nfftf =   1000000
  Rough estimation (10% accuracy) of disk space for files :

[...]

 DATASET   10 : space group I4/m m m (#139); Bravais tI (body-center tetrag.)
     intxc =       0    ionmov =       2      iscf =      17    lmnmax =      18
     lnmax =       6     mgfft =      64  mpssoang =       3    mqgrid =    3895
     natom =       9  nloc_mem =       2    nspden =       1   nspinor =       1
    nsppol =       1      nsym =      16    n1xccc =       1    ntypat =       4
    occopt =       1   xclevel =       2
-    mband =          42        mffmem =           1         mkmem =           4
       mpw =       10231          nfft =      262144          nkpt =          20
Pmy_natom=         2
 PAW method is used; the additional fine FFT grid is defined by:
   mgfftf=       100    nfftf =   1000000
  Rough estimation (10% accuracy) of disk space for files :

------------- Echo of variables that govern the present computation ------------
-
- outvars: echo of selected default values
-   iomode0 =  0 , fftalg0 =112 , wfoptalg0 = 10
-
- outvars: echo of global parameters not present in the input file
-  max_nthreads =    0
-
 -outvars: echo values of preprocessed input variables --------
            acell1     1.4562914502E+01  1.5072399150E+01  1.4562914502E+01 Bohr
            acell2     1.4548337010E+01  1.5057311664E+01  1.4548337010E+01 Bohr
            acell3     1.4533759518E+01  1.5042224177E+01  1.4533759518E+01 Bohr
            acell4     1.4519182026E+01  1.5027136690E+01  1.4519182026E+01 Bohr
            acell5     1.4504604534E+01  1.5012049204E+01  1.4504604534E+01 Bohr
            acell6     1.4490027042E+01  1.4996961717E+01  1.4490027042E+01 Bohr
            acell7     1.4475449550E+01  1.4981874231E+01  1.4475449550E+01 Bohr
            acell8     1.4460872058E+01  1.4966786744E+01  1.4460872058E+01 Bohr
            acell9     1.4446294566E+01  1.4951699257E+01  1.4446294566E+01 Bohr
            acell10    1.4431717074E+01  1.4936611771E+01  1.4431717074E+01 Bohr
              amu      1.32905430E+02  1.26904470E+02  1.78490000E+02
                       3.54527000E+01
           diemac      1.20000000E+01
          dilatmx      1.15000000E+00
             ecut      1.60000000E+01 Hartree
           ecutsm      5.00000000E-01 Hartree
-          fftalg         112
          getxred1          0
          getxred2         -1
          getxred3         -1
          getxred4         -1
          getxred5         -1
          getxred6         -1
          getxred7         -1
          getxred8         -1
          getxred9         -1
          getxred10        -1
           ionmov           2
              ixc     -101130
           jdtset        1    2    3    4    5    6    7    8    9   10
              kpt      0.00000000E+00 -1.25000000E-01  0.00000000E+00
                       0.00000000E+00 -3.75000000E-01  0.00000000E+00
                       1.25000000E-01 -2.50000000E-01  0.00000000E+00
                       1.25000000E-01 -1.25000000E-01  1.25000000E-01
                       1.25000000E-01  5.00000000E-01  0.00000000E+00
                       2.50000000E-01 -3.75000000E-01  0.00000000E+00
                       1.25000000E-01 -3.75000000E-01  1.25000000E-01
                       2.50000000E-01 -2.50000000E-01  1.25000000E-01
                       2.50000000E-01 -1.25000000E-01  2.50000000E-01
                       1.25000000E-01  2.50000000E-01  0.00000000E+00
                       2.50000000E-01  3.75000000E-01  0.00000000E+00
                       3.75000000E-01  5.00000000E-01  0.00000000E+00
                       1.25000000E-01  3.75000000E-01  1.25000000E-01
                       2.50000000E-01  5.00000000E-01  1.25000000E-01
                       3.75000000E-01 -3.75000000E-01  1.25000000E-01
                       2.50000000E-01 -3.75000000E-01  2.50000000E-01
                       3.75000000E-01 -2.50000000E-01  2.50000000E-01
                       3.75000000E-01 -1.25000000E-01  3.75000000E-01
                       5.00000000E-01  2.50000000E-01  1.25000000E-01
                      -3.75000000E-01  3.75000000E-01  1.25000000E-01
         kptrlatt        4    4   -4     -4    4    4      4   -4    4
          kptrlen1     7.93936504E+01
          kptrlen2     7.93141773E+01
          kptrlen3     7.92347042E+01
          kptrlen4     7.91552310E+01
          kptrlen5     7.90757579E+01
          kptrlen6     7.89962848E+01
          kptrlen7     7.89168117E+01
          kptrlen8     7.88373385E+01
          kptrlen9     7.87578654E+01
          kptrlen10    7.86783923E+01
P           mkmem           4
            natom           9
            nband          42
           ndtset          10
            ngfft          64      64      64
          ngfftdg         100     100     100
             nkpt          20
            nstep        2500
             nsym          16
            ntime        1000
           ntypat           4
              occ      2.000000  2.000000  2.000000  2.000000  2.000000  2.000000
                       2.000000  2.000000  2.000000  2.000000  2.000000  2.000000
                       2.000000  2.000000  2.000000  2.000000  2.000000  2.000000
                       2.000000  2.000000  2.000000  2.000000  2.000000  2.000000
                       2.000000  2.000000  2.000000  2.000000  2.000000  2.000000
                       2.000000  2.000000  2.000000  2.000000  2.000000  2.000000
                       0.000000  0.000000  0.000000  0.000000  0.000000  0.000000
          optcell           3
        optforces           1
        pawecutdg      4.00000000E+01 Hartree
            prtwf           0
            rprim      0.0000000000E+00  6.8147116433E-01  7.3184496458E-01
                       7.0710678119E-01  0.0000000000E+00  7.0710678119E-01
                       7.3184496458E-01  6.8147116433E-01  0.0000000000E+00
           shiftk     -5.00000000E-01  5.00000000E-01  5.00000000E-01
          spgroup         139
           symrel      1  0  0   0  1  0   0  0  1      -1  0  0   0 -1  0   0  0 -1
                       0  0 -1   0 -1  0  -1  0  0       0  0  1   0  1  0   1  0  0
                       0 -1  1   0 -1  0   1 -1  0       0  1 -1   0  1  0  -1  1  0
                      -1  1  0   0  1  0   0  1 -1       1 -1  0   0 -1  0   0 -1  1
                       0 -1  1  -1  0  1   0  0  1       0  1 -1   1  0 -1   0  0 -1
                       0  0 -1   1  0 -1   0  1 -1       0  0  1  -1  0  1   0 -1  1
                       1  0  0   1  0 -1   1 -1  0      -1  0  0  -1  0  1  -1  1  0
                      -1  1  0  -1  0  1  -1  0  0       1 -1  0   1  0 -1   1  0  0
           toldff      1.00000000E-08
           tolmxf      1.00000000E-05
            typat      1  1  4  2  2  4  2  2  3
           useylm           1
              wtk        0.03125    0.03125    0.06250    0.03125    0.06250    0.06250
                         0.03125    0.06250    0.03125    0.06250    0.06250    0.06250
                         0.03125    0.06250    0.06250    0.03125    0.06250    0.03125
                         0.06250    0.06250
           xangst1     2.8199312754E+00  2.6258318941E+00  2.8199312754E+00
                       8.4597938261E+00  7.8774956823E+00  8.4597938261E+00
                       5.6398625507E+00  8.0814297114E+00  5.6398625507E+00
                       5.6398625507E+00  5.2516637882E+00  2.8502126307E+00
                       5.6398625507E+00  5.2516637882E+00  8.4295124707E+00
                       5.6398625507E+00  2.4218978650E+00  5.6398625507E+00
                       8.4295124707E+00  5.2516637882E+00  5.6398625507E+00
                       2.8502126307E+00  5.2516637882E+00  5.6398625507E+00
                      -2.3376311757E-19 -6.8707672024E-20 -7.2934215871E-20
           xangst2     2.8171085213E+00  2.6232034338E+00  2.8171085213E+00
                       8.4513255640E+00  7.8696103013E+00  8.4513255640E+00
                       5.6342170426E+00  8.0733401922E+00  5.6342170426E+00
                       5.6342170426E+00  5.2464068675E+00  2.8473595650E+00
                       5.6342170427E+00  5.2464068675E+00  8.4210745203E+00
                       5.6342170427E+00  2.4194735428E+00  5.6342170427E+00
                       8.4210745203E+00  5.2464068675E+00  5.6342170427E+00
                       2.8473595650E+00  5.2464068675E+00  5.6342170426E+00
                      -2.3352912046E-19 -6.8638895575E-20 -7.2861208648E-20
           xangst3     2.8142857673E+00  2.6205749734E+00  2.8142857673E+00
                       8.4428573019E+00  7.8617249202E+00  8.4428573019E+00
                       5.6285715346E+00  8.0652506730E+00  5.6285715346E+00
                       5.6285715346E+00  5.2411499468E+00  2.8445064993E+00
                       5.6285715346E+00  5.2411499468E+00  8.4126365699E+00
                       5.6285715346E+00  2.4170492206E+00  5.6285715346E+00
                       8.4126365699E+00  5.2411499468E+00  5.6285715346E+00
                       2.8445064993E+00  5.2411499468E+00  5.6285715346E+00
                      -2.3329512334E-19 -6.8570119127E-20 -7.2788201425E-20
           xangst4     2.8114630133E+00  2.6179465130E+00  2.8114630133E+00
                       8.4343890398E+00  7.8538395391E+00  8.4343890398E+00
                       5.6229260265E+00  8.0571611537E+00  5.6229260265E+00
                       5.6229260265E+00  5.2358930261E+00  2.8416534336E+00
                       5.6229260266E+00  5.2358930261E+00  8.4041986195E+00
[...]
                      -2.3161653416E-19 -6.6744791879E-20 -7.3626671113E-20
           xangst7     2.8051351346E+00  2.6060795768E+00  2.8051351346E+00
                       8.4154054037E+00  7.8182387304E+00  8.4154054037E+00
                       5.6102702691E+00  8.0016367755E+00  5.6102702691E+00
                       5.6102702691E+00  5.2121591536E+00  2.8473268384E+00
                       5.6102702691E+00  5.2121591536E+00  8.3732136999E+00
                       5.6102702691E+00  2.4226815318E+00  5.6102702691E+00
                       8.3732136999E+00  5.2121591536E+00  5.6102702691E+00
                       2.8473268384E+00  5.2121591536E+00  5.6102702691E+00
                      -2.3270912978E-19 -6.8215139119E-20 -7.2378127193E-20
           xangst8     2.8028210268E+00  2.6025062762E+00  2.8028210268E+00
                       8.4084630804E+00  7.8075188286E+00  8.4084630804E+00
                       5.6056420536E+00  7.9875310305E+00  5.6056420536E+00
                       5.6056420536E+00  5.2050125524E+00  2.8464879948E+00
                       5.6056420536E+00  5.2050125524E+00  8.3647961124E+00
                       5.6056420536E+00  2.4224940743E+00  5.6056420536E+00
                       8.3647961124E+00  5.2050125524E+00  5.6056420536E+00
                       2.8464879948E+00  5.2050125524E+00  5.6056420536E+00
                      -2.3111916511E-19 -6.5477846845E-20 -6.9903041490E-20
           xangst9     2.8005619965E+00  2.5988312720E+00  2.8005619965E+00
                       8.4016859894E+00  7.7964938161E+00  8.4016859894E+00
                       5.6011239929E+00  7.9729997409E+00  5.6011239929E+00
                       5.6011239929E+00  5.1976625441E+00  2.8456608275E+00
                       5.6011239929E+00  5.1976625441E+00  8.3565871583E+00
                       5.6011239930E+00  2.4223253473E+00  5.6011239930E+00
                       8.3565871583E+00  5.1976625441E+00  5.6011239929E+00
                       2.8456608275E+00  5.1976625441E+00  5.6011239929E+00
                      -2.3089415725E-19 -6.6731560017E-20 -7.4529546125E-20
           xangst10    2.7983378363E+00  2.5950922307E+00  2.7983378363E+00
                       8.3950135089E+00  7.7852766922E+00  8.3950135089E+00
                       5.5966756726E+00  7.9582068876E+00  5.5966756726E+00
                       5.5966756726E+00  5.1901844615E+00  2.8448532860E+00
                       5.5966756726E+00  5.1901844615E+00  8.3484980593E+00
                       5.5966756726E+00  2.4221620353E+00  5.5966756726E+00
                       8.3484980593E+00  5.1901844615E+00  5.5966756726E+00
                       2.8448532860E+00  5.1901844615E+00  5.5966756726E+00
                      -2.4102748874E-19 -6.9862541800E-20 -7.1978487381E-20
            xcart1     5.3289285284E+00  4.9620459693E+00  5.3289285284E+00
                       1.5986785585E+01  1.4886137908E+01  1.5986785585E+01
                       1.0657857057E+01  1.5267259794E+01  1.0657857057E+01
                       1.0657857057E+01  9.9240919385E+00  5.3899784244E+00
                       1.0657857057E+01  9.9240919385E+00  1.5925735689E+01
                       1.0657857057E+01  4.5809240831E+00  1.0657857057E+01
                       1.5925735689E+01  9.9240919385E+00  1.0657857057E+01
                       5.3899784244E+00  9.9240919385E+00  1.0657857057E+01
                      -4.4175081748E-19 -1.2983718714E-19 -1.3782648785E-19
            xcart2     5.3236438347E+00  4.9569866448E+00  5.3236438347E+00
                       1.5970931504E+01  1.4870959935E+01  1.5970931504E+01
                       1.0647287669E+01  1.5247438497E+01  1.0647287669E+01
                       1.0647287669E+01  9.9139732897E+00  5.3883872233E+00
                       1.0647287669E+01  9.9139732897E+00  1.5906188116E+01
                       1.0647287669E+01  4.5805080819E+00  1.0647287669E+01
                       1.5906188116E+01  9.9139732897E+00  1.0647287669E+01
                       5.3883872233E+00  9.9139732897E+00  1.0647287669E+01
                      -4.3561239510E-19 -1.3287387378E-19 -1.4329020830E-19
            xcart3     5.3193333618E+00  4.9501136263E+00  5.3193333618E+00
                       1.5958000085E+01  1.4850340879E+01  1.5958000085E+01
                       1.0638666724E+01  1.5220476373E+01  1.0638666724E+01
                       1.0638666724E+01  9.9002272525E+00  5.3869016075E+00
                       1.0638666724E+01  9.9002272525E+00  1.5890431840E+01
                       1.0638666724E+01  4.5799781324E+00  1.0638666724E+01
                       1.5890431840E+01  9.9002272525E+00  1.0638666724E+01
                       5.3869016075E+00  9.9002272525E+00  1.0638666724E+01
                      -4.4223759277E-19 -1.3116607248E-19 -1.3703215724E-19
            xcart4     5.3147000026E+00  4.9438423662E+00  5.3147000026E+00
                       1.5944100008E+01  1.4831527099E+01  1.5944100008E+01
                       1.0629400005E+01  1.5195818404E+01  1.0629400005E+01
                       1.0629400005E+01  9.8876847324E+00  5.3853573208E+00
                       1.0629400005E+01  9.8876847324E+00  1.5873442690E+01
                       1.0629400005E+01  4.5795510609E+00  1.0629400005E+01
                       1.5873442690E+01  9.8876847324E+00  1.0629400005E+01
                       5.3853573208E+00  9.8876847324E+00  1.0629400005E+01
                      -4.4057131904E-19 -1.2936087059E-19 -1.3745848371E-19
            xcart5     5.3099804168E+00  4.9377319844E+00  5.3099804168E+00
                       1.5929941250E+01  1.4813195953E+01  1.5929941250E+01
                       1.0619960834E+01  1.5171908239E+01  1.0619960834E+01
                       1.0619960834E+01  9.8754639689E+00  5.3837600586E+00
                       1.0619960834E+01  9.8754639689E+00  1.5856161609E+01
                       1.0619960834E+01  4.5790196989E+00  1.0619960834E+01
                       1.5856161609E+01  9.8754639689E+00  1.0619960834E+01
                       5.3837600586E+00  9.8754639689E+00  1.0619960834E+01
                      -4.4018008075E-19 -1.2920098598E-19 -1.3733641716E-19
            xcart6     5.3052498440E+00  4.9316424293E+00  5.3052498440E+00
                       1.5915749532E+01  1.4794927288E+01  1.5915749532E+01
                       1.0610499688E+01  1.5147965390E+01  1.0610499688E+01
                       1.0610499688E+01  9.8632848587E+00  5.3821439971E+00
                       1.0610499688E+01  9.8632848587E+00  1.5838855379E+01
                       1.0610499688E+01  4.5786043269E+00  1.0610499688E+01
                       1.5838855379E+01  9.8632848587E+00  1.0610499688E+01
                       5.3821439971E+00  9.8632848587E+00  1.0610499688E+01
                      -4.3769181741E-19 -1.2612937745E-19 -1.3913424448E-19
            xcart7     5.3009371701E+00  4.9247766807E+00  5.3009371701E+00
                       1.5902811510E+01  1.4774330042E+01  1.5902811510E+01
                       1.0601874340E+01  1.5120902121E+01  1.0601874340E+01
                       1.0601874340E+01  9.8495533614E+00  5.3806679353E+00
                       1.0601874340E+01  9.8495533614E+00  1.5823080745E+01
                       1.0601874340E+01  4.5782046022E+00  1.0601874340E+01
                       1.5823080745E+01  9.8495533614E+00  1.0601874340E+01
                       5.3806679353E+00  9.8495533614E+00  1.0601874340E+01
                      -4.3975652391E-19 -1.2890793105E-19 -1.3677483841E-19
            xcart8     5.2965641401E+00  4.9180241211E+00  5.2965641401E+00
                       1.5889692420E+01  1.4754072363E+01  1.5889692420E+01
                       1.0593128280E+01  1.5094246126E+01  1.0593128280E+01
                       1.0593128280E+01  9.8360482422E+00  5.3790827508E+00
                       1.0593128280E+01  9.8360482422E+00  1.5807173810E+01
                       1.0593128280E+01  4.5778503589E+00  1.0593128280E+01
                       1.5807173810E+01  9.8360482422E+00  1.0593128280E+01
                       5.3790827508E+00  9.8360482422E+00  1.0593128280E+01
                      -4.3675192611E-19 -1.2373519831E-19 -1.3209760427E-19
            xcart9     5.2922951915E+00  4.9110793698E+00  5.2922951915E+00
                       1.5876885574E+01  1.4733238109E+01  1.5876885574E+01
                       1.0584590383E+01  1.5066785968E+01  1.0584590383E+01
                       1.0584590383E+01  9.8221587395E+00  5.3775196311E+00
                       1.0584590383E+01  9.8221587395E+00  1.5791661135E+01
                       1.0584590383E+01  4.5775315111E+00  1.0584590383E+01
                       1.5791661135E+01  9.8221587395E+00  1.0584590383E+01
                       5.3775196311E+00  9.8221587395E+00  1.0584590383E+01
                      -4.3632672288E-19 -1.2610437285E-19 -1.4084043098E-19
            xcart10    5.2880921379E+00  4.9040136056E+00  5.2880921379E+00
                       1.5864276414E+01  1.4712040817E+01  1.5864276414E+01
                       1.0576184276E+01  1.5038831526E+01  1.0576184276E+01
                       1.0576184276E+01  9.8080272113E+00  5.3759935988E+00
                       1.0576184276E+01  9.8080272113E+00  1.5776374953E+01
                       1.0576184276E+01  4.5772228963E+00  1.0576184276E+01
                       1.5776374953E+01  9.8080272113E+00  1.0576184276E+01
                       5.3759935988E+00  9.8080272113E+00  1.0576184276E+01
                      -4.5547594421E-19 -1.3202107095E-19 -1.3601962861E-19
             xred1     2.5000000000E-01  2.5000000000E-01  2.5000000000E-01
                       7.5000000000E-01  7.5000000000E-01  7.5000000000E-01
                       7.6920185184E-01  2.3079814816E-01  7.6920185184E-01
                       2.5286407932E-01  2.5286407932E-01  7.4713592068E-01
                       7.4713592068E-01  7.4713592068E-01  2.5286407932E-01
                       2.3079814816E-01  7.6920185184E-01  2.3079814816E-01
                       2.5286407932E-01  7.4713592068E-01  7.4713592068E-01
                       7.4713592068E-01  2.5286407932E-01  2.5286407932E-01
                       7.7167141090E-21 -2.0648627824E-20 -2.0799743563E-20
             xred2     2.5000000000E-01  2.5000000000E-01  2.5000000000E-01
                       7.5000000000E-01  7.5000000000E-01  7.5000000000E-01
                       7.6898726938E-01  2.3101273062E-01  7.6898726938E-01
                       2.5304037003E-01  2.5304037003E-01  7.4695962997E-01
                       7.4695962997E-01  7.4695962997E-01  2.5304037003E-01
                       2.3101273062E-01  7.6898726938E-01  2.3101273062E-01
                       2.5304037003E-01  7.4695962997E-01  7.4695962997E-01
                       7.4695962997E-01  2.5304037003E-01  2.5304037003E-01
                       7.0261993049E-21 -2.0484106403E-20 -2.0428885584E-20
             xred3     2.5000000000E-01  2.5000000000E-01  2.5000000000E-01
                       7.5000000000E-01  7.5000000000E-01  7.5000000000E-01
                       7.6869328271E-01  2.3130671729E-01  7.6869328271E-01
                       2.5317559745E-01  2.5317559745E-01  7.4682440255E-01
                       7.4682440255E-01  7.4682440255E-01  2.5317559745E-01
                       2.3130671729E-01  7.6869328271E-01  2.3130671729E-01
                       2.5317559745E-01  7.4682440255E-01  7.4682440255E-01
                       7.4682440255E-01  2.5317559745E-01  2.5317559745E-01
                       7.7197610758E-21 -2.0600337261E-20 -2.0968555182E-20
             xred4     2.5000000000E-01  2.5000000000E-01  2.5000000000E-01
                       7.5000000000E-01  7.5000000000E-01  7.5000000000E-01
                       7.6842146646E-01  2.3157853354E-01  7.6842146646E-01
                       2.5332367387E-01  2.5332367387E-01  7.4667632613E-01
                       7.4667632613E-01  7.4667632613E-01  2.5332367387E-01
                       2.3157853354E-01  7.6842146646E-01  2.3157853354E-01
                       2.5332367387E-01  7.4667632613E-01  7.4667632613E-01
                       7.4667632613E-01  2.5332367387E-01  2.5332367387E-01
                       7.7167141090E-21 -2.0648627824E-20 -2.0799743563E-20
             xred5     2.5000000000E-01  2.5000000000E-01  2.5000000000E-01
                       7.5000000000E-01  7.5000000000E-01  7.5000000000E-01
                       7.6816179405E-01  2.3183820595E-01  7.6816179405E-01
                       2.5347363060E-01  2.5347363060E-01  7.4652636940E-01
                       7.4652636940E-01  7.4652636940E-01  2.5347363060E-01
                       2.3183820595E-01  7.6816179405E-01  2.3183820595E-01
                       2.5347363060E-01  7.4652636940E-01  7.4652636940E-01
                       7.4652636940E-01  2.5347363060E-01  2.5347363060E-01
                       7.7167141090E-21 -2.0648627824E-20 -2.0799743563E-20
             xred6     2.5000000000E-01  2.5000000000E-01  2.5000000000E-01
                       7.5000000000E-01  7.5000000000E-01  7.5000000000E-01
                       7.6789657844E-01  2.3210342156E-01  7.6789657844E-01
                       2.5362349349E-01  2.5362349349E-01  7.4637650651E-01
                       7.4637650651E-01  7.4637650651E-01  2.5362349349E-01
                       2.3210342156E-01  7.6789657844E-01  2.3210342156E-01
                       2.5362349349E-01  7.4637650651E-01  7.4637650651E-01
                       7.4637650651E-01  2.5362349349E-01  2.5362349349E-01
                       7.6750856219E-21 -2.0787968952E-20 -2.0462851488E-20
             xred7     2.5000000000E-01  2.5000000000E-01  2.5000000000E-01
                       7.5000000000E-01  7.5000000000E-01  7.5000000000E-01
                       7.6759328904E-01  2.3240671096E-01  7.6759328904E-01
                       2.5376022025E-01  2.5376022025E-01  7.4623977975E-01
                       7.4623977975E-01  7.4623977975E-01  2.5376022025E-01
                       2.3240671096E-01  7.6759328904E-01  2.3240671096E-01
                       2.5376022025E-01  7.4623977975E-01  7.4623977975E-01
                       7.4623977975E-01  2.5376022025E-01  2.5376022025E-01
                       7.7452157584E-21 -2.0646221186E-20 -2.0832908806E-20
             xred8     2.5000000000E-01  2.5000000000E-01  2.5000000000E-01
                       7.5000000000E-01  7.5000000000E-01  7.5000000000E-01
                       7.6729219672E-01  2.3270780328E-01  7.6729219672E-01
                       2.5389491227E-01  2.5389491227E-01  7.4610508773E-01
                       7.4610508773E-01  7.4610508773E-01  2.5389491227E-01
                       2.3270780328E-01  7.6729219672E-01  2.3270780328E-01
                       2.5389491227E-01  7.4610508773E-01  7.4610508773E-01
                       7.4610508773E-01  2.5389491227E-01  2.5389491227E-01
                       8.0899252926E-21 -2.0560047505E-20 -2.0669692620E-20
             xred9     2.5000000000E-01  2.5000000000E-01  2.5000000000E-01
                       7.5000000000E-01  7.5000000000E-01  7.5000000000E-01
                       7.6697935594E-01  2.3302064406E-01  7.6697935594E-01
                       2.5402587330E-01  2.5402587330E-01  7.4597412670E-01
                       7.4597412670E-01  7.4597412670E-01  2.5402587330E-01
                       2.3302064406E-01  7.6697935594E-01  2.3302064406E-01
                       2.5402587330E-01  7.4597412670E-01  7.4597412670E-01
                       7.4597412670E-01  2.5402587330E-01  2.5402587330E-01
                       7.5389426391E-21 -2.0845119438E-20 -2.0377706112E-20
             xred10    2.5000000000E-01  2.5000000000E-01  2.5000000000E-01
                       7.5000000000E-01  7.5000000000E-01  7.5000000000E-01
                       7.6665934965E-01  2.3334065035E-01  7.6665934965E-01
                       2.5415563206E-01  2.5415563206E-01  7.4584436794E-01
                       7.4584436794E-01  7.4584436794E-01  2.5415563206E-01
                       2.3334065035E-01  7.6665934965E-01  2.3334065035E-01
                       2.5415563206E-01  7.4584436794E-01  7.4584436794E-01
                       7.4584436794E-01  2.5415563206E-01  2.5415563206E-01
                       8.3723700540E-21 -2.1233306008E-20 -2.1832882357E-20
            znucl       55.00000   53.00000   72.00000   17.00000

- Timing analysis has been suppressed with timopt=0

 Suggested references for the acknowledgment of ABINIT usage.

 Calculation completed.
.Delivered   0 WARNINGs and 100 COMMENTs to log file.