.Version 9.2.2 of ABINIT

 ABINIT is a project of the Universite Catholique de Louvain,
 Corning Inc. and other collaborators, see ~abinit/doc/developers/contributors.txt .
 acknowledgments of the ABINIT effort.

.Starting date : Fri 25 Nov 2022.
- ( at 15h07 )

- input  file    -> Cs2TiI6.in
- output file    -> Cs2TiI6.out
- root for input  files -> Cs2TiI6i
- root for output files -> Cs2TiI6o

- inpspheads : Reading pseudopotential header in XML form from
-   ../../../Psps_for_tests/ATOMICDATA/Cs.GGA_PBE-JTH.xml
- inpspheads : Reading pseudopotential header in XML form from
-   ../../../Psps_for_tests/ATOMICDATA/I.GGA_PBE-JTH.xml
- inpspheads : Reading pseudopotential header in XML form from
-   ../../../Psps_for_tests/ATOMICDATA/Hf.GGA_PBE-JTH.xml
- inpspheads : Reading pseudopotential header in XML form from
-   ../../../Psps_for_tests/ATOMICDATA/Br.GGA_PBE-JTH.xml

 DATASET    1 : space group I4 m m (#107); Bravais tI (body-center tetrag.)
     intxc =       0    ionmov =       2      iscf =      17    lmnmax =      18
     lnmax =       6     mgfft =      60  mpssoang =       3    mqgrid =    3824
     natom =       9  nloc_mem =       2    nspden =       1   nspinor =       1
    nsppol =       1      nsym =       8    n1xccc =       1    ntypat =       4
    occopt =       1   xclevel =       2
-    mband =          42        mffmem =           1         mkmem =           4
       mpw =        9656          nfft =      216000          nkpt =          20
Pmy_natom=         2
 PAW method is used; the additional fine FFT grid is defined by:
   mgfftf=        96    nfftf =    884736
  Rough estimation (10% accuracy) of disk space for files :

[...]

 DATASET    5 : space group I4 m m (#107); Bravais tI (body-center tetrag.)
     intxc =       0    ionmov =       2      iscf =      17    lmnmax =      18
     lnmax =       6     mgfft =      60  mpssoang =       3    mqgrid =    3809
     natom =       9  nloc_mem =       2    nspden =       1   nspinor =       1
    nsppol =       1      nsym =       8    n1xccc =       1    ntypat =       4
    occopt =       1   xclevel =       2
-    mband =          42        mffmem =           1         mkmem =           4
       mpw =        9518          nfft =      216000          nkpt =          20
Pmy_natom=         2
 PAW method is used; the additional fine FFT grid is defined by:
   mgfftf=        96    nfftf =    884736
  Rough estimation (10% accuracy) of disk space for files :

------------- Echo of variables that govern the present computation ------------
-
- outvars: echo of selected default values
-   iomode0 =  0 , fftalg0 =112 , wfoptalg0 = 10
-
- outvars: echo of global parameters not present in the input file
-  max_nthreads =    0
-
 -outvars: echo values of preprocessed input variables --------
            acell1     1.4299578203E+01  1.4313245892E+01  1.4299578203E+01 Bohr
            acell2     1.4285264311E+01  1.4298918318E+01  1.4285264311E+01 Bohr
            acell3     1.4270950419E+01  1.4284590745E+01  1.4270950419E+01 Bohr
            acell4     1.4256636527E+01  1.4270263171E+01  1.4256636527E+01 Bohr
            acell5     1.4242322635E+01  1.4255935598E+01  1.4242322635E+01 Bohr
              amu      1.32905430E+02  1.26904470E+02  1.78490000E+02
                       7.99040000E+01
           diemac      1.20000000E+01
          dilatmx      1.15000000E+00
             ecut      1.60000000E+01 Hartree
           ecutsm      5.00000000E-01 Hartree
-          fftalg         112
          getxred1          0
          getxred2         -1
          getxred3         -1
          getxred4         -1
          getxred5         -1
           ionmov           2
              ixc     -101130
           jdtset        1    2    3    4    5
              kpt      0.00000000E+00 -1.25000000E-01  0.00000000E+00
                       0.00000000E+00 -3.75000000E-01  0.00000000E+00
                       1.25000000E-01 -2.50000000E-01  0.00000000E+00
                       1.25000000E-01 -1.25000000E-01  1.25000000E-01
                       1.25000000E-01  5.00000000E-01  0.00000000E+00
                       2.50000000E-01 -3.75000000E-01  0.00000000E+00
                       1.25000000E-01 -3.75000000E-01  1.25000000E-01
                       2.50000000E-01 -2.50000000E-01  1.25000000E-01
                       2.50000000E-01 -1.25000000E-01  2.50000000E-01
                       1.25000000E-01  2.50000000E-01  0.00000000E+00
                       2.50000000E-01  3.75000000E-01  0.00000000E+00
                       3.75000000E-01  5.00000000E-01  0.00000000E+00
                       1.25000000E-01  3.75000000E-01  1.25000000E-01
                       2.50000000E-01  5.00000000E-01  1.25000000E-01
                       3.75000000E-01 -3.75000000E-01  1.25000000E-01
                       2.50000000E-01 -3.75000000E-01  2.50000000E-01
                       3.75000000E-01 -2.50000000E-01  2.50000000E-01
                       3.75000000E-01 -1.25000000E-01  3.75000000E-01
                       5.00000000E-01  2.50000000E-01  1.25000000E-01
                      -3.75000000E-01  3.75000000E-01  1.25000000E-01
         kptrlatt        4    4   -4     -4    4    4      4   -4    4
          kptrlen1     8.08132396E+01
          kptrlen2     8.07323455E+01
          kptrlen3     8.06514514E+01
          kptrlen4     8.05705572E+01
          kptrlen5     8.04896631E+01
P           mkmem           4
            natom           9
            nband          42
           ndtset           5
            ngfft          60      60      60
          ngfftdg          96      96      96
             nkpt          20
            nstep          50
             nsym           8
            ntime        1000
           ntypat           4
              occ      2.000000  2.000000  2.000000  2.000000  2.000000  2.000000
                       2.000000  2.000000  2.000000  2.000000  2.000000  2.000000
                       2.000000  2.000000  2.000000  2.000000  2.000000  2.000000
                       2.000000  2.000000  2.000000  2.000000  2.000000  2.000000
                       2.000000  2.000000  2.000000  2.000000  2.000000  2.000000
                       2.000000  2.000000  2.000000  2.000000  2.000000  2.000000
                       0.000000  0.000000  0.000000  0.000000  0.000000  0.000000
          optcell           3
        optforces           1
        pawecutdg      4.00000000E+01 Hartree
            prtwf           0
            rprim      0.0000000000E+00  7.0643027442E-01  7.0778264135E-01
                       7.0710678119E-01  0.0000000000E+00  7.0710678119E-01
                       7.0778264135E-01  7.0643027442E-01  0.0000000000E+00
           shiftk     -5.00000000E-01  5.00000000E-01  5.00000000E-01
          spgroup         107
           symrel      1  0  0   0  1  0   0  0  1       0  0  1   0  1  0   1  0  0
                       0 -1  1   0 -1  0   1 -1  0       1 -1  0   0 -1  0   0 -1  1
                       0 -1  1  -1  0  1   0  0  1       0  0  1  -1  0  1   0 -1  1
                       1  0  0   1  0 -1   1 -1  0       1 -1  0   1  0 -1   1  0  0
           toldff      1.00000000E-08
           tolmxf      1.00000000E-05
            typat      1  1  2  4  4  4  4  4  3
           useylm           1
              wtk        0.03125    0.03125    0.06250    0.03125    0.06250    0.06250
                         0.03125    0.06250    0.03125    0.06250    0.06250    0.06250
                         0.03125    0.06250    0.06250    0.03125    0.06250    0.03125
                         0.06250    0.06250
           xangst1     2.6778994730E+00  2.6955027462E+00  2.6778994730E+00
                       8.0336984190E+00  8.0410683169E+00  8.0336984190E+00
                       5.3557989460E+00  7.9090413863E+00  5.3557989460E+00
                       5.3557989460E+00  5.3504204957E+00  2.6010258535E+00
                       5.3557989460E+00  5.3504204957E+00  8.1105720384E+00
                       5.3557989460E+00  2.6578797973E+00  5.3557989460E+00
                       8.1105720384E+00  5.3504204957E+00  5.3557989460E+00
                       2.6010258535E+00  5.3504204957E+00  5.3557989460E+00
                      -2.9764147276E-13  5.9350336027E-02 -2.9764147276E-13
           xangst2     2.6752188929E+00  2.6928045453E+00  2.6752188929E+00
                       8.0256566788E+00  8.0330191995E+00  8.0256566788E+00
                       5.3504377859E+00  7.9011244280E+00  5.3504377859E+00
                       5.3504377859E+00  5.3450647194E+00  2.5984222240E+00
                       5.3504377859E+00  5.3450647194E+00  8.1024533477E+00
                       5.3504377859E+00  2.6552192570E+00  5.3504377859E+00
                       8.1024533477E+00  5.3450647194E+00  5.3504377859E+00
                       2.5984222240E+00  5.3450647194E+00  5.3504377859E+00
                      -2.9734022057E-13  5.9290926281E-02 -2.9734022057E-13
           xangst3     2.6725383129E+00  2.6901063443E+00  2.6725383129E+00
                       8.0176149386E+00  8.0249700820E+00  8.0176149386E+00
                       5.3450766258E+00  7.8932074696E+00  5.3450766258E+00
                       5.3450766258E+00  5.3397089432E+00  2.5958185946E+00
                       5.3450766258E+00  5.3397089432E+00  8.0943346570E+00
                       5.3450766258E+00  2.6525587167E+00  5.3450766258E+00
                       8.0943346570E+00  5.3397089432E+00  5.3450766258E+00
                       2.5958185946E+00  5.3397089432E+00  5.3450766258E+00
                      -2.9704728569E-13  5.9231516535E-02 -2.9704728569E-13
           xangst4     2.6698577328E+00  2.6874081434E+00  2.6698577328E+00
                       8.0095731985E+00  8.0169209646E+00  8.0095731985E+00
                       5.3397154656E+00  7.8852905113E+00  5.3397154656E+00
                       5.3397154656E+00  5.3343531669E+00  2.5932149651E+00
                       5.3397154657E+00  5.3343531669E+00  8.0862159662E+00
                       5.3397154657E+00  2.6498981763E+00  5.3397154657E+00
                       8.0862159662E+00  5.3343531669E+00  5.3397154657E+00
                       2.5932149651E+00  5.3343531669E+00  5.3397154656E+00
                      -2.9674546058E-13  5.9172106790E-02 -2.9674546058E-13
           xangst5     2.6671771528E+00  2.6847099424E+00  2.6671771528E+00
                       8.0015314583E+00  8.0088718472E+00  8.0015314583E+00
                       5.3343543055E+00  7.8773735529E+00  5.3343543055E+00
                       5.3343543055E+00  5.3289973906E+00  2.5906113356E+00
                       5.3343543056E+00  5.3289973906E+00  8.0780972755E+00
                       5.3343543056E+00  2.6472376360E+00  5.3343543056E+00
                       8.0780972755E+00  5.3289973906E+00  5.3343543056E+00
                       2.5906113356E+00  5.3289973906E+00  5.3343543055E+00
                      -2.9644885380E-13  5.9112697044E-02 -2.9644885380E-13
            xcart1     5.0604966153E+00  5.0937619808E+00  5.0604966153E+00
[...]
                       2.1611340970E-17  3.0980126707E-06 -4.3164263688E-06
                      -2.1611099937E-17  3.0980126707E-06  4.3164263688E-06
                       6.4419984055E-23  4.4398918132E-06 -1.5702505397E-22
                       4.3164263688E-06  3.0980126707E-06 -2.1611063384E-17
                      -4.3164263688E-06  3.0980126707E-06  2.1611163229E-17
                      -2.2243843650E-22 -8.6237685382E-06  1.2983336659E-22
-          fftalg         112
          getxred1          0
          getxred2         -1
          getxred3         -1
          getxred4         -1
          getxred5         -1
           ionmov           2
              ixc     -101130
           jdtset        1    2    3    4    5
              kpt      0.00000000E+00 -1.25000000E-01  0.00000000E+00
                       0.00000000E+00 -3.75000000E-01  0.00000000E+00
                       1.25000000E-01 -2.50000000E-01  0.00000000E+00
                       1.25000000E-01 -1.25000000E-01  1.25000000E-01
                       1.25000000E-01  5.00000000E-01  0.00000000E+00
                       2.50000000E-01 -3.75000000E-01  0.00000000E+00
                       1.25000000E-01 -3.75000000E-01  1.25000000E-01
                       2.50000000E-01 -2.50000000E-01  1.25000000E-01
                       2.50000000E-01 -1.25000000E-01  2.50000000E-01
                       1.25000000E-01  2.50000000E-01  0.00000000E+00
                       2.50000000E-01  3.75000000E-01  0.00000000E+00
                       3.75000000E-01  5.00000000E-01  0.00000000E+00
                       1.25000000E-01  3.75000000E-01  1.25000000E-01
                       2.50000000E-01  5.00000000E-01  1.25000000E-01
                       3.75000000E-01 -3.75000000E-01  1.25000000E-01
                       2.50000000E-01 -3.75000000E-01  2.50000000E-01
                       3.75000000E-01 -2.50000000E-01  2.50000000E-01
                       3.75000000E-01 -1.25000000E-01  3.75000000E-01
                       5.00000000E-01  2.50000000E-01  1.25000000E-01
                      -3.75000000E-01  3.75000000E-01  1.25000000E-01
         kptrlatt        4    4   -4     -4    4    4      4   -4    4
          kptrlen1     8.08132396E+01
          kptrlen2     8.07323455E+01
          kptrlen3     8.06514514E+01
          kptrlen4     8.05705572E+01
          kptrlen5     8.04896631E+01
P           mkmem           4
            natom           9
            nband          42
           ndtset           5
            ngfft          60      60      60
          ngfftdg          96      96      96
             nkpt          20
            nstep          50
             nsym           8
            ntime        1000
           ntypat           4
              occ      2.000000  2.000000  2.000000  2.000000  2.000000  2.000000
                       2.000000  2.000000  2.000000  2.000000  2.000000  2.000000
                       2.000000  2.000000  2.000000  2.000000  2.000000  2.000000
                       2.000000  2.000000  2.000000  2.000000  2.000000  2.000000
                       2.000000  2.000000  2.000000  2.000000  2.000000  2.000000
                       2.000000  2.000000  2.000000  2.000000  2.000000  2.000000
                       0.000000  0.000000  0.000000  0.000000  0.000000  0.000000
          optcell           3
        optforces           1
        pawecutdg      4.00000000E+01 Hartree
            prtwf           0
            rprim1     0.0000000000E+00  7.0645046651E-01  7.0776248726E-01
                       7.0710678119E-01  0.0000000000E+00  7.0710678119E-01
                       7.0776248726E-01  7.0645046651E-01  0.0000000000E+00
            rprim2     0.0000000000E+00  7.0660220030E-01  7.0761100227E-01
                       7.0710678119E-01  0.0000000000E+00  7.0710678119E-01
                       7.0761100227E-01  7.0660220030E-01  0.0000000000E+00
            rprim3     0.0000000000E+00  7.0655349666E-01  7.0765963312E-01
                       7.0710678119E-01  0.0000000000E+00  7.0710678119E-01
                       7.0765963312E-01  7.0655349666E-01  0.0000000000E+00
            rprim4     0.0000000000E+00  7.0667183063E-01  7.0754146436E-01
                       7.0710678119E-01  0.0000000000E+00  7.0710678119E-01
                       7.0754146436E-01  7.0667183063E-01  0.0000000000E+00
            rprim5     0.0000000000E+00  7.0661787742E-01  7.0759534715E-01
                       7.0710678119E-01  0.0000000000E+00  7.0710678119E-01
                       7.0759534715E-01  7.0661787742E-01  0.0000000000E+00
           shiftk     -5.00000000E-01  5.00000000E-01  5.00000000E-01
          spgroup         107
           strten1    -8.8456206742E-05 -8.8460154120E-05 -8.8456206742E-05
                       3.5728854450E-14 -7.1326733300E-14  3.5729743944E-14
           strten2    -9.0760361987E-05 -9.0759537716E-05 -9.0760361987E-05
                       3.5926653406E-14 -7.1748886199E-14  3.5927028333E-14
           strten3    -9.3123153195E-05 -9.3200283989E-05 -9.3123153195E-05
                       3.6139087832E-14 -7.2161346648E-14  3.6136632356E-14
           strten4    -9.5561872914E-05 -9.5567701003E-05 -9.5561872914E-05
                       3.6337780949E-14 -7.2589443674E-14  3.6339573917E-14
           strten5    -9.8099273582E-05 -9.8206970133E-05 -9.8099273582E-05
                       3.6551750827E-14 -7.3002533886E-14  3.6552164489E-14
           symrel      1  0  0   0  1  0   0  0  1       0  0  1   0  1  0   1  0  0
                       0 -1  1   0 -1  0   1 -1  0       1 -1  0   0 -1  0   0 -1  1
                       0 -1  1  -1  0  1   0  0  1       0  0  1  -1  0  1   0 -1  1
                       1  0  0   1  0 -1   1 -1  0       1 -1  0   1  0 -1   1  0  0
           toldff      1.00000000E-08
           tolmxf      1.00000000E-05
            typat      1  1  2  4  4  4  4  4  3
           useylm           1
              wtk        0.03125    0.03125    0.06250    0.03125    0.06250    0.06250
                         0.03125    0.06250    0.03125    0.06250    0.06250    0.06250
                         0.03125    0.06250    0.06250    0.03125    0.06250    0.03125
                         0.06250    0.06250
           xangst1     2.6778485414E+00  2.6955989446E+00  2.6778485414E+00
                       8.0335456242E+00  8.0413678582E+00  8.0335456242E+00
                       5.3556970828E+00  7.9078806022E+00  5.3556970828E+00
                       5.3556970828E+00  5.3503986158E+00  2.6031170913E+00
                       5.3556970828E+00  5.3503986158E+00  8.1082770743E+00
                       5.3556970828E+00  2.6601857103E+00  5.3556970828E+00
                       8.1082770743E+00  5.3503986158E+00  5.3556970828E+00
                       2.6031170913E+00  5.3503986158E+00  5.3556970828E+00
                      -2.9775380625E-13  5.9523730308E-02 -2.9835305340E-13
           xangst2     2.6747856539E+00  2.6938174743E+00  2.6747856539E+00
                       8.0243569618E+00  8.0357621935E+00  8.0243569618E+00
                       5.3495713079E+00  7.9013717548E+00  5.3495713079E+00
                       5.3495713079E+00  5.3463478192E+00  2.6026539763E+00
                       5.3495713079E+00  5.3463478192E+00  8.0964886395E+00
                       5.3495713079E+00  2.6597403020E+00  5.3495713079E+00
                       8.0964886395E+00  5.3463478192E+00  5.3495713079E+00
                       2.6026539763E+00  5.3463478192E+00  5.3495713079E+00
                      -2.9923962997E-13  5.9474752582E-02 -2.9923034995E-13
           xangst3     2.6722281177E+00  2.6911149467E+00  2.6722281177E+00
                       8.0166843530E+00  8.0272173101E+00  8.0166843530E+00
                       5.3444562353E+00  7.8909469073E+00  5.3444562353E+00
                       5.3444562353E+00  5.3401756391E+00  2.6021441199E+00
                       5.3444562354E+00  5.3401756391E+00  8.0867683508E+00
                       5.3444562354E+00  2.6593620311E+00  5.3444562354E+00
                       8.0867683508E+00  5.3401756391E+00  5.3444562354E+00
                       2.6021441199E+00  5.3401756391E+00  5.3444562353E+00
                      -2.9939917227E-13  5.9475155954E-02 -2.9940964941E-13
           xangst4     2.6692502412E+00  2.6891021577E+00  2.6692502412E+00
                       8.0077507236E+00  8.0210411305E+00  8.0077507236E+00
                       5.3385004824E+00  7.8837650756E+00  5.3385004824E+00
                       5.3385004824E+00  5.3357422097E+00  2.6016046652E+00
                       5.3385004824E+00  5.3357422097E+00  8.0753962996E+00
                       5.3385004824E+00  2.6590632876E+00  5.3385004824E+00
                       8.0753962996E+00  5.3357422097E+00  5.3385004824E+00
                       2.6016046652E+00  5.3357422097E+00  5.3385004824E+00
                      -2.9878124816E-13  5.9571292612E-02 -2.9835061993E-13
           xangst5     2.6667058281E+00  2.6858711544E+00  2.6667058281E+00
                       8.0001174843E+00  8.0119152544E+00  8.0001174843E+00
                       5.3334116562E+00  7.8734824404E+00  5.3334116562E+00
                       5.3334116562E+00  5.3296269882E+00  2.6010030000E+00
                       5.3334116562E+00  5.3296269882E+00  8.0658203124E+00
                       5.3334116562E+00  2.6587159186E+00  5.3334116562E+00
                       8.0658203124E+00  5.3296269882E+00  5.3334116562E+00
                       2.6010030000E+00  5.3296269882E+00  5.3334116562E+00
                      -3.0011507823E-13  5.9860079882E-02 -3.0011507823E-13
            xcart1     5.0604003686E+00  5.0939437694E+00  5.0604003686E+00
                       1.5181201106E+01  1.5195982986E+01  1.5181201106E+01
                       1.0120800737E+01  1.4943728630E+01  1.0120800737E+01
                       1.0120800737E+01  1.0110788086E+01  4.9191783943E+00
                       1.0120800737E+01  1.0110788086E+01  1.5322423080E+01
                       1.0120800737E+01  5.0270224551E+00  1.0120800737E+01
                       1.5322423080E+01  1.0110788086E+01  1.0120800737E+01
                       4.9191783943E+00  1.0110788086E+01  1.0120800737E+01
                      -5.6267314884E-13  1.1248354869E-01 -5.6380556184E-13
            xcart2     5.0546123501E+00  5.0905772784E+00  5.0546123501E+00
                       1.5163837050E+01  1.5185389815E+01  1.5163837050E+01
                       1.0109224700E+01  1.4931428691E+01  1.0109224700E+01
                       1.0109224700E+01  1.0103133189E+01  4.9183032338E+00
                       1.0109224700E+01  1.0103133189E+01  1.5300146167E+01
                       1.0109224700E+01  5.0261807555E+00  1.0109224700E+01
                       1.5300146167E+01  1.0103133189E+01  1.0109224700E+01
                       4.9183032338E+00  1.0103133189E+01  1.0109224700E+01
                      -5.6548094876E-13  1.1239099420E-01 -5.6546341205E-13
            xcart3     5.0497793070E+00  5.0854702414E+00  5.0497793070E+00
                       1.5149337921E+01  1.5169242325E+01  1.5149337921E+01
                       1.0099558614E+01  1.4911728584E+01  1.0099558614E+01
                       1.0099558614E+01  1.0091469459E+01  4.9173397448E+00
                       1.0099558614E+01  1.0091469459E+01  1.5281777483E+01
                       1.0099558614E+01  5.0254659270E+00  1.0099558614E+01
                       1.5281777483E+01  1.0091469459E+01  1.0099558614E+01
                       4.9173397448E+00  1.0091469459E+01  1.0099558614E+01
                      -5.6578244001E-13  1.1239175646E-01 -5.6580223894E-13
            xcart4     5.0441519360E+00  5.0816666214E+00  5.0441519360E+00
                       1.5132455808E+01  1.5157571037E+01  1.5132455808E+01
                       1.0088303872E+01  1.4898156889E+01  1.0088303872E+01
                       1.0088303872E+01  1.0083091492E+01  4.9163203233E+00
                       1.0088303872E+01  1.0083091492E+01  1.5260287421E+01
                       1.0088303872E+01  5.0249013835E+00  1.0088303872E+01
                       1.5260287421E+01  1.0083091492E+01  1.0088303872E+01
                       4.9163203233E+00  1.0083091492E+01  1.0088303872E+01
                      -5.6461473265E-13  1.1257342842E-01 -5.6380096324E-13
            xcart5     5.0393436921E+00  5.0755609100E+00  5.0393436921E+00
                       1.5118031076E+01  1.5140325631E+01  1.5118031076E+01
                       1.0078687384E+01  1.4878725524E+01  1.0078687384E+01
                       1.0078687384E+01  1.0071535398E+01  4.9151833408E+00
                       1.0078687384E+01  1.0071535398E+01  1.5242191428E+01
                       1.0078687384E+01  5.0242449513E+00  1.0078687384E+01
                       1.5242191428E+01  1.0071535398E+01  1.0078687384E+01
                       4.9151833408E+00  1.0071535398E+01  1.0078687384E+01
                      -5.6713530620E-13  1.1311915727E-01 -5.6713530620E-13
             xred1     2.5212452953E-01  2.4787547047E-01  2.5212452953E-01
                       7.5212452953E-01  7.4787547047E-01  7.5212452953E-01
                       7.3963921094E-01  2.6036078906E-01  7.3963921094E-01
                       2.4345620668E-01  2.4259015685E-01  7.5740984315E-01
                       7.5740984315E-01  7.5654379332E-01  2.4345620668E-01
                       2.4881226193E-01  7.5118773807E-01  2.4881226193E-01
                       2.4345620668E-01  7.5654379332E-01  7.5740984315E-01
                       7.5740984315E-01  2.4259015685E-01  2.4345620668E-01
                       5.5673684432E-03 -5.5673684432E-03  5.5673684432E-03
             xred2     2.5213827696E-01  2.4786172304E-01  2.5213827696E-01
                       7.5213827696E-01  7.4786172304E-01  7.5213827696E-01
                       7.3955948350E-01  2.6044051650E-01  7.3955948350E-01
                       2.4367030669E-01  2.4284605631E-01  7.5715394369E-01
                       7.5715394369E-01  7.5632969331E-01  2.4367030669E-01
                       2.4894869208E-01  7.5105130792E-01  2.4894869208E-01
                       2.4367030669E-01  7.5632969331E-01  7.5715394369E-01
                       7.5715394369E-01  2.4284605631E-01  2.4367030669E-01
                       5.5667697540E-03 -5.5667697540E-03  5.5667697540E-03
             xred3     2.5216110594E-01  2.4783889406E-01  2.5216110594E-01
                       7.5216110594E-01  7.4783889406E-01  7.5216110594E-01
                       7.3939238511E-01  2.6060761489E-01  7.3939238511E-01
                       2.4382497092E-01  2.4306162806E-01  7.5693837194E-01
                       7.5693837194E-01  7.5617502908E-01  2.4382497092E-01
                       2.4918581485E-01  7.5081418515E-01  2.4918581485E-01
                       2.4382497092E-01  7.5617502908E-01  7.5693837194E-01
                       7.5693837194E-01  2.4306162806E-01  2.4382497092E-01
                       5.5729024580E-03 -5.5729024580E-03  5.5729024580E-03
             xred4     2.5216925507E-01  2.4783074493E-01  2.5216925507E-01
                       7.5216925507E-01  7.4783074493E-01  7.5216925507E-01
                       7.3929625937E-01  2.6070374063E-01  7.3929625937E-01
                       2.4402101217E-01  2.4330771877E-01  7.5669228123E-01
                       7.5669228123E-01  7.5597898783E-01  2.4402101217E-01
                       2.4935237454E-01  7.5064762546E-01  2.4935237454E-01
                       2.4402101217E-01  7.5597898783E-01  7.5669228123E-01
                       7.5669228123E-01  2.4330771877E-01  2.4402101217E-01
                       5.5862691711E-03 -5.5862691711E-03  5.5862691711E-03
             xred5     2.5214503522E-01  2.4785496478E-01  2.5214503522E-01
                       7.5214503522E-01  7.4785496478E-01  7.5214503522E-01
                       7.3914919709E-01  2.6085080291E-01  7.3914919709E-01
                       2.4417680579E-01  2.4350409485E-01  7.5649590515E-01
                       7.5649590515E-01  7.5582319421E-01  2.4417680579E-01
                       2.4959574768E-01  7.5040425232E-01  2.4959574768E-01
                       2.4417680579E-01  7.5582319421E-01  7.5649590515E-01
                       7.5649590515E-01  2.4350409485E-01  2.4417680579E-01
                       5.6195629212E-03 -5.6195629212E-03  5.6195629212E-03
            znucl       55.00000   53.00000   72.00000   35.00000

- Timing analysis has been suppressed with timopt=0

 Suggested references for the acknowledgment of ABINIT usage.

 Calculation completed.
.Delivered   0 WARNINGs and  78 COMMENTs to log file.