.Version 9.2.2 of ABINIT

 ABINIT is a project of the Universite Catholique de Louvain,
 Corning Inc. and other collaborators, see ~abinit/doc/developers/contributors.txt .
 acknowledgments of the ABINIT effort.

.Starting date : Wed  7 Dec 2022.
- ( at 09h29 )

- The starting date is more than 2 years after the initial release
- of this version of ABINIT, namely Nov 2020.
- Note that the use beyond 3 years after the release will not be supported.
- Action: please, switch to a more recent version of ABINIT.

- input  file    -> Cs2TiI6.in
- output file    -> Cs2TiI6.out
- root for input  files -> Cs2TiI6i
- root for output files -> Cs2TiI6o

- inpspheads : Reading pseudopotential header in XML form from
-   ../../../Psps_for_tests/ATOMICDATA/Cs.GGA_PBE-JTH.xml
- inpspheads : Reading pseudopotential header in XML form from
-   ../../../Psps_for_tests/ATOMICDATA/I.GGA_PBE-JTH.xml
- inpspheads : Reading pseudopotential header in XML form from
-   ../../../Psps_for_tests/ATOMICDATA/Zr.GGA_PBE-JTH.xml
- inpspheads : Reading pseudopotential header in XML form from
-   ../../../Psps_for_tests/ATOMICDATA/Cl.GGA_PBE-JTH.xml

 DATASET    1 : space group I4 m m (#107); Bravais tI (body-center tetrag.)
     intxc =       0    ionmov =       0      iscf =      17    lmnmax =      18
     lnmax =       6     mgfft =      60  mpssoang =       3    mqgrid =    3696
     natom =       9  nloc_mem =       2    nspden =       1   nspinor =       1
    nsppol =       1      nsym =       8    n1xccc =       1    ntypat =       4
    occopt =       1   xclevel =       2
-    mband =          42        mffmem =           1         mkmem =          41
       mpw =        8744          nfft =      216000          nkpt =         163
Pmy_natom=         3
 PAW method is used; the additional fine FFT grid is defined by:
   mgfftf=        96    nfftf =    884736
  Rough estimation (10% accuracy) of disk space for files :

 DATASET    2 : space group I4 m m (#107); Bravais tI (body-center tetrag.)
     intxc =       0    ionmov =       0      iscf =      17    lmnmax =      18
     lnmax =       6     mgfft =      60  mpssoang =       3    mqgrid =    3696
     natom =       9  nloc_mem =       2    nspden =       1   nspinor =       1
    nsppol =       1      nsym =       8    n1xccc =       1    ntypat =       4
    occopt =       1   xclevel =       2
-    mband =          42        mffmem =           1         mkmem =          41
       mpw =        8744          nfft =      216000          nkpt =         163
Pmy_natom=         3
 PAW method is used; the additional fine FFT grid is defined by:
   mgfftf=        96    nfftf =    884736
  Rough estimation (10% accuracy) of disk space for files :

------------- Echo of variables that govern the present computation ------------
-
- outvars: echo of selected default values
-   iomode0 =  0 , fftalg0 =112 , wfoptalg0 = 10
-
- outvars: echo of global parameters not present in the input file
-  max_nthreads =    0
-
 -outvars: echo values of preprocessed input variables --------
            acell1     1.5837124838E+01  1.5837124838E+01  1.6026639824E+01 Bohr
            acell2     1.5837125060E+01  1.5837125060E+01  1.6026639989E+01 Bohr
              amu      1.32905430E+02  1.26904470E+02  9.12240000E+01
                       3.54527000E+01
           diemac      1.20000000E+01
             ecut      1.60000000E+01 Hartree
-          fftalg         112
           istwfk        2    0    0    0    0    0    3    0    0    0
                         0    0    0    0    0    0    0    0    0    0
                         0    0    0    0    0    0    0    0    0    0
                         0    0    0    0    0    0    0    0    0    0
                         0    0    7    0    0    0    0    0    0    0
                       outvar_i_n : Printing only first  50 k-points.
              ixc     -101130
           jdtset        1    2
              kpt      0.00000000E+00  0.00000000E+00  0.00000000E+00
                       8.33333333E-02  0.00000000E+00  0.00000000E+00
                       1.66666667E-01  0.00000000E+00  0.00000000E+00
                       2.50000000E-01  0.00000000E+00  0.00000000E+00
                       3.33333333E-01  0.00000000E+00  0.00000000E+00
                       4.16666667E-01  0.00000000E+00  0.00000000E+00
                       5.00000000E-01  0.00000000E+00  0.00000000E+00
                       8.33333333E-02  8.33333333E-02  0.00000000E+00
                       1.66666667E-01  8.33333333E-02  0.00000000E+00
                       2.50000000E-01  8.33333333E-02  0.00000000E+00
                       3.33333333E-01  8.33333333E-02  0.00000000E+00
                       4.16666667E-01  8.33333333E-02  0.00000000E+00
                       5.00000000E-01  8.33333333E-02  0.00000000E+00
                      -4.16666667E-01  8.33333333E-02  0.00000000E+00
                      -3.33333333E-01  8.33333333E-02  0.00000000E+00
                      -2.50000000E-01  8.33333333E-02  0.00000000E+00
                      -1.66666667E-01  8.33333333E-02  0.00000000E+00
                      -8.33333333E-02  8.33333333E-02  0.00000000E+00
                       1.66666667E-01  1.66666667E-01  0.00000000E+00
                       2.50000000E-01  1.66666667E-01  0.00000000E+00
                       3.33333333E-01  1.66666667E-01  0.00000000E+00
                       4.16666667E-01  1.66666667E-01  0.00000000E+00
                       5.00000000E-01  1.66666667E-01  0.00000000E+00
                      -4.16666667E-01  1.66666667E-01  0.00000000E+00
                      -3.33333333E-01  1.66666667E-01  0.00000000E+00
                      -2.50000000E-01  1.66666667E-01  0.00000000E+00
                      -1.66666667E-01  1.66666667E-01  0.00000000E+00
                       2.50000000E-01  2.50000000E-01  0.00000000E+00
                       3.33333333E-01  2.50000000E-01  0.00000000E+00
                       4.16666667E-01  2.50000000E-01  0.00000000E+00
                       5.00000000E-01  2.50000000E-01  0.00000000E+00
                      -4.16666667E-01  2.50000000E-01  0.00000000E+00
                      -3.33333333E-01  2.50000000E-01  0.00000000E+00
                      -2.50000000E-01  2.50000000E-01  0.00000000E+00
                       3.33333333E-01  3.33333333E-01  0.00000000E+00
                       4.16666667E-01  3.33333333E-01  0.00000000E+00
                       5.00000000E-01  3.33333333E-01  0.00000000E+00
                      -4.16666667E-01  3.33333333E-01  0.00000000E+00
                      -3.33333333E-01  3.33333333E-01  0.00000000E+00
                       4.16666667E-01  4.16666667E-01  0.00000000E+00
                       5.00000000E-01  4.16666667E-01  0.00000000E+00
                      -4.16666667E-01  4.16666667E-01  0.00000000E+00
                       5.00000000E-01  5.00000000E-01  0.00000000E+00
                       8.33333333E-02  0.00000000E+00  8.33333333E-02
                       1.66666667E-01  0.00000000E+00  8.33333333E-02
                       2.50000000E-01  0.00000000E+00  8.33333333E-02
                       3.33333333E-01  0.00000000E+00  8.33333333E-02
                       4.16666667E-01  0.00000000E+00  8.33333333E-02
                       5.00000000E-01  0.00000000E+00  8.33333333E-02
                      -4.16666667E-01  0.00000000E+00  8.33333333E-02
                       outvar_i_n : Printing only first  50 k-points.
         kptrlatt       12    0    0      0   12    0      0    0   12
          kptrlen1     1.90045498E+02
          kptrlen2     1.90045501E+02
P           mkmem          41
            natom           9
            nband          42
           ndtset           2
            ngfft          60      60      60
          ngfftdg          96      96      96
             nkpt         163
            nstep        2500
             nsym           8
           ntypat           4
              occ      2.000000  2.000000  2.000000  2.000000  2.000000  2.000000
                       2.000000  2.000000  2.000000  2.000000  2.000000  2.000000
                       2.000000  2.000000  2.000000  2.000000  2.000000  2.000000
                       2.000000  2.000000  2.000000  2.000000  2.000000  2.000000
                       2.000000  2.000000  2.000000  2.000000  2.000000  2.000000
                       2.000000  2.000000  2.000000  2.000000  2.000000  2.000000
                       0.000000  0.000000  0.000000  0.000000  0.000000  0.000000
        pawecutdg      4.00000000E+01 Hartree
            prtwf           0
            rprim1     0.0000000000E+00  7.1556837589E-01  6.9854269693E-01
                       7.1556837589E-01  0.0000000000E+00  6.9854269693E-01
                       7.0710678119E-01  7.0710678119E-01  0.0000000000E+00
            rprim2     0.0000000000E+00  7.1556837320E-01  6.9854269968E-01
                       7.1556837320E-01  0.0000000000E+00  6.9854269968E-01
                       7.0710678119E-01  7.0710678119E-01  0.0000000000E+00
          spgroup         107
           symrel      1  0  0   0  1  0   0  0  1       1  0 -1   0  1 -1   0  0 -1
                       0  1 -1   1  0 -1   0  0 -1       0  1  0   1  0  0   0  0  1
                       1  0  0   1  0 -1   1 -1  0       0  1  0   0  1 -1  -1  1  0
                       0  1 -1   0  1  0  -1  1  0       1  0 -1   1  0  0   1 -1  0
           toldfe      1.00000000E-08 Hartree
            typat1     1  1  4  2  2  2  2  2  3
            typat2     1  1  2  4  2  2  2  2  3
           useylm           1
              wtk        0.00058    0.00463    0.00463    0.00463    0.00463    0.00463
                         0.00231    0.00116    0.00463    0.00463    0.00463    0.00463
                         0.00463    0.00463    0.00463    0.00463    0.00463    0.00231
                         0.00116    0.00463    0.00463    0.00463    0.00463    0.00463
                         0.00463    0.00463    0.00231    0.00116    0.00463    0.00463
                         0.00463    0.00463    0.00463    0.00231    0.00116    0.00463
                         0.00463    0.00463    0.00231    0.00116    0.00463    0.00231
                         0.00058    0.00231    0.00926    0.00926    0.00926    0.00926
                         0.00926    0.00926
                       outvars : Printing only first  50 k-points.
           xangst1     2.9984624497E+00  2.9984624497E+00  2.9637552311E+00
                       8.9953873490E+00  8.9953873490E+00  8.8179939504E+00
                       5.9969248993E+00  5.9969248993E+00  2.5203345619E+00
                       5.9969248993E+00  5.9969248993E+00  8.8965090273E+00
                       9.1003111096E+00  5.9969248993E+00  5.8878772995E+00
                       5.9969248993E+00  9.1003111096E+00  5.8878772995E+00
                       5.9969248993E+00  2.8935386891E+00  5.8878772995E+00
                       2.8935386891E+00  5.9969248993E+00  5.8878772995E+00
                      -5.5026094033E-13 -5.5026094033E-13  8.3807785145E-02
[...]

 cartesian forces (eV/Angstrom) at end:
    1     -0.00000000000000     0.00000000000000    -0.00027096191157
    2     -0.00000000000000     0.00000000000000    -0.00027096191157
    3     -0.00000000000000     0.00000000000000    -0.00092844507284
    4      0.00000000000000    -0.00000000000000     0.00157197120598
    5     -0.00027628992869     0.00000000000001     0.00015337395055
    6      0.00000000000001    -0.00027628992869     0.00015337395055
    7     -0.00000000000001     0.00027628992869     0.00015337395057
    8      0.00027628992869    -0.00000000000001     0.00015337395057
    9     -0.00000000000000     0.00000000000000    -0.00071509811225
 frms,max,avg= 4.0326209E-04 1.5719712E-03   0.000E+00  0.000E+00  4.598E-04 e/A
 length scales= 15.837125060000 15.837125060000 16.026639989000 bohr
              =  8.380645631342  8.380645631342  8.480932612456 angstroms
 prteigrs : about to open file Cs2TiI6o_DS2_EIG
 Fermi (or HOMO) energy (hartree) =  -0.09972   Average Vxc (hartree)=  -0.27607
 Eigenvalues (hartree) for nkpt= 163  k points:
 kpt#   1, nband= 42, wtk=  0.00058, kpt=  0.0000  0.0000  0.0000 (reduced coord)
  -1.91710   -1.10812   -1.10687   -1.10687   -0.85615   -0.85606   -0.62100   -0.52152
  -0.50782   -0.50782   -0.50534   -0.50248   -0.37277   -0.37222   -0.37222   -0.37101
  -0.37101   -0.37098   -0.23134   -0.20153   -0.20070   -0.20070   -0.17746   -0.17744
  -0.17744   -0.17027   -0.16755   -0.14183   -0.14183   -0.12615   -0.11489   -0.11471
  -0.11471   -0.10031   -0.09972   -0.09972   -0.03142   -0.02464   -0.02464    0.04734
   0.05679    0.06226
 prteigrs : prtvol=0 or 1, do not print more k-points.

--- !EnergyTerms
iteration_state     : {dtset: 2, }
comment             : Components of total free energy in Hartree
kinetic             :  4.62395484933446E+01
hartree             :  4.03962563720026E+01
xc                  : -5.63427582778109E+01
Ewald energy        : -1.12092239605150E+02
psp_core            :  1.37016440318635E+01
local_psp           : -1.17985195256832E+02
spherical_terms     :  2.37587474392901E+01
total_energy        : -1.62323996803293E+02
total_energy_eV     : -4.41706058670381E+03
...

--- !EnergyTermsDC
iteration_state     : {dtset: 2, }
comment             : '"Double-counting" decomposition of free energy'
band_energy         : -3.03286704692040E+01
Ewald energy        : -1.12092239605150E+02
psp_core            :  1.37016440318635E+01
xc_dc               : -5.52899550126536E+01
spherical_terms     :  2.16853021268467E+01
total_energy_dc     : -1.62323918928298E+02
total_energy_dc_eV  : -4.41705846761743E+03
...

 Cartesian components of stress tensor (hartree/bohr^3)
  sigma(1 1)=  2.86127343E-06  sigma(3 2)=  1.22895098E-13
  sigma(2 2)=  2.86127343E-06  sigma(3 1)=  1.22893811E-13
  sigma(3 3)=  2.86178794E-06  sigma(2 1)= -2.39938155E-13

-Cartesian components of stress tensor (GPa)         [Pressure= -8.4187E-02 GPa]
- sigma(1 1)=  8.41815564E-02  sigma(3 2)=  3.61569802E-09
- sigma(2 2)=  8.41815564E-02  sigma(3 1)=  3.61566014E-09
- sigma(3 3)=  8.41966939E-02  sigma(2 1)= -7.05922304E-09

== END DATASET(S) ==============================================================

 -outvars: echo values of variables after computation  --------
            acell1     1.5837124838E+01  1.5837124838E+01  1.6026639824E+01 Bohr
            acell2     1.5837125060E+01  1.5837125060E+01  1.6026639989E+01 Bohr
              amu      1.32905430E+02  1.26904470E+02  9.12240000E+01
                       3.54527000E+01
           diemac      1.20000000E+01
             ecut      1.60000000E+01 Hartree
           etotal1    -1.6232391893E+02
           etotal2    -1.6232391893E+02
            fcart1     6.0842210567E-22 -6.4521584845E-22  5.2851873030E-06
                       3.9666386885E-22 -4.3345761163E-22  5.2851873030E-06
                      -9.3959696018E-22  9.0280321740E-22 -3.0783820880E-05
                      -2.4969013171E-22  2.1289638892E-22  1.7961824504E-05
                      -5.4838208461E-06  3.5147508777E-17 -3.0017845680E-06
                       3.5147654382E-17 -5.4838208461E-06 -3.0017845680E-06
                      -3.5148641689E-17  5.4838208461E-06 -3.0017845680E-06
                       5.4838208461E-06 -3.5147691176E-17 -3.0017845680E-06
                       5.6109850598E-22 -5.9789224876E-22  1.4258760043E-05
            fcart2    -3.7571738565E-22  2.7942269098E-22 -5.2693706698E-06
                      -2.5117449168E-22  1.5487979701E-22 -5.2693706698E-06
                      -6.3104544023E-22  5.3475074556E-22 -1.8055383530E-05
                       1.1762135119E-22 -2.1391604586E-22  3.0569975384E-05
                      -5.3729841150E-06  1.3360097016E-16  2.9826487121E-06
                       1.3360009620E-16 -5.3729841150E-06  2.9826487121E-06
                      -1.3359792741E-16  5.3729841150E-06  2.9826487124E-06
                       5.3729841150E-06 -1.3360061601E-16  2.9826487124E-06
                      -3.5411226779E-22  2.5781757312E-22 -1.3906445363E-05
-          fftalg         112
           istwfk        2    0    0    0    0    0    3    0    0    0
                         0    0    0    0    0    0    0    0    0    0
                         0    0    0    0    0    0    0    0    0    0
                         0    0    0    0    0    0    0    0    0    0
                         0    0    7    0    0    0    0    0    0    0
                       outvar_i_n : Printing only first  50 k-points.
              ixc     -101130
           jdtset        1    2
              kpt      0.00000000E+00  0.00000000E+00  0.00000000E+00
                       8.33333333E-02  0.00000000E+00  0.00000000E+00
                       1.66666667E-01  0.00000000E+00  0.00000000E+00
                       2.50000000E-01  0.00000000E+00  0.00000000E+00
                       3.33333333E-01  0.00000000E+00  0.00000000E+00
                       4.16666667E-01  0.00000000E+00  0.00000000E+00
                       5.00000000E-01  0.00000000E+00  0.00000000E+00
                       8.33333333E-02  8.33333333E-02  0.00000000E+00
                       1.66666667E-01  8.33333333E-02  0.00000000E+00
                       2.50000000E-01  8.33333333E-02  0.00000000E+00
                       3.33333333E-01  8.33333333E-02  0.00000000E+00
                       4.16666667E-01  8.33333333E-02  0.00000000E+00
                       5.00000000E-01  8.33333333E-02  0.00000000E+00
                      -4.16666667E-01  8.33333333E-02  0.00000000E+00
                      -3.33333333E-01  8.33333333E-02  0.00000000E+00
                      -2.50000000E-01  8.33333333E-02  0.00000000E+00
                      -1.66666667E-01  8.33333333E-02  0.00000000E+00
                      -8.33333333E-02  8.33333333E-02  0.00000000E+00
                       1.66666667E-01  1.66666667E-01  0.00000000E+00
                       2.50000000E-01  1.66666667E-01  0.00000000E+00
                       3.33333333E-01  1.66666667E-01  0.00000000E+00
                       4.16666667E-01  1.66666667E-01  0.00000000E+00
                       5.00000000E-01  1.66666667E-01  0.00000000E+00
                      -4.16666667E-01  1.66666667E-01  0.00000000E+00
                      -3.33333333E-01  1.66666667E-01  0.00000000E+00
                      -2.50000000E-01  1.66666667E-01  0.00000000E+00
                      -1.66666667E-01  1.66666667E-01  0.00000000E+00
                       2.50000000E-01  2.50000000E-01  0.00000000E+00
                       3.33333333E-01  2.50000000E-01  0.00000000E+00
                       4.16666667E-01  2.50000000E-01  0.00000000E+00
                       5.00000000E-01  2.50000000E-01  0.00000000E+00
                      -4.16666667E-01  2.50000000E-01  0.00000000E+00
                      -3.33333333E-01  2.50000000E-01  0.00000000E+00
                      -2.50000000E-01  2.50000000E-01  0.00000000E+00
                       3.33333333E-01  3.33333333E-01  0.00000000E+00
                       4.16666667E-01  3.33333333E-01  0.00000000E+00
                       5.00000000E-01  3.33333333E-01  0.00000000E+00
                      -4.16666667E-01  3.33333333E-01  0.00000000E+00
                      -3.33333333E-01  3.33333333E-01  0.00000000E+00
                       4.16666667E-01  4.16666667E-01  0.00000000E+00
                       5.00000000E-01  4.16666667E-01  0.00000000E+00
                      -4.16666667E-01  4.16666667E-01  0.00000000E+00
                       5.00000000E-01  5.00000000E-01  0.00000000E+00
                       8.33333333E-02  0.00000000E+00  8.33333333E-02
                       1.66666667E-01  0.00000000E+00  8.33333333E-02
                       2.50000000E-01  0.00000000E+00  8.33333333E-02
                       3.33333333E-01  0.00000000E+00  8.33333333E-02
                       4.16666667E-01  0.00000000E+00  8.33333333E-02
                       5.00000000E-01  0.00000000E+00  8.33333333E-02
                      -4.16666667E-01  0.00000000E+00  8.33333333E-02
                       outvar_i_n : Printing only first  50 k-points.
         kptrlatt       12    0    0      0   12    0      0    0   12
          kptrlen1     1.90045498E+02
          kptrlen2     1.90045501E+02
P           mkmem          41
            natom           9
            nband          42
           ndtset           2
            ngfft          60      60      60
          ngfftdg          96      96      96
             nkpt         163
            nstep        2500
             nsym           8
           ntypat           4
              occ      2.000000  2.000000  2.000000  2.000000  2.000000  2.000000
                       2.000000  2.000000  2.000000  2.000000  2.000000  2.000000
                       2.000000  2.000000  2.000000  2.000000  2.000000  2.000000
                       2.000000  2.000000  2.000000  2.000000  2.000000  2.000000
                       2.000000  2.000000  2.000000  2.000000  2.000000  2.000000
                       2.000000  2.000000  2.000000  2.000000  2.000000  2.000000
                       0.000000  0.000000  0.000000  0.000000  0.000000  0.000000
        pawecutdg      4.00000000E+01 Hartree
            prtwf           0
            rprim1     0.0000000000E+00  7.1556837589E-01  6.9854269693E-01
                       7.1556837589E-01  0.0000000000E+00  6.9854269693E-01
                       7.0710678119E-01  7.0710678119E-01  0.0000000000E+00
            rprim2     0.0000000000E+00  7.1556837320E-01  6.9854269968E-01
                       7.1556837320E-01  0.0000000000E+00  6.9854269968E-01
                       7.0710678119E-01  7.0710678119E-01  0.0000000000E+00
          spgroup         107
           strten1     2.8605774205E-06  2.8605774205E-06  2.8614248335E-06
                       3.1677240095E-14  3.1678205905E-14 -6.1848922560E-14
           strten2     2.8612734281E-06  2.8612734281E-06  2.8617879404E-06
                       1.2289509844E-13  1.2289381093E-13 -2.3993815465E-13
           symrel      1  0  0   0  1  0   0  0  1       1  0 -1   0  1 -1   0  0 -1
                       0  1 -1   1  0 -1   0  0 -1       0  1  0   1  0  0   0  0  1
                       1  0  0   1  0 -1   1 -1  0       0  1  0   0  1 -1  -1  1  0
                       0  1 -1   0  1  0  -1  1  0       1  0 -1   1  0  0   1 -1  0
           toldfe      1.00000000E-08 Hartree
            typat1     1  1  4  2  2  2  2  2  3
            typat2     1  1  2  4  2  2  2  2  3
           useylm           1
              wtk        0.00058    0.00463    0.00463    0.00463    0.00463    0.00463
                         0.00231    0.00116    0.00463    0.00463    0.00463    0.00463
                         0.00463    0.00463    0.00463    0.00463    0.00463    0.00231
                         0.00116    0.00463    0.00463    0.00463    0.00463    0.00463
                         0.00463    0.00463    0.00231    0.00116    0.00463    0.00463
                         0.00463    0.00463    0.00463    0.00231    0.00116    0.00463
                         0.00463    0.00463    0.00231    0.00116    0.00463    0.00231
                         0.00058    0.00231    0.00926    0.00926    0.00926    0.00926
                         0.00926    0.00926
                       outvars : Printing only first  50 k-points.
           xangst1     2.9984624497E+00  2.9984624497E+00  2.9637552311E+00
                       8.9953873490E+00  8.9953873490E+00  8.8179939504E+00
                       5.9969248993E+00  5.9969248993E+00  2.5203345619E+00
                       5.9969248993E+00  5.9969248993E+00  8.8965090273E+00
                       9.1003111096E+00  5.9969248993E+00  5.8878772995E+00
                       5.9969248993E+00  9.1003111096E+00  5.8878772995E+00
                       5.9969248993E+00  2.8935386891E+00  5.8878772995E+00
                       2.8935386891E+00  5.9969248993E+00  5.8878772995E+00
                      -5.5026094033E-13 -5.5026094033E-13  8.3807785145E-02
           xangst2     2.9984624805E+00  2.9984624805E+00  2.8904835021E+00
                       8.9953874414E+00  8.9953874414E+00  8.7447223265E+00
                       5.9969249610E+00  5.9969249610E+00  2.8119684224E+00
                       5.9969249608E+00  5.9969249608E+00  9.1881430733E+00
                       9.1003112245E+00  5.9969249610E+00  5.8206002654E+00
                       5.9969249610E+00  9.1003112245E+00  5.8206002654E+00
                       5.9969249609E+00  2.8935386974E+00  5.8206002654E+00
                       2.8935386974E+00  5.9969249609E+00  5.8206002654E+00
                       2.1346852462E-12  2.1346852462E-12 -8.3807790630E-02
            xcart1     5.6662728496E+00  5.6662728496E+00  5.6006857117E+00
                       1.6998818549E+01  1.6998818549E+01  1.6663593608E+01
                       1.1332545699E+01  1.1332545699E+01  4.7627420853E+00
                       1.1332545699E+01  1.1332545699E+01  1.6811965600E+01
                       1.7197095721E+01  1.1332545699E+01  1.1126475600E+01
                       1.1332545699E+01  1.7197095721E+01  1.1126475600E+01
                       1.1332545699E+01  5.4679956772E+00  1.1126475600E+01
                       5.4679956772E+00  1.1332545699E+01  1.1126475600E+01
                      -1.0398424788E-12 -1.0398424788E-12  1.5837376173E-01
            xcart2     5.6662729078E+00  5.6662729078E+00  5.4622222107E+00
                       1.6998818723E+01  1.6998818723E+01  1.6525130305E+01
                       1.1332545816E+01  1.1332545816E+01  5.3138502126E+00
                       1.1332545815E+01  1.1332545815E+01  1.7363074078E+01
                       1.7197095938E+01  1.1332545816E+01  1.0999340431E+01
                       1.1332545816E+01  1.7197095938E+01  1.0999340431E+01
                       1.1332545815E+01  5.4679956930E+00  1.0999340431E+01
                       5.4679956930E+00  1.1332545815E+01  1.0999340431E+01
                       4.0339704953E-12  4.0339704953E-12 -1.5837377209E-01
             xred1     2.5312900389E-01  2.5312900389E-01  2.4687099611E-01
                       7.5312900389E-01  7.5312900389E-01  7.4687099611E-01
                       2.1525724204E-01  2.1525724204E-01  7.8474275796E-01
                       7.5983483540E-01  7.5983483540E-01  2.4016516460E-01
                       2.4412488036E-01  7.6162114092E-01  7.5587511964E-01
                       7.6162114092E-01  2.4412488036E-01  7.5587511964E-01
                       2.4412488036E-01  7.6162114092E-01  2.3837885908E-01
                       7.6162114092E-01  2.4412488036E-01  2.3837885908E-01
                       7.1578721986E-03  7.1578721986E-03 -7.1578721986E-03
             xred2     2.4687099287E-01  2.4687099287E-01  2.5312900713E-01
                       7.4687099287E-01  7.4687099287E-01  7.5312900713E-01
                       2.4016516124E-01  2.4016516124E-01  7.5983483876E-01
                       7.8474276067E-01  7.8474276067E-01  2.1525723933E-01
                       2.3837885916E-01  7.5587512329E-01  7.6162114084E-01
                       7.5587512329E-01  2.3837885916E-01  7.6162114084E-01
                       2.3837885916E-01  7.5587512329E-01  2.4412487671E-01
                       7.5587512329E-01  2.3837885916E-01  2.4412487671E-01
                      -7.1578725385E-03 -7.1578725385E-03  7.1578725385E-03
            znucl       55.00000   53.00000   40.00000   17.00000

- Timing analysis has been suppressed with timopt=0

 Suggested references for the acknowledgment of ABINIT usage.

 Calculation completed.
.Delivered   0 WARNINGs and   0 COMMENTs to log file.