.Version 9.2.2 of ABINIT

 ABINIT is a project of the Universite Catholique de Louvain,
 Corning Inc. and other collaborators, see ~abinit/doc/developers/contributors.txt .
 acknowledgments of the ABINIT effort.

.Starting date : Sat 26 Nov 2022.
- ( at 23h15 )

- input  file    -> Cs2TiI6.in
- output file    -> Cs2TiI6.out
- root for input  files -> Cs2TiI6i
- root for output files -> Cs2TiI6o

- inpspheads : Reading pseudopotential header in XML form from
-   ../../../Psps_for_tests/ATOMICDATA/Cs.GGA_PBE-JTH.xml
- inpspheads : Reading pseudopotential header in XML form from
-   ../../../Psps_for_tests/ATOMICDATA/I.GGA_PBE-JTH.xml
- inpspheads : Reading pseudopotential header in XML form from
-   ../../../Psps_for_tests/ATOMICDATA/Zr.GGA_PBE-JTH.xml
- inpspheads : Reading pseudopotential header in XML form from
-   ../../../Psps_for_tests/ATOMICDATA/Br.GGA_PBE-JTH.xml

 DATASET    1 : space group I4/m m m (#139); Bravais tI (body-center tetrag.)
     intxc =       0    ionmov =       2      iscf =      17    lmnmax =      18
     lnmax =       6     mgfft =      60  mpssoang =       3    mqgrid =    3812
     natom =       9  nloc_mem =       2    nspden =       1   nspinor =       1
    nsppol =       1      nsym =      16    n1xccc =       1    ntypat =       4
    occopt =       1   xclevel =       2
-    mband =          42        mffmem =           1         mkmem =           4
       mpw =        9539          nfft =      216000          nkpt =          20
Pmy_natom=         2
 PAW method is used; the additional fine FFT grid is defined by:
   mgfftf=        96    nfftf =    884736
  Rough estimation (10% accuracy) of disk space for files :

[...]

 DATASET   10 : space group I4/m m m (#139); Bravais tI (body-center tetrag.)
     intxc =       0    ionmov =       2      iscf =      17    lmnmax =      18
     lnmax =       6     mgfft =      60  mpssoang =       3    mqgrid =    3795
     natom =       9  nloc_mem =       2    nspden =       1   nspinor =       1
    nsppol =       1      nsym =      16    n1xccc =       1    ntypat =       4
    occopt =       1   xclevel =       2
-    mband =          42        mffmem =           1         mkmem =           4
       mpw =        9417          nfft =      216000          nkpt =          20
Pmy_natom=         2
 PAW method is used; the additional fine FFT grid is defined by:
   mgfftf=        96    nfftf =    884736
  Rough estimation (10% accuracy) of disk space for files :

------------- Echo of variables that govern the present computation ------------
-
- outvars: echo of selected default values
-   iomode0 =  0 , fftalg0 =112 , wfoptalg0 = 10
-
- outvars: echo of global parameters not present in the input file
-  max_nthreads =    0
-
 -outvars: echo values of preprocessed input variables --------
            acell1     1.4255766768E+01  1.4255766768E+01  1.4259162497E+01 Bohr
            acell2     1.4248674346E+01  1.4248674346E+01  1.4252068386E+01 Bohr
            acell3     1.4241581925E+01  1.4241581925E+01  1.4244974276E+01 Bohr
            acell4     1.4234489504E+01  1.4234489504E+01  1.4237880165E+01 Bohr
            acell5     1.4227397083E+01  1.4227397083E+01  1.4230786054E+01 Bohr
            acell6     1.4220304661E+01  1.4220304661E+01  1.4223691943E+01 Bohr
            acell7     1.4213212240E+01  1.4213212240E+01  1.4216597833E+01 Bohr
            acell8     1.4206119819E+01  1.4206119819E+01  1.4209503722E+01 Bohr
            acell9     1.4199027398E+01  1.4199027398E+01  1.4202409611E+01 Bohr
            acell10    1.4191934976E+01  1.4191934976E+01  1.4195315501E+01 Bohr
              amu      1.32905430E+02  1.26904470E+02  9.12240000E+01
                       7.99040000E+01
           diemac      1.20000000E+01
          dilatmx      1.15000000E+00
             ecut      1.60000000E+01 Hartree
           ecutsm      5.00000000E-01 Hartree
-          fftalg         112
          getxred1          0
          getxred2         -1
          getxred3         -1
          getxred4         -1
          getxred5         -1
          getxred6         -1
          getxred7         -1
          getxred8         -1
          getxred9         -1
          getxred10        -1
           ionmov           2
              ixc     -101130
           jdtset        1    2    3    4    5    6    7    8    9   10
              kpt     -1.25000000E-01 -2.50000000E-01  0.00000000E+00
                      -1.25000000E-01  5.00000000E-01  0.00000000E+00
                      -2.50000000E-01 -3.75000000E-01  0.00000000E+00
                      -1.25000000E-01 -3.75000000E-01  1.25000000E-01
                      -1.25000000E-01  2.50000000E-01  0.00000000E+00
                      -2.50000000E-01  3.75000000E-01  0.00000000E+00
                      -1.25000000E-01  3.75000000E-01  1.25000000E-01
                      -3.75000000E-01  5.00000000E-01  0.00000000E+00
                      -2.50000000E-01  5.00000000E-01  1.25000000E-01
                      -1.25000000E-01  5.00000000E-01  2.50000000E-01
                      -1.25000000E-01  0.00000000E+00  0.00000000E+00
                      -1.25000000E-01  1.25000000E-01  1.25000000E-01
                      -1.25000000E-01  2.50000000E-01  2.50000000E-01
                      -1.25000000E-01  3.75000000E-01  3.75000000E-01
                      -3.75000000E-01  0.00000000E+00  0.00000000E+00
                      -2.50000000E-01  0.00000000E+00  1.25000000E-01
                      -3.75000000E-01  1.25000000E-01  1.25000000E-01
                      -2.50000000E-01  1.25000000E-01  2.50000000E-01
                      -3.75000000E-01  2.50000000E-01  2.50000000E-01
                      -2.50000000E-01  2.50000000E-01  3.75000000E-01
         kptrlatt        4   -4    4     -4    4    4     -4   -4    4
          kptrlen1     8.06235811E+01
          kptrlen2     8.05834699E+01
          kptrlen3     8.05433586E+01
          kptrlen4     8.05032474E+01
          kptrlen5     8.04631362E+01
          kptrlen6     8.04230249E+01
          kptrlen7     8.03829137E+01
          kptrlen8     8.03428025E+01
          kptrlen9     8.03026912E+01
          kptrlen10    8.02625800E+01
P           mkmem           4
            natom           9
            nband          42
           ndtset          10
            ngfft          60      60      60
          ngfftdg          96      96      96
             nkpt          20
            nstep        2500
             nsym          16
            ntime        1000
           ntypat           4
              occ      2.000000  2.000000  2.000000  2.000000  2.000000  2.000000
                       2.000000  2.000000  2.000000  2.000000  2.000000  2.000000
                       2.000000  2.000000  2.000000  2.000000  2.000000  2.000000
                       2.000000  2.000000  2.000000  2.000000  2.000000  2.000000
                       2.000000  2.000000  2.000000  2.000000  2.000000  2.000000
                       2.000000  2.000000  2.000000  2.000000  2.000000  2.000000
                       0.000000  0.000000  0.000000  0.000000  0.000000  0.000000
          optcell           3
        optforces           1
        pawecutdg      4.00000000E+01 Hartree
            prtwf           0
            rprim      0.0000000000E+00  7.0727521432E-01  7.0693830792E-01
                       7.0727521432E-01  0.0000000000E+00  7.0693830792E-01
                       7.0710678119E-01  7.0710678119E-01  0.0000000000E+00
           shiftk      5.00000000E-01  5.00000000E-01  5.00000000E-01
          spgroup         139
           symrel      1  0  0   0  1  0   0  0  1      -1  0  0   0 -1  0   0  0 -1
                      -1  0  1   0 -1  1   0  0  1       1  0 -1   0  1 -1   0  0 -1
                       0  1 -1   1  0 -1   0  0 -1       0 -1  1  -1  0  1   0  0  1
                       0 -1  0  -1  0  0   0  0 -1       0  1  0   1  0  0   0  0  1
                       1  0  0   1  0 -1   1 -1  0      -1  0  0  -1  0  1  -1  1  0
                       0 -1  0   0 -1  1   1 -1  0       0  1  0   0  1 -1  -1  1  0
                       0  1 -1   0  1  0  -1  1  0       0 -1  1   0 -1  0   1 -1  0
                      -1  0  1  -1  0  0  -1  1  0       1  0 -1   1  0  0   1 -1  0
           toldff      1.00000000E-08
           tolmxf      1.00000000E-05
            typat      1  1  2  2  4  4  4  4  3
           useylm           1
              wtk        0.03125    0.03125    0.03125    0.06250    0.03125    0.03125
                         0.06250    0.03125    0.06250    0.06250    0.03125    0.06250
                         0.06250    0.06250    0.03125    0.06250    0.06250    0.06250
                         0.06250    0.06250
           xangst1     2.6677808811E+00  2.6677808811E+00  2.6665100994E+00
                       8.0033426434E+00  8.0033426434E+00  7.9995302982E+00
                       5.3355617623E+00  5.3355617623E+00  2.8434303277E+00
                       5.3355617623E+00  5.3355617623E+00  7.8226100700E+00
                       8.0510014645E+00  5.3355617623E+00  5.3330201988E+00
                       5.3355617623E+00  8.0510014645E+00  5.3330201988E+00
                       5.3355617623E+00  2.6201220601E+00  5.3330201988E+00
                       2.6201220601E+00  5.3355617623E+00  5.3330201988E+00
                      -1.8938268807E-20 -3.5734956836E-20 -7.0662947049E-22
           xangst2     2.6664536270E+00  2.6664536270E+00  2.6651834775E+00
                       7.9993608809E+00  7.9993608809E+00  7.9955504324E+00
                       5.3329072539E+00  5.3329072539E+00  2.8420156857E+00
                       5.3329072540E+00  5.3329072540E+00  7.8187182242E+00
                       8.0469959911E+00  5.3329072539E+00  5.3303669549E+00
                       5.3329072539E+00  8.0469959911E+00  5.3303669549E+00
                       5.3329072540E+00  2.6188185168E+00  5.3303669549E+00
                       2.6188185168E+00  5.3329072540E+00  5.3303669549E+00
                      -1.8928846783E-20 -3.5717178251E-20 -7.0627791354E-22
           xangst3     2.6651263728E+00  2.6651263728E+00  2.6638568555E+00
                       7.9953791184E+00  7.9953791184E+00  7.9915705666E+00
                       5.3302527456E+00  5.3302527456E+00  2.8406010437E+00
                       5.3302527456E+00  5.3302527456E+00  7.8148263784E+00
                       8.0429905177E+00  5.3302527456E+00  5.3277137111E+00
                       5.3302527456E+00  8.0429905177E+00  5.3277137111E+00
                       5.3302527457E+00  2.6175149735E+00  5.3277137111E+00
                       2.6175149735E+00  5.3302527457E+00  5.3277137111E+00
                      -1.8919424758E-20 -3.5699399665E-20 -7.0592635659E-22
           xangst4     2.6637991186E+00  2.6637991186E+00  2.6625302336E+00
                       7.9913973559E+00  7.9913973559E+00  7.9875907008E+00
                       5.3275982372E+00  5.3275982372E+00  2.8391864018E+00
                       5.3275982373E+00  5.3275982373E+00  7.8109345326E+00
                       8.0389850444E+00  5.3275982372E+00  5.3250604672E+00
[...]
                      -1.8892734797E-20 -3.5649037900E-20 -7.0475408396E-22
           xangst7     2.6599799640E+00  2.6599799640E+00  2.6582253368E+00
                       7.9799398919E+00  7.9799398919E+00  7.9746760104E+00
                       5.3199599279E+00  5.3199599279E+00  2.8318924794E+00
                       5.3199599280E+00  5.3199599280E+00  7.8010088678E+00
                       8.0314800718E+00  5.3199599279E+00  5.3164506736E+00
                       5.3199599279E+00  8.0314800718E+00  5.3164506736E+00
                       5.3199599280E+00  2.6084397842E+00  5.3164506736E+00
                       2.6084397842E+00  5.3199599280E+00  5.3164506736E+00
                      -1.8855824658E-20 -3.6054405222E-20 -3.7196029523E-22
           xangst8     2.6586179222E+00  2.6586179222E+00  2.6569682455E+00
                       7.9758537667E+00  7.9758537667E+00  7.9709047365E+00
                       5.3172358444E+00  5.3172358444E+00  2.8312387115E+00
                       5.3172358445E+00  5.3172358445E+00  7.7966342704E+00
                       8.0264137526E+00  5.3172358444E+00  5.3139364910E+00
                       5.3172358444E+00  8.0264137526E+00  5.3139364910E+00
                       5.3172358445E+00  2.6080579363E+00  5.3139364910E+00
                       2.6080579363E+00  5.3172358445E+00  5.3139364910E+00
                      -1.8857323293E-20 -3.5424463539E-20 -8.5233579680E-22
           xangst9     2.6572676728E+00  2.6572676728E+00  2.6556875862E+00
                       7.9718030183E+00  7.9718030183E+00  7.9670627587E+00
                       5.3145353455E+00  5.3145353455E+00  2.8305945652E+00
                       5.3145353455E+00  5.3145353455E+00  7.7921557797E+00
                       8.0213354391E+00  5.3145353455E+00  5.3113751724E+00
                       5.3145353455E+00  8.0213354391E+00  5.3113751724E+00
                       5.3145353455E+00  2.6077352519E+00  5.3113751724E+00
                       2.6077352519E+00  5.3145353455E+00  5.3113751724E+00
                      -1.8863636753E-20 -3.5594132284E-20 -7.0376148707E-22
           xangst10    2.6559213432E+00  2.6559213432E+00  2.6543990927E+00
                       7.9677640297E+00  7.9677640297E+00  7.9631972781E+00
                       5.3118426864E+00  5.3118426864E+00  2.8299389508E+00
                       5.3118426865E+00  5.3118426865E+00  7.7876574200E+00
                       8.0162380452E+00  5.3118426864E+00  5.3087981854E+00
                       5.3118426864E+00  8.0162380452E+00  5.3087981854E+00
                       5.3118426865E+00  2.6074473277E+00  5.3087981854E+00
                       2.6074473277E+00  5.3118426865E+00  5.3087981854E+00
                      -1.8854079315E-20 -3.5576098184E-20 -7.0342003421E-22
            xcart1     5.0430730666E+00  5.0430730666E+00  5.0355815124E+00
                       1.5129219200E+01  1.5129219200E+01  1.5106744537E+01
                       1.0086146133E+01  1.0086146133E+01  5.3584180788E+00
                       1.0086146133E+01  1.0086146133E+01  1.4783907971E+01
                       1.5239261212E+01  1.0086146133E+01  1.0071163025E+01
                       1.0086146133E+01  1.5239261212E+01  1.0071163025E+01
                       1.0086146133E+01  4.9330310539E+00  1.0071163025E+01
                       4.9330310539E+00  1.0086146133E+01  1.0071163025E+01
                      -4.0003670580E-20 -6.2067995121E-20 -8.7435230496E-21
            xcart2     5.0406105882E+00  5.0406105882E+00  5.0329833611E+00
                       1.5121831765E+01  1.5121831765E+01  1.5098950083E+01
                       1.0081221176E+01  1.0081221176E+01  5.3571813958E+00
                       1.0081221176E+01  1.0081221176E+01  1.4774752048E+01
                       1.5230191816E+01  1.0081221176E+01  1.0065966722E+01
                       1.0081221176E+01  1.5230191816E+01  1.0065966722E+01
                       1.0081221176E+01  4.9322505368E+00  1.0065966722E+01
                       4.9322505368E+00  1.0081221176E+01  1.0065966722E+01
                      -3.4107217583E-20 -6.7890959989E-20 -1.3000618661E-21
            xcart3     5.0379859751E+00  5.0379859751E+00  5.0307089977E+00
                       1.5113957925E+01  1.5113957925E+01  1.5092126993E+01
                       1.0075971950E+01  1.0075971950E+01  5.3560822850E+00
                       1.0075971950E+01  1.0075971950E+01  1.4766753706E+01
                       1.5220209350E+01  1.0075971950E+01  1.0061417995E+01
                       1.0075971950E+01  1.5220209350E+01  1.0061417995E+01
                       1.0075971950E+01  4.9317345500E+00  1.0061417995E+01
                       4.9317345500E+00  1.0075971950E+01  1.0061417995E+01
                      -3.7328584341E-20 -6.6531925559E-20 -2.4535918015E-21
            xcart4     5.0354920291E+00  5.0354920291E+00  5.0281736857E+00
                       1.5106476087E+01  1.5106476087E+01  1.5084521057E+01
                       1.0070984058E+01  1.0070984058E+01  5.3548526182E+00
                       1.0070984058E+01  1.0070984058E+01  1.4757842125E+01
                       1.5210817645E+01  1.0070984058E+01  1.0056347371E+01
                       1.0070984058E+01  1.5210817645E+01  1.0056347371E+01
                       1.0070984058E+01  4.9311504712E+00  1.0056347371E+01
                       4.9311504712E+00  1.0070984058E+01  1.0056347371E+01
                      -3.2965056052E-20 -7.1102055173E-20  1.3905928102E-21
            xcart5     5.0321049634E+00  5.0321049634E+00  5.0274224762E+00
                       1.5096314890E+01  1.5096314890E+01  1.5082267429E+01
                       1.0064209927E+01  1.0064209927E+01  5.3539349465E+00
                       1.0064209927E+01  1.0064209927E+01  1.4755754959E+01
                       1.5197917692E+01  1.0064209927E+01  1.0054844952E+01
                       1.0064209927E+01  1.5197917692E+01  1.0054844952E+01
                       1.0064209927E+01  4.9305021615E+00  1.0054844952E+01
                       4.9305021615E+00  1.0064209927E+01  1.0054844952E+01
                      -3.5845865605E-20 -6.7282697483E-20 -1.3812652595E-21
            xcart6     5.0292540749E+00  5.0292540749E+00  5.0256004396E+00
                       1.5087762225E+01  1.5087762225E+01  1.5076801319E+01
                       1.0058508150E+01  1.0058508150E+01  5.3527900146E+00
                       1.0058508150E+01  1.0058508150E+01  1.4749611744E+01
                       1.5187112530E+01  1.0058508150E+01  1.0051200879E+01
                       1.0058508150E+01  1.5187112530E+01  1.0051200879E+01
                       1.0058508150E+01  4.9299037699E+00  1.0051200879E+01
                       4.9299037699E+00  1.0058508150E+01  1.0051200879E+01
                      -3.5702094667E-20 -6.7366918532E-20 -1.3317922097E-21
            xcart7     5.0266336509E+00  5.0266336509E+00  5.0233178860E+00
                       1.5079900953E+01  1.5079900953E+01  1.5069953658E+01
                       1.0053267302E+01  1.0053267302E+01  5.3515012238E+00
                       1.0053267302E+01  1.0053267302E+01  1.4741770320E+01
                       1.5177297777E+01  1.0053267302E+01  1.0046635772E+01
                       1.0053267302E+01  1.5177297777E+01  1.0046635772E+01
                       1.0053267302E+01  4.9292368262E+00  1.0046635772E+01
                       4.9292368262E+00  1.0053267302E+01  1.0046635772E+01
                      -3.5632344614E-20 -6.8132951755E-20 -7.0290309030E-22
            xcart8     5.0240597650E+00  5.0240597650E+00  5.0209423277E+00
                       1.5072179295E+01  1.5072179295E+01  1.5062826983E+01
                       1.0048119530E+01  1.0048119530E+01  5.3502657817E+00
                       1.0048119530E+01  1.0048119530E+01  1.4733503529E+01
                       1.5167723822E+01  1.0048119530E+01  1.0041884655E+01
                       1.0048119530E+01  1.5167723822E+01  1.0041884655E+01
                       1.0048119530E+01  4.9285152383E+00  1.0041884655E+01
                       4.9285152383E+00  1.0048119530E+01  1.0041884655E+01
                      -3.5635176623E-20 -6.6942534494E-20 -1.6106812292E-21
            xcart9     5.0215081633E+00  5.0215081633E+00  5.0185222325E+00
                       1.5064524490E+01  1.5064524490E+01  1.5055566697E+01
                       1.0043016326E+01  1.0043016326E+01  5.3490485214E+00
                       1.0043016327E+01  1.0043016327E+01  1.4725040408E+01
                       1.5158127200E+01  1.0043016326E+01  1.0037044465E+01
                       1.0043016326E+01  1.5158127200E+01  1.0037044465E+01
                       1.0043016327E+01  4.9279054531E+00  1.0037044465E+01
                       4.9279054531E+00  1.0043016327E+01  1.0037044465E+01
                      -3.5647107334E-20 -6.7263161954E-20 -1.3299164734E-21
            xcart10    5.0189639692E+00  5.0189639692E+00  5.0160873326E+00
                       1.5056891908E+01  1.5056891908E+01  1.5048261998E+01
                       1.0037927938E+01  1.0037927938E+01  5.3478095898E+00
                       1.0037927938E+01  1.0037927938E+01  1.4716539741E+01
                       1.5148494522E+01  1.0037927938E+01  1.0032174665E+01
                       1.0037927938E+01  1.5148494522E+01  1.0032174665E+01
                       1.0037927938E+01  4.9273613553E+00  1.0032174665E+01
                       4.9273613553E+00  1.0037927938E+01  1.0032174665E+01
                      -3.5629046393E-20 -6.7229082444E-20 -1.3292712210E-21
             xred1     2.5000000000E-01  2.5000000000E-01  2.5000000000E-01
                       7.5000000000E-01  7.5000000000E-01  7.5000000000E-01
                       2.6602776986E-01  2.6602776986E-01  7.3397223014E-01
                       7.3397223014E-01  7.3397223014E-01  2.6602776986E-01
                       2.4454489300E-01  7.5545510700E-01  7.5545510700E-01
                       7.5545510700E-01  2.4454489300E-01  7.5545510700E-01
                       2.4454489300E-01  7.5545510700E-01  2.4454489300E-01
                       7.5545510700E-01  2.4454489300E-01  2.4454489300E-01
                      -1.5278806757E-21  6.5970656031E-22 -4.6259063409E-21
             xred2     2.5000000000E-01  2.5000000000E-01  2.5000000000E-01
                       7.5000000000E-01  7.5000000000E-01  7.5000000000E-01
                       2.6610367110E-01  2.6610367110E-01  7.3389632890E-01
                       7.3389632890E-01  7.3389632890E-01  2.6610367110E-01
                       2.4462564854E-01  7.5537435146E-01  7.5537435146E-01
                       7.5537435146E-01  2.4462564854E-01  7.5537435146E-01
                       2.4462564854E-01  7.5537435146E-01  2.4462564854E-01
                       7.5537435146E-01  2.4462564854E-01  2.4462564854E-01
                      -1.7401549789E-21  1.6110007802E-21 -4.9942434437E-21
             xred3     2.5000000000E-01  2.5000000000E-01  2.5000000000E-01
                       7.5000000000E-01  7.5000000000E-01  7.5000000000E-01
                       2.6616935542E-01  2.6616935542E-01  7.3383064458E-01
                       7.3383064458E-01  7.3383064458E-01  2.6616935542E-01
                       2.4472748507E-01  7.5527251493E-01  7.5527251493E-01
                       7.5527251493E-01  2.4472748507E-01  7.5527251493E-01
                       2.4472748507E-01  7.5527251493E-01  2.4472748507E-01
                       7.5527251493E-01  2.4472748507E-01  2.4472748507E-01
                      -1.5710882446E-21  1.3272268125E-21 -5.0319398194E-21
             xred4     2.5000000000E-01  2.5000000000E-01  2.5000000000E-01
                       7.5000000000E-01  7.5000000000E-01  7.5000000000E-01
                       2.6624242483E-01  2.6624242483E-01  7.3375757517E-01
                       7.3375757517E-01  7.3375757517E-01  2.6624242483E-01
                       2.4481969402E-01  7.5518030598E-01  7.5518030598E-01
                       7.5518030598E-01  2.4481969402E-01  7.5518030598E-01
                       2.4481969402E-01  7.5518030598E-01  2.4481969402E-01
                       7.5518030598E-01  2.4481969402E-01  2.4481969402E-01
                      -1.8242697106E-21  1.9625498196E-21 -5.2358204218E-21
             xred5     2.5000000000E-01  2.5000000000E-01  2.5000000000E-01
                       7.5000000000E-01  7.5000000000E-01  7.5000000000E-01
                       2.6623657410E-01  2.6623657410E-01  7.3376342590E-01
                       7.3376342590E-01  7.3376342590E-01  2.6623657410E-01
                       2.4495227133E-01  7.5504772867E-01  7.5504772867E-01
                       7.5504772867E-01  2.4495227133E-01  7.5504772867E-01
                       2.4495227133E-01  7.5504772867E-01  2.4495227133E-01
                       7.5504772867E-01  2.4495227133E-01  2.4495227133E-01
                      -1.6304997546E-21  1.4931266508E-21 -5.0548434539E-21
             xred6     2.5000000000E-01  2.5000000000E-01  2.5000000000E-01
                       7.5000000000E-01  7.5000000000E-01  7.5000000000E-01
                       2.6627614347E-01  2.6627614347E-01  7.3372385653E-01
                       7.3372385653E-01  7.3372385653E-01  2.6627614347E-01
                       2.4506137970E-01  7.5493862030E-01  7.5493862030E-01
                       7.5493862030E-01  2.4506137970E-01  7.5493862030E-01
                       2.4506137970E-01  7.5493862030E-01  2.4506137970E-01
                       7.5493862030E-01  2.4506137970E-01  2.4506137970E-01
                      -1.6402822269E-21  1.5077814217E-21 -5.0572237581E-21
             xred7     2.5000000000E-01  2.5000000000E-01  2.5000000000E-01
                       7.5000000000E-01  7.5000000000E-01  7.5000000000E-01
                       2.6633299670E-01  2.6633299670E-01  7.3366700330E-01
                       7.3366700330E-01  7.3366700330E-01  2.6633299670E-01
                       2.4515596165E-01  7.5484403835E-01  7.5484403835E-01
                       7.5484403835E-01  2.4515596165E-01  7.5484403835E-01
                       2.4515596165E-01  7.5484403835E-01  2.4515596165E-01
                       7.5484403835E-01  2.4515596165E-01  2.4515596165E-01
                      -1.6514021364E-21  1.5814381100E-21 -5.1257927506E-21
             xred8     2.5000000000E-01  2.5000000000E-01  2.5000000000E-01
                       7.5000000000E-01  7.5000000000E-01  7.5000000000E-01
                       2.6639749236E-01  2.6639749236E-01  7.3360250764E-01
                       7.3360250764E-01  7.3360250764E-01  2.6639749236E-01
                       2.4524565137E-01  7.5475434863E-01  7.5475434863E-01
                       7.5475434863E-01  2.4524565137E-01  7.5475434863E-01
                       2.4524565137E-01  7.5475434863E-01  2.4524565137E-01
                       7.5475434863E-01  2.4524565137E-01  2.4524565137E-01
                      -1.6380696434E-21  1.4776733349E-21 -5.0241256355E-21
             xred9     2.5000000000E-01  2.5000000000E-01  2.5000000000E-01
                       7.5000000000E-01  7.5000000000E-01  7.5000000000E-01
                       2.6646531955E-01  2.6646531955E-01  7.3353468045E-01
                       7.3353468045E-01  7.3353468045E-01  2.6646531955E-01
                       2.4533991049E-01  7.5466008951E-01  7.5466008951E-01
                       7.5466008951E-01  2.4533991049E-01  7.5466008951E-01
                       2.4533991049E-01  7.5466008951E-01  2.4533991049E-01
                       7.5466008951E-01  2.4533991049E-01  2.4533991049E-01
                      -1.6402822269E-21  1.5077814217E-21 -5.0572237581E-21
             xred10    2.5000000000E-01  2.5000000000E-01  2.5000000000E-01
                       7.5000000000E-01  7.5000000000E-01  7.5000000000E-01
                       2.6653291875E-01  2.6653291875E-01  7.3346708125E-01
                       7.3346708125E-01  7.3346708125E-01  2.6653291875E-01
                       2.4543717516E-01  7.5456282484E-01  7.5456282484E-01
                       7.5456282484E-01  2.4543717516E-01  7.5456282484E-01
                       2.4543717516E-01  7.5456282484E-01  2.4543717516E-01
                       7.5456282484E-01  2.4543717516E-01  2.4543717516E-01
                      -1.6402822269E-21  1.5077814217E-21 -5.0572237581E-21
            znucl       55.00000   53.00000   40.00000   35.00000

- Timing analysis has been suppressed with timopt=0

 Suggested references for the acknowledgment of ABINIT usage.

 Calculation completed.
.Delivered   0 WARNINGs and  68 COMMENTs to log file.