.Version 9.2.2 of ABINIT

 ABINIT is a project of the Universite Catholique de Louvain,
 Corning Inc. and other collaborators, see ~abinit/doc/developers/contributors.txt .
 acknowledgments of the ABINIT effort.

.Starting date : Wed 23 Nov 2022.
- ( at 17h41 )

- input  file    -> Cs2TiI6.in
- output file    -> Cs2TiI6.out
- root for input  files -> Cs2TiI6i
- root for output files -> Cs2TiI6o

- inpspheads : Reading pseudopotential header in XML form from
-   ../../../Psps_for_tests/ATOMICDATA/Cs.GGA_PBE-JTH.xml
- inpspheads : Reading pseudopotential header in XML form from
-   ../../../Psps_for_tests/ATOMICDATA/Br.GGA_PBE-JTH.xml
- inpspheads : Reading pseudopotential header in XML form from
-   ../../../Psps_for_tests/ATOMICDATA/Zr.GGA_PBE-JTH.xml

 DATASET    1 : space group Fm -3 m (#225); Bravais cF (face-center cubic)
     intxc =       0    ionmov =       0      iscf =      17    lmnmax =      18
     lnmax =       6     mgfft =      54  mpssoang =       3    mqgrid =    3455
     natom =       9  nloc_mem =       2    nspden =       1   nspinor =       1
    nsppol =       1      nsym =      48    n1xccc =       1    ntypat =       3
    occopt =       1   xclevel =       2
-    mband =          42        mffmem =           1         mkmem =          12
       mpw =        7150          nfft =      157464          nkpt =          72
Pmy_natom=         2
 PAW method is used; the additional fine FFT grid is defined by:
   mgfftf=        90    nfftf =    729000
  Rough estimation (10% accuracy) of disk space for files :

[...]

 DATASET   10 : space group Fm -3 m (#225); Bravais cF (face-center cubic)
     intxc =       0    ionmov =       0      iscf =      17    lmnmax =      18
     lnmax =       6     mgfft =      50  mpssoang =       3    mqgrid =    3141
     natom =       9  nloc_mem =       2    nspden =       1   nspinor =       1
    nsppol =       1      nsym =      48    n1xccc =       1    ntypat =       3
    occopt =       1   xclevel =       2
-    mband =          42        mffmem =           1         mkmem =          12
       mpw =        5365          nfft =      125000          nkpt =          72
Pmy_natom=         2
 PAW method is used; the additional fine FFT grid is defined by:
   mgfftf=        80    nfftf =    512000
  Rough estimation (10% accuracy) of disk space for files :

------------- Echo of variables that govern the present computation ------------
-
- outvars: echo of selected default values
-   iomode0 =  0 , fftalg0 =112 , wfoptalg0 = 10
-
- outvars: echo of global parameters not present in the input file
-  max_nthreads =    0
-
 -outvars: echo values of preprocessed input variables --------
            acell1     1.4860963470E+01  1.4860963470E+01  1.4860963470E+01 Bohr
            acell2     1.4710852728E+01  1.4710852728E+01  1.4710852728E+01 Bohr
            acell3     1.4560741986E+01  1.4560741986E+01  1.4560741986E+01 Bohr
            acell4     1.4410631244E+01  1.4410631244E+01  1.4410631244E+01 Bohr
            acell5     1.4260520501E+01  1.4260520501E+01  1.4260520501E+01 Bohr
            acell6     1.4110409759E+01  1.4110409759E+01  1.4110409759E+01 Bohr
            acell7     1.3960299017E+01  1.3960299017E+01  1.3960299017E+01 Bohr
            acell8     1.3810188275E+01  1.3810188275E+01  1.3810188275E+01 Bohr
            acell9     1.3660077533E+01  1.3660077533E+01  1.3660077533E+01 Bohr
            acell10    1.3509966791E+01  1.3509966791E+01  1.3509966791E+01 Bohr
              amu      1.32905430E+02  7.99040000E+01  9.12240000E+01
           diemac      1.20000000E+01
             ecut      1.60000000E+01 Hartree
-          fftalg         112
           istwfk        2    0    0    0    0    0    3    0    0    0
                         0    0    0    0    0    0    0    0    0    0
                         0    0    0    0    0    0    0    0    0    0
                         0    0    0    0    0    0    0    0    0    0
                         0    0    7    0    0    0    0    0    0    0
                       outvar_i_n : Printing only first  50 k-points.
              ixc     -101130
           jdtset        1    2    3    4    5    6    7    8    9   10
              kpt      0.00000000E+00  0.00000000E+00  0.00000000E+00
                       8.33333333E-02  0.00000000E+00  0.00000000E+00
                       1.66666667E-01  0.00000000E+00  0.00000000E+00
                       2.50000000E-01  0.00000000E+00  0.00000000E+00
                       3.33333333E-01  0.00000000E+00  0.00000000E+00
                       4.16666667E-01  0.00000000E+00  0.00000000E+00
                       5.00000000E-01  0.00000000E+00  0.00000000E+00
                       8.33333333E-02  8.33333333E-02  0.00000000E+00
                       1.66666667E-01  8.33333333E-02  0.00000000E+00
                       2.50000000E-01  8.33333333E-02  0.00000000E+00
                       3.33333333E-01  8.33333333E-02  0.00000000E+00
                       4.16666667E-01  8.33333333E-02  0.00000000E+00
                       5.00000000E-01  8.33333333E-02  0.00000000E+00
                      -4.16666667E-01  8.33333333E-02  0.00000000E+00
                      -3.33333333E-01  8.33333333E-02  0.00000000E+00
                      -2.50000000E-01  8.33333333E-02  0.00000000E+00
                      -1.66666667E-01  8.33333333E-02  0.00000000E+00
                      -8.33333333E-02  8.33333333E-02  0.00000000E+00
                       1.66666667E-01  1.66666667E-01  0.00000000E+00
                       2.50000000E-01  1.66666667E-01  0.00000000E+00
                       3.33333333E-01  1.66666667E-01  0.00000000E+00
                       4.16666667E-01  1.66666667E-01  0.00000000E+00
                       5.00000000E-01  1.66666667E-01  0.00000000E+00
                      -4.16666667E-01  1.66666667E-01  0.00000000E+00
                      -3.33333333E-01  1.66666667E-01  0.00000000E+00
                      -2.50000000E-01  1.66666667E-01  0.00000000E+00
                      -1.66666667E-01  1.66666667E-01  0.00000000E+00
                       2.50000000E-01  2.50000000E-01  0.00000000E+00
                       3.33333333E-01  2.50000000E-01  0.00000000E+00
                       4.16666667E-01  2.50000000E-01  0.00000000E+00
                       5.00000000E-01  2.50000000E-01  0.00000000E+00
                      -4.16666667E-01  2.50000000E-01  0.00000000E+00
                      -3.33333333E-01  2.50000000E-01  0.00000000E+00
                      -2.50000000E-01  2.50000000E-01  0.00000000E+00
                       3.33333333E-01  3.33333333E-01  0.00000000E+00
                       4.16666667E-01  3.33333333E-01  0.00000000E+00
                       5.00000000E-01  3.33333333E-01  0.00000000E+00
                      -4.16666667E-01  3.33333333E-01  0.00000000E+00
                      -3.33333333E-01  3.33333333E-01  0.00000000E+00
                       4.16666667E-01  4.16666667E-01  0.00000000E+00
                       5.00000000E-01  4.16666667E-01  0.00000000E+00
                      -4.16666667E-01  4.16666667E-01  0.00000000E+00
                       5.00000000E-01  5.00000000E-01  0.00000000E+00
                       2.50000000E-01  1.66666667E-01  8.33333333E-02
                       3.33333333E-01  1.66666667E-01  8.33333333E-02
                       4.16666667E-01  1.66666667E-01  8.33333333E-02
                       5.00000000E-01  1.66666667E-01  8.33333333E-02
                      -4.16666667E-01  1.66666667E-01  8.33333333E-02
                       3.33333333E-01  2.50000000E-01  8.33333333E-02
                       4.16666667E-01  2.50000000E-01  8.33333333E-02
                       outvar_i_n : Printing only first  50 k-points.
         kptrlatt       12    0    0      0   12    0      0    0   12
          kptrlen1     1.78331562E+02
          kptrlen2     1.76530233E+02
          kptrlen3     1.74728904E+02
          kptrlen4     1.72927575E+02
          kptrlen5     1.71126246E+02
          kptrlen6     1.69324917E+02
          kptrlen7     1.67523588E+02
          kptrlen8     1.65722259E+02
          kptrlen9     1.63920930E+02
          kptrlen10    1.62119601E+02
P           mkmem          12
            natom           9
            nband          42
           ndtset          10
            ngfft1         54      54      54
            ngfft2         54      54      54
            ngfft3         54      54      54
            ngfft4         54      54      54
            ngfft5         54      54      54
            ngfft6         54      54      54
            ngfft7         54      54      54
            ngfft8         50      50      50
            ngfft9         50      50      50
            ngfft10        50      50      50
          ngfftdg1         90      90      90
          ngfftdg2         90      90      90
          ngfftdg3         90      90      90
          ngfftdg4         90      90      90
          ngfftdg5         90      90      90
          ngfftdg6         90      90      90
          ngfftdg7         80      80      80
          ngfftdg8         80      80      80
          ngfftdg9         80      80      80
          ngfftdg10        80      80      80
             nkpt          72
            nstep        2500
             nsym          48
           ntypat           3
              occ      2.000000  2.000000  2.000000  2.000000  2.000000  2.000000
                       2.000000  2.000000  2.000000  2.000000  2.000000  2.000000
                       2.000000  2.000000  2.000000  2.000000  2.000000  2.000000
                       2.000000  2.000000  2.000000  2.000000  2.000000  2.000000
                       2.000000  2.000000  2.000000  2.000000  2.000000  2.000000
                       2.000000  2.000000  2.000000  2.000000  2.000000  2.000000
                       0.000000  0.000000  0.000000  0.000000  0.000000  0.000000
        pawecutdg      4.00000000E+01 Hartree
            prtwf           0
            rprim      0.0000000000E+00  7.0710678119E-01  7.0710678119E-01
                       7.0710678119E-01  0.0000000000E+00  7.0710678119E-01
                       7.0710678119E-01  7.0710678119E-01  0.0000000000E+00
          spgroup         225
           symrel      1  0  0   0  1  0   0  0  1      -1  0  0   0 -1  0   0  0 -1
                       0 -1  1   0 -1  0   1 -1  0       0  1 -1   0  1  0  -1  1  0
                      -1  0  0  -1  0  1  -1  1  0       1  0  0   1  0 -1   1 -1  0
                       0  1 -1   1  0 -1   0  0 -1       0 -1  1  -1  0  1   0  0  1
                      -1  0  0  -1  1  0  -1  0  1       1  0  0   1 -1  0   1  0 -1
                       0 -1  1   1 -1  0   0 -1  0       0  1 -1  -1  1  0   0  1  0
                       1  0  0   0  0  1   0  1  0      -1  0  0   0  0 -1   0 -1  0
                       0  1 -1   0  0 -1   1  0 -1       0 -1  1   0  0  1  -1  0  1
                      -1  0  1  -1  1  0  -1  0  0       1  0 -1   1 -1  0   1  0  0
                       0 -1  0   1 -1  0   0 -1  1       0  1  0  -1  1  0   0  1 -1
[...]
                       4.6483728675E-20  3.9498776790E-20 -5.9408811443E-20
           xangst7     2.6118657965E+00  2.6118657965E+00  2.6118657965E+00
                       7.8355973894E+00  7.8355973894E+00  7.8355973894E+00
                       5.2237315929E+00  5.2237315929E+00  2.6161860161E+00
                       5.2237315929E+00  5.2237315929E+00  7.8312771698E+00
                       7.8312771698E+00  5.2237315929E+00  5.2237315929E+00
                       5.2237315929E+00  7.8312771698E+00  5.2237315929E+00
                       5.2237315929E+00  2.6161860161E+00  5.2237315929E+00
                       2.6161860161E+00  5.2237315929E+00  5.2237315929E+00
                       4.9001107234E-20  3.8156916107E-20 -5.2910849359E-20
           xangst8     2.5837812180E+00  2.5837812180E+00  2.5837812180E+00
                       7.7513436541E+00  7.7513436541E+00  7.7513436541E+00
                       5.1675624361E+00  5.1675624361E+00  2.6082247699E+00
                       5.1675624361E+00  5.1675624361E+00  7.7269001023E+00
                       7.7269001023E+00  5.1675624361E+00  5.1675624361E+00
                       5.1675624361E+00  7.7269001023E+00  5.1675624361E+00
                       5.1675624361E+00  2.6082247699E+00  5.1675624361E+00
                       2.6082247699E+00  5.1675624361E+00  5.1675624361E+00
                       4.8474213609E-20  3.7746626687E-20 -5.2341915495E-20
           xangst9     2.5556966396E+00  2.5556966396E+00  2.5556966396E+00
                       7.6670899188E+00  7.6670899188E+00  7.6670899188E+00
                       5.1113932792E+00  5.1113932792E+00  2.5987961580E+00
                       5.1113932792E+00  5.1113932792E+00  7.6239904004E+00
                       7.6239904004E+00  5.1113932792E+00  5.1113932792E+00
                       5.1113932792E+00  7.6239904004E+00  5.1113932792E+00
                       5.1113932792E+00  2.5987961580E+00  5.1113932792E+00
                       2.5987961580E+00  5.1113932792E+00  5.1113932792E+00
                       7.4962979562E-20 -4.2977831643E-19 -1.2535746566E-19
           xangst10    2.5276120612E+00  2.5276120612E+00  2.5276120612E+00
                       7.5828361835E+00  7.5828361835E+00  7.5828361835E+00
                       5.0552241223E+00  5.0552241223E+00  2.5885093875E+00
                       5.0552241223E+00  5.0552241223E+00  7.5219388571E+00
                       7.5219388571E+00  5.0552241223E+00  5.0552241223E+00
                       5.0552241223E+00  7.5219388571E+00  5.0552241223E+00
                       5.0552241223E+00  2.5885093875E+00  5.0552241223E+00
                       2.5885093875E+00  5.0552241223E+00  5.0552241223E+00
                       4.6431498882E-20  4.5493296262E-20 -5.0878860990E-20
            xcart1     5.2541440223E+00  5.2541440223E+00  5.2541440223E+00
                       1.5762432067E+01  1.5762432067E+01  1.5762432067E+01
                       1.0508288045E+01  1.0508288045E+01  4.9990229513E+00
                       1.0508288045E+01  1.0508288045E+01  1.6017553138E+01
                       1.6017553138E+01  1.0508288045E+01  1.0508288045E+01
                       1.0508288045E+01  1.6017553138E+01  1.0508288045E+01
                       1.0508288045E+01  4.9990229513E+00  1.0508288045E+01
                       4.9990229513E+00  1.0508288045E+01  1.0508288045E+01
                       9.8572780811E-20  7.6758129360E-20 -1.0643778989E-19
            xcart2     5.2010718605E+00  5.2010718605E+00  5.2010718605E+00
                       1.5603215582E+01  1.5603215582E+01  1.5603215582E+01
                       1.0402143721E+01  1.0402143721E+01  4.9934259263E+00
                       1.0402143721E+01  1.0402143721E+01  1.5810861516E+01
                       1.5810861516E+01  1.0402143721E+01  1.0402143721E+01
                       1.0402143721E+01  1.5810861516E+01  1.0402143721E+01
                       1.0402143721E+01  4.9934259263E+00  1.0402143721E+01
                       4.9934259263E+00  1.0402143721E+01  1.0402143721E+01
                       1.9229488601E-18  2.5968075180E-18 -3.1600719576E-18
            xcart3     5.1479996987E+00  5.1479996987E+00  5.1479996987E+00
                       1.5443999096E+01  1.5443999096E+01  1.5443999096E+01
                       1.0295999397E+01  1.0295999397E+01  4.9861569001E+00
                       1.0295999397E+01  1.0295999397E+01  1.5605841895E+01
                       1.5605841895E+01  1.0295999397E+01  1.0295999397E+01
                       1.0295999397E+01  1.5605841895E+01  1.0295999397E+01
                       1.0295999397E+01  4.9861569001E+00  1.0295999397E+01
                       4.9861569001E+00  1.0295999397E+01  1.0295999397E+01
                       3.5299278349E-18  8.6049949728E-19 -1.7340308989E-18
            xcart4     5.0949275369E+00  5.0949275369E+00  5.0949275369E+00
                       1.5284782611E+01  1.5284782611E+01  1.5284782611E+01
                       1.0189855074E+01  1.0189855074E+01  4.9781274285E+00
                       1.0189855074E+01  1.0189855074E+01  1.5401582719E+01
                       1.5401582719E+01  1.0189855074E+01  1.0189855074E+01
                       1.0189855074E+01  1.5401582719E+01  1.0189855074E+01
                       1.0189855074E+01  4.9781274285E+00  1.0189855074E+01
                       4.9781274285E+00  1.0189855074E+01  1.0189855074E+01
                      -2.1732716008E-20  4.2339779778E-20 -3.9023951816E-20
            xcart5     5.0418553748E+00  5.0418553748E+00  5.0418553748E+00
                       1.5125566124E+01  1.5125566124E+01  1.5125566124E+01
                       1.0083710750E+01  1.0083710750E+01  4.9687422758E+00
                       1.0083710750E+01  1.0083710750E+01  1.5198679223E+01
                       1.5198679223E+01  1.0083710750E+01  1.0083710750E+01
                       1.0083710750E+01  1.5198679223E+01  1.0083710750E+01
                       1.0083710750E+01  4.9687422758E+00  1.0083710750E+01
                       4.9687422758E+00  1.0083710750E+01  1.0083710750E+01
                      -3.0295739605E-19 -1.1192053989E-19 -3.3463959554E-19
            xcart6     4.9887832130E+00  4.9887832130E+00  4.9887832130E+00
                       1.4966349639E+01  1.4966349639E+01  1.4966349639E+01
                       9.9775664260E+00  9.9775664260E+00  4.9570362285E+00
                       9.9775664260E+00  9.9775664260E+00  1.4998096623E+01
                       1.4998096623E+01  9.9775664260E+00  9.9775664260E+00
                       9.9775664260E+00  1.4998096623E+01  9.9775664260E+00
                       9.9775664260E+00  4.9570362285E+00  9.9775664260E+00
                       4.9570362285E+00  9.9775664260E+00  9.9775664260E+00
                       8.7841516832E-20  7.4641870717E-20 -1.1226638351E-19
            xcart7     4.9357110512E+00  4.9357110512E+00  4.9357110512E+00
                       1.4807133154E+01  1.4807133154E+01  1.4807133154E+01
                       9.8714221024E+00  9.8714221024E+00  4.9438750831E+00
                       9.8714221024E+00  9.8714221024E+00  1.4798969122E+01
                       1.4798969122E+01  9.8714221024E+00  9.8714221024E+00
                       9.8714221024E+00  1.4798969122E+01  9.8714221024E+00
                       9.8714221024E+00  4.9438750831E+00  9.8714221024E+00
                       4.9438750831E+00  9.8714221024E+00  9.8714221024E+00
                       9.2598672881E-20  7.2106121519E-20 -9.9987014746E-20
            xcart8     4.8826388894E+00  4.8826388894E+00  4.8826388894E+00
                       1.4647916668E+01  1.4647916668E+01  1.4647916668E+01
                       9.7652777788E+00  9.7652777788E+00  4.9288305081E+00
                       9.7652777788E+00  9.7652777788E+00  1.4601725049E+01
                       1.4601725049E+01  9.7652777788E+00  9.7652777788E+00
                       9.7652777788E+00  1.4601725049E+01  9.7652777788E+00
                       9.7652777788E+00  4.9288305081E+00  9.7652777788E+00
                       4.9288305081E+00  9.7652777788E+00  9.7652777788E+00
                       9.1602988227E-20  7.1330786879E-20 -9.8911885556E-20
            xcart9     4.8295667276E+00  4.8295667276E+00  4.8295667276E+00
                       1.4488700183E+01  1.4488700183E+01  1.4488700183E+01
                       9.6591334552E+00  9.6591334552E+00  4.9110130138E+00
                       9.6591334552E+00  9.6591334552E+00  1.4407253897E+01
                       1.4407253897E+01  9.6591334552E+00  9.6591334552E+00
                       9.6591334552E+00  1.4407253897E+01  9.6591334552E+00
                       9.6591334552E+00  4.9110130138E+00  9.6591334552E+00
                       4.9110130138E+00  9.6591334552E+00  9.6591334552E+00
                       1.4165950148E-19 -8.1216331591E-19 -2.3689127881E-19
            xcart10    4.7764945658E+00  4.7764945658E+00  4.7764945658E+00
                       1.4329483697E+01  1.4329483697E+01  1.4329483697E+01
                       9.5529891316E+00  9.5529891316E+00  4.8915738349E+00
                       9.5529891316E+00  9.5529891316E+00  1.4214404428E+01
                       1.4214404428E+01  9.5529891316E+00  9.5529891316E+00
                       9.5529891316E+00  1.4214404428E+01  9.5529891316E+00
                       9.5529891316E+00  4.8915738349E+00  9.5529891316E+00
                       4.8915738349E+00  9.5529891316E+00  9.5529891316E+00
                       8.7742816826E-20  8.5969870818E-20 -9.6147113225E-20
             xred1     2.5000000000E-01  2.5000000000E-01  2.5000000000E-01
                       7.5000000000E-01  7.5000000000E-01  7.5000000000E-01
                       2.3786095937E-01  2.3786095937E-01  7.6213904063E-01
                       7.6213904063E-01  7.6213904063E-01  2.3786095937E-01
                       2.3786095937E-01  7.6213904063E-01  7.6213904063E-01
                       7.6213904063E-01  2.3786095937E-01  7.6213904063E-01
                       2.3786095937E-01  7.6213904063E-01  2.3786095937E-01
                       7.6213904063E-01  2.3786095937E-01  2.3786095937E-01
                      -6.1024422246E-21 -4.0264949953E-21  1.3406974517E-20
             xred2     2.5000000000E-01  2.5000000000E-01  2.5000000000E-01
                       7.5000000000E-01  7.5000000000E-01  7.5000000000E-01
                       2.4001907973E-01  2.4001907973E-01  7.5998092027E-01
                       7.5998092027E-01  7.5998092027E-01  2.4001907973E-01
                       2.4001907973E-01  7.5998092027E-01  7.5998092027E-01
                       7.5998092027E-01  2.4001907973E-01  7.5998092027E-01
                       2.4001907973E-01  7.5998092027E-01  2.4001907973E-01
                       7.5998092027E-01  2.4001907973E-01  2.4001907973E-01
                      -1.1950485238E-19 -1.8428560104E-19  3.6914642508E-19
             xred3     2.5000000000E-01  2.5000000000E-01  2.5000000000E-01
                       7.5000000000E-01  7.5000000000E-01  7.5000000000E-01
                       2.4214050077E-01  2.4214050077E-01  7.5785949923E-01
                       7.5785949923E-01  7.5785949923E-01  2.4214050077E-01
                       2.4214050077E-01  7.5785949923E-01  7.5785949923E-01
                       7.5785949923E-01  2.4214050077E-01  7.5785949923E-01
                       2.4214050077E-01  7.5785949923E-01  2.4214050077E-01
                       7.5785949923E-01  2.4214050077E-01  2.4214050077E-01
                      -2.1384321553E-19  4.5425286203E-20  2.9741931767E-19
             xred4     2.5000000000E-01  2.5000000000E-01  2.5000000000E-01
                       7.5000000000E-01  7.5000000000E-01  7.5000000000E-01
                       2.4426880424E-01  2.4426880424E-01  7.5573119576E-01
                       7.5573119576E-01  7.5573119576E-01  2.4426880424E-01
                       2.4426880424E-01  7.5573119576E-01  7.5573119576E-01
                       7.5573119576E-01  2.4426880424E-01  7.5573119576E-01
                       2.4426880424E-01  7.5573119576E-01  2.4426880424E-01
                       7.5573119576E-01  2.4426880424E-01  2.4426880424E-01
                       1.2290922583E-21 -5.0587788960E-21  2.9259991999E-21
             xred5     2.5000000000E-01  2.5000000000E-01  2.5000000000E-01
                       7.5000000000E-01  7.5000000000E-01  7.5000000000E-01
                       2.4637469277E-01  2.4637469277E-01  7.5362530723E-01
                       7.5362530723E-01  7.5362530723E-01  2.4637469277E-01
                       2.4637469277E-01  7.5362530723E-01  7.5362530723E-01
                       7.5362530723E-01  2.4637469277E-01  7.5362530723E-01
                       2.4637469277E-01  7.5362530723E-01  2.4637469277E-01
                       7.5362530723E-01  2.4637469277E-01  2.4637469277E-01
                      -7.1205304749E-21 -2.6065625282E-20 -3.9786117624E-21
             xred6     2.5000000000E-01  2.5000000000E-01  2.5000000000E-01
                       7.5000000000E-01  7.5000000000E-01  7.5000000000E-01
                       2.4840908178E-01  2.4840908178E-01  7.5159091822E-01
                       7.5159091822E-01  7.5159091822E-01  2.4840908178E-01
                       2.4840908178E-01  7.5159091822E-01  7.5159091822E-01
                       7.5159091822E-01  2.4840908178E-01  7.5159091822E-01
                       2.4840908178E-01  7.5159091822E-01  2.4840908178E-01
                       7.5159091822E-01  2.4840908178E-01  2.4840908178E-01
                      -6.2874063808E-21 -4.9644739591E-21  1.3768375941E-20
             xred7     2.5000000000E-01  2.5000000000E-01  2.5000000000E-01
                       7.5000000000E-01  7.5000000000E-01  7.5000000000E-01
                       2.5041351853E-01  2.5041351853E-01  7.4958648147E-01
                       7.4958648147E-01  7.4958648147E-01  2.5041351853E-01
                       2.5041351853E-01  7.4958648147E-01  7.4958648147E-01
                       7.4958648147E-01  2.5041351853E-01  7.4958648147E-01
                       2.5041351853E-01  7.4958648147E-01  2.5041351853E-01
                       7.4958648147E-01  2.5041351853E-01  2.5041351853E-01
                      -6.1024422246E-21 -4.0264949953E-21  1.3406974517E-20
             xred8     2.5000000000E-01  2.5000000000E-01  2.5000000000E-01
                       7.5000000000E-01  7.5000000000E-01  7.5000000000E-01
                       2.5236509497E-01  2.5236509497E-01  7.4763490503E-01
                       7.4763490503E-01  7.4763490503E-01  2.5236509497E-01
                       2.5236509497E-01  7.4763490503E-01  7.4763490503E-01
                       7.4763490503E-01  2.5236509497E-01  7.4763490503E-01
                       2.5236509497E-01  7.4763490503E-01  2.5236509497E-01
                       7.4763490503E-01  2.5236509497E-01  2.5236509497E-01
                      -6.1024422246E-21 -4.0264949953E-21  1.3406974517E-20
             xred9     2.5000000000E-01  2.5000000000E-01  2.5000000000E-01
                       7.5000000000E-01  7.5000000000E-01  7.5000000000E-01
                       2.5421602448E-01  2.5421602448E-01  7.4578397552E-01
                       7.4578397552E-01  7.4578397552E-01  2.5421602448E-01
                       2.5421602448E-01  7.4578397552E-01  7.4578397552E-01
                       7.4578397552E-01  2.5421602448E-01  7.4578397552E-01
                       2.5421602448E-01  7.4578397552E-01  2.5421602448E-01
                       7.4578397552E-01  2.5421602448E-01  2.5421602448E-01
                      -6.1636693484E-20  3.7111586764E-20 -2.2445726505E-20
             xred10    2.5000000000E-01  2.5000000000E-01  2.5000000000E-01
                       7.5000000000E-01  7.5000000000E-01  7.5000000000E-01
                       2.5602320737E-01  2.5602320737E-01  7.4397679263E-01
                       7.4397679263E-01  7.4397679263E-01  2.5602320737E-01
                       2.5602320737E-01  7.4397679263E-01  7.4397679263E-01
                       7.4397679263E-01  2.5602320737E-01  7.4397679263E-01
                       2.5602320737E-01  7.4397679263E-01  2.5602320737E-01
                       7.4397679263E-01  2.5602320737E-01  2.5602320737E-01
                      -5.1251005253E-21 -4.9395098182E-21  1.4124364487E-20
            znucl       55.00000   35.00000   40.00000

- Timing analysis has been suppressed with timopt=0

 Suggested references for the acknowledgment of ABINIT usage.

 Calculation completed.
.Delivered   0 WARNINGs and   4 COMMENTs to log file.