.Version 9.2.2 of ABINIT

 ABINIT is a project of the Universite Catholique de Louvain,
 Corning Inc. and other collaborators, see ~abinit/doc/developers/contributors.txt .
 acknowledgments of the ABINIT effort.

.Starting date : Thu 15 Dec 2022.
- ( at 07h30 )

- The starting date is more than 2 years after the initial release
- of this version of ABINIT, namely Nov 2020.
- Note that the use beyond 3 years after the release will not be supported.
- Action: please, switch to a more recent version of ABINIT.

- input  file    -> Cs2TiI6.in
- output file    -> Cs2TiI6.out
- root for input  files -> Cs2TiI6i
- root for output files -> Cs2TiI6o

- inpspheads : Reading pseudopotential header in XML form from
-   ../../../Psps_for_tests/ATOMICDATA/Cs.GGA_PBE-JTH.xml
- inpspheads : Reading pseudopotential header in XML form from
-   ../../../Psps_for_tests/ATOMICDATA/I.GGA_PBE-JTH.xml
- inpspheads : Reading pseudopotential header in XML form from
-   ../../../Psps_for_tests/ATOMICDATA/Zr.GGA_PBE-JTH.xml
- inpspheads : Reading pseudopotential header in XML form from
-   ../../../Psps_for_tests/ATOMICDATA/Cl.GGA_PBE-JTH.xml

 DATASET    1 : space group I4 m m (#107); Bravais tI (body-center tetrag.)
     intxc =       0    ionmov =       0      iscf =      17    lmnmax =      18
     lnmax =       6     mgfft =      54  mpssoang =       3    mqgrid =    3396
     natom =       9  nloc_mem =       2    nspden =       1   nspinor =       1
    nsppol =       1      nsym =       8    n1xccc =       1    ntypat =       4
    occopt =       1   xclevel =       2
-    mband =          42        mffmem =           1         mkmem =          41
       mpw =        6806          nfft =      157464          nkpt =         163
Pmy_natom=         3
 PAW method is used; the additional fine FFT grid is defined by:
   mgfftf=        90    nfftf =    729000
  Rough estimation (10% accuracy) of disk space for files :

[...]

 DATASET   10 : space group I4 m m (#107); Bravais tI (body-center tetrag.)
     intxc =       0    ionmov =       0      iscf =      17    lmnmax =      18
     lnmax =       6     mgfft =      54  mpssoang =       3    mqgrid =    3366
     natom =       9  nloc_mem =       2    nspden =       1   nspinor =       1
    nsppol =       1      nsym =       8    n1xccc =       1    ntypat =       4
    occopt =       1   xclevel =       2
-    mband =          42        mffmem =           1         mkmem =          41
       mpw =        6604          nfft =      157464          nkpt =         163
Pmy_natom=         3
 PAW method is used; the additional fine FFT grid is defined by:
   mgfftf=        90    nfftf =    729000
  Rough estimation (10% accuracy) of disk space for files :

------------- Echo of variables that govern the present computation ------------
-
- outvars: echo of selected default values
-   iomode0 =  0 , fftalg0 =112 , wfoptalg0 = 10
-
- outvars: echo of global parameters not present in the input file
-  max_nthreads =    0
-
 -outvars: echo values of preprocessed input variables --------
            acell1     1.4535283150E+01  1.4535283150E+01  1.4774817479E+01 Bohr
            acell2     1.4520209134E+01  1.4520209134E+01  1.4761212057E+01 Bohr
            acell3     1.4505352458E+01  1.4505352458E+01  1.4747116147E+01 Bohr
            acell4     1.4490466905E+01  1.4490466905E+01  1.4733085950E+01 Bohr
            acell5     1.4475212856E+01  1.4475212856E+01  1.4719890767E+01 Bohr
            acell6     1.4460324493E+01  1.4460324493E+01  1.4705868346E+01 Bohr
            acell7     1.4445357386E+01  1.4445357386E+01  1.4692025011E+01 Bohr
            acell8     1.4430367813E+01  1.4430367813E+01  1.4678233389E+01 Bohr
            acell9     1.4414253210E+01  1.4414253210E+01  1.4667001341E+01 Bohr
            acell10    1.4399124687E+01  1.4399124687E+01  1.4653529970E+01 Bohr
              amu      1.32905430E+02  1.26904470E+02  9.12240000E+01
                       3.54527000E+01
           diemac      1.20000000E+01
             ecut      1.60000000E+01 Hartree
-          fftalg         112
           istwfk        2    0    0    0    0    0    3    0    0    0
                         0    0    0    0    0    0    0    0    0    0
                         0    0    0    0    0    0    0    0    0    0
                         0    0    0    0    0    0    0    0    0    0
                         0    0    7    0    0    0    0    0    0    0
                       outvar_i_n : Printing only first  50 k-points.
              ixc     -101130
           jdtset        1    2    3    4    5    6    7    8    9   10
              kpt      0.00000000E+00  0.00000000E+00  0.00000000E+00
                       8.33333333E-02  0.00000000E+00  0.00000000E+00
                       1.66666667E-01  0.00000000E+00  0.00000000E+00
                       2.50000000E-01  0.00000000E+00  0.00000000E+00
                       3.33333333E-01  0.00000000E+00  0.00000000E+00
                       4.16666667E-01  0.00000000E+00  0.00000000E+00
                       5.00000000E-01  0.00000000E+00  0.00000000E+00
                       8.33333333E-02  8.33333333E-02  0.00000000E+00
                       1.66666667E-01  8.33333333E-02  0.00000000E+00
                       2.50000000E-01  8.33333333E-02  0.00000000E+00
                       3.33333333E-01  8.33333333E-02  0.00000000E+00
                       4.16666667E-01  8.33333333E-02  0.00000000E+00
                       5.00000000E-01  8.33333333E-02  0.00000000E+00
                      -4.16666667E-01  8.33333333E-02  0.00000000E+00
                      -3.33333333E-01  8.33333333E-02  0.00000000E+00
                      -2.50000000E-01  8.33333333E-02  0.00000000E+00
                      -1.66666667E-01  8.33333333E-02  0.00000000E+00
                      -8.33333333E-02  8.33333333E-02  0.00000000E+00
                       1.66666667E-01  1.66666667E-01  0.00000000E+00
                       2.50000000E-01  1.66666667E-01  0.00000000E+00
                       3.33333333E-01  1.66666667E-01  0.00000000E+00
                       4.16666667E-01  1.66666667E-01  0.00000000E+00
                       5.00000000E-01  1.66666667E-01  0.00000000E+00
                      -4.16666667E-01  1.66666667E-01  0.00000000E+00
                      -3.33333333E-01  1.66666667E-01  0.00000000E+00
                      -2.50000000E-01  1.66666667E-01  0.00000000E+00
                      -1.66666667E-01  1.66666667E-01  0.00000000E+00
                       2.50000000E-01  2.50000000E-01  0.00000000E+00
                       3.33333333E-01  2.50000000E-01  0.00000000E+00
                       4.16666667E-01  2.50000000E-01  0.00000000E+00
                       5.00000000E-01  2.50000000E-01  0.00000000E+00
                      -4.16666667E-01  2.50000000E-01  0.00000000E+00
                      -3.33333333E-01  2.50000000E-01  0.00000000E+00
                      -2.50000000E-01  2.50000000E-01  0.00000000E+00
                       3.33333333E-01  3.33333333E-01  0.00000000E+00
                       4.16666667E-01  3.33333333E-01  0.00000000E+00
                       5.00000000E-01  3.33333333E-01  0.00000000E+00
                      -4.16666667E-01  3.33333333E-01  0.00000000E+00
                      -3.33333333E-01  3.33333333E-01  0.00000000E+00
                       4.16666667E-01  4.16666667E-01  0.00000000E+00
                       5.00000000E-01  4.16666667E-01  0.00000000E+00
                      -4.16666667E-01  4.16666667E-01  0.00000000E+00
                       5.00000000E-01  5.00000000E-01  0.00000000E+00
                       8.33333333E-02  0.00000000E+00  8.33333333E-02
                       1.66666667E-01  0.00000000E+00  8.33333333E-02
                       2.50000000E-01  0.00000000E+00  8.33333333E-02
                       3.33333333E-01  0.00000000E+00  8.33333333E-02
                       4.16666667E-01  0.00000000E+00  8.33333333E-02
                       5.00000000E-01  0.00000000E+00  8.33333333E-02
                      -4.16666667E-01  0.00000000E+00  8.33333333E-02
                       outvar_i_n : Printing only first  50 k-points.
         kptrlatt       12    0    0      0   12    0      0    0   12
          kptrlen1     1.74423398E+02
          kptrlen2     1.74242510E+02
          kptrlen3     1.74064229E+02
          kptrlen4     1.73885603E+02
          kptrlen5     1.73702554E+02
          kptrlen6     1.73523894E+02
          kptrlen7     1.73344289E+02
          kptrlen8     1.73164414E+02
          kptrlen9     1.72971039E+02
          kptrlen10    1.72789496E+02
P           mkmem          41
            natom           9
            nband          42
           ndtset          10
            ngfft          54      54      54
          ngfftdg          90      90      90
             nkpt         163
            nstep        2500
             nsym           8
           ntypat           4
              occ      2.000000  2.000000  2.000000  2.000000  2.000000  2.000000
                       2.000000  2.000000  2.000000  2.000000  2.000000  2.000000
                       2.000000  2.000000  2.000000  2.000000  2.000000  2.000000
                       2.000000  2.000000  2.000000  2.000000  2.000000  2.000000
                       2.000000  2.000000  2.000000  2.000000  2.000000  2.000000
                       2.000000  2.000000  2.000000  2.000000  2.000000  2.000000
                       0.000000  0.000000  0.000000  0.000000  0.000000  0.000000
        pawecutdg      4.00000000E+01 Hartree
            prtwf           0
            rprim1     0.0000000000E+00  7.1875955370E-01  6.9525873167E-01
                       7.1875955370E-01  0.0000000000E+00  6.9525873167E-01
                       7.0710678119E-01  7.0710678119E-01  0.0000000000E+00
            rprim2     0.0000000000E+00  7.1884316869E-01  6.9517227996E-01
                       7.1884316869E-01  0.0000000000E+00  6.9517227996E-01
                       7.0710678119E-01  7.0710678119E-01  0.0000000000E+00
            rprim3     0.0000000000E+00  7.1889227516E-01  6.9512149781E-01
                       7.1889227516E-01  0.0000000000E+00  6.9512149781E-01
                       7.0710678119E-01  7.0710678119E-01  0.0000000000E+00
            rprim4     0.0000000000E+00  7.1894612165E-01  6.9506580564E-01
                       7.1894612165E-01  0.0000000000E+00  6.9506580564E-01
                       7.0710678119E-01  7.0710678119E-01  0.0000000000E+00
            rprim5     0.0000000000E+00  7.1905917258E-01  6.9494885159E-01
                       7.1905917258E-01  0.0000000000E+00  6.9494885159E-01
                       7.0710678119E-01  7.0710678119E-01  0.0000000000E+00
            rprim6     0.0000000000E+00  7.1911382318E-01  6.9489230051E-01
                       7.1911382318E-01  0.0000000000E+00  6.9489230051E-01
                       7.0710678119E-01  7.0710678119E-01  0.0000000000E+00
            rprim7     0.0000000000E+00  7.1918127304E-01  6.9482249281E-01
                       7.1918127304E-01  0.0000000000E+00  6.9482249281E-01
[...]
                      -1.0259582594E-12 -1.0259582594E-12  1.2939307081E-01
           xangst7     2.7487661661E+00  2.7487661661E+00  2.6673022590E+00
                       8.2462984983E+00  8.2462984983E+00  7.9786323263E+00
                       5.4975323322E+00  5.4975323322E+00  2.5624754822E+00
                       5.4975323322E+00  5.4975323322E+00  7.9230591415E+00
                       8.1719831755E+00  5.4975323322E+00  5.3072577723E+00
                       5.4975323322E+00  8.1719831755E+00  5.3072577723E+00
                       5.4975323322E+00  2.8230814889E+00  5.3072577723E+00
                       2.8230814889E+00  5.4975323322E+00  5.3072577723E+00
                      -2.0093319626E-12 -2.0093319626E-12  1.3014023918E-01
           xangst8     2.7461858585E+00  2.7461858585E+00  2.6638019521E+00
                       8.2385575755E+00  8.2385575755E+00  7.9690574279E+00
                       5.4923717170E+00  5.4923717170E+00  2.5628951268E+00
                       5.4923717169E+00  5.4923717169E+00  7.9127636724E+00
                       8.1629076070E+00  5.4923717170E+00  5.3006422613E+00
                       5.4923717170E+00  8.1629076070E+00  5.3006422613E+00
                       5.4923717169E+00  2.8218358270E+00  5.3006422613E+00
                       2.8218358270E+00  5.4923717169E+00  5.3006422613E+00
                      -1.8776388988E-12 -1.8776388988E-12  1.3095658190E-01
           xangst9     2.7440844277E+00  2.7440844277E+00  2.6587928288E+00
                       8.2322532831E+00  8.2322532831E+00  7.9561244785E+00
                       5.4881688555E+00  5.4881688555E+00  2.5642490087E+00
                       5.4881688554E+00  5.4881688554E+00  7.8991560076E+00
                       8.1557651423E+00  5.4881688555E+00  5.2919916054E+00
                       5.4881688555E+00  8.1557651423E+00  5.2919916054E+00
                       5.4881688554E+00  2.8205725685E+00  5.2919916054E+00
                       2.8205725685E+00  5.4881688554E+00  5.2919916054E+00
                      -1.9171353201E-12 -1.9171353201E-12  1.3236445213E-01
           xangst10    2.7415640367E+00  2.7415640367E+00  2.6551329529E+00
                       8.2246921100E+00  8.2246921100E+00  7.9461594142E+00
                       5.4831280733E+00  5.4831280733E+00  2.5647458102E+00
                       5.4831280733E+00  5.4831280733E+00  7.8884465798E+00
                       8.1469376936E+00  5.4831280733E+00  5.2851232141E+00
                       5.4831280733E+00  8.1469376936E+00  5.2851232141E+00
                       5.4831280733E+00  2.8193184531E+00  5.2851232141E+00
                       2.8193184531E+00  5.4831280733E+00  5.2851232141E+00
                      -1.3634478489E-14 -1.3634478489E-14  1.3323407685E-01
            xcart1     5.2236868150E+00  5.2236868150E+00  5.0791362580E+00
                       1.5671060445E+01  1.5671060445E+01  1.5184918785E+01
                       1.0447373630E+01  1.0447373630E+01  4.8376316485E+00
                       1.0447373630E+01  1.0447373630E+01  1.5090264966E+01
                       1.5546277614E+01  1.0447373630E+01  1.0104202001E+01
                       1.0447373630E+01  1.5546277614E+01  1.0104202001E+01
                       1.0447373630E+01  5.3484696463E+00  1.0104202001E+01
                       5.3484696463E+00  1.0447373630E+01  1.0104202001E+01
                      -5.2679465195E-12 -5.2679465195E-12  2.3750055697E-01
            xcart2     5.2188765720E+00  5.2188765720E+00  5.0720603190E+00
                       1.5656629716E+01  1.5656629716E+01  1.5166107208E+01
                       1.0437753144E+01  1.0437753144E+01  4.8384884205E+00
                       1.0437753144E+01  1.0437753144E+01  1.5070411407E+01
                       1.5529187424E+01  1.0437753144E+01  1.0091558334E+01
                       1.0437753144E+01  1.5529187424E+01  1.0091558334E+01
                       1.0437753144E+01  5.3463188637E+00  1.0091558334E+01
                       5.3463188637E+00  1.0437753144E+01  1.0091558334E+01
                      -1.9214127482E-12 -1.9214127482E-12  2.3907442354E-01
            xcart3     5.2138929153E+00  5.2138929153E+00  5.0657933187E+00
                       1.5641678746E+01  1.5641678746E+01  1.5148775646E+01
                       1.0427785831E+01  1.0427785831E+01  4.8394437609E+00
                       1.0427785831E+01  1.0427785831E+01  1.5051483123E+01
                       1.5511520774E+01  1.0427785831E+01  1.0079469569E+01
                       1.0427785831E+01  1.5511520774E+01  1.0079469569E+01
                       1.0427785831E+01  5.3440508871E+00  1.0079469569E+01
                       5.3440508871E+00  1.0427785831E+01  1.0079469569E+01
                      -1.3031738131E-13 -1.3031738131E-13  2.4048448972E-01
            xcart4     5.2089324913E+00  5.2089324913E+00  5.0594148411E+00
                       1.5626797474E+01  1.5626797474E+01  1.5131242894E+01
                       1.0417864983E+01  1.0417864983E+01  4.8403471967E+00
                       1.0417864982E+01  1.0417864982E+01  1.5032463180E+01
                       1.5493956891E+01  1.0417864983E+01  1.0067305900E+01
                       1.0417864983E+01  1.5493956891E+01  1.0067305900E+01
                       1.0417864982E+01  5.3417730745E+00  1.0067305900E+01
                       5.3417730745E+00  1.0417864982E+01  1.0067305900E+01
                      -1.0241067813E-11 -1.0241067813E-11  2.4193271685E-01
            xcart5     5.2042672897E+00  5.2042672897E+00  5.0531073756E+00
                       1.5612801869E+01  1.5612801869E+01  1.5112639926E+01
                       1.0408534580E+01  1.0408534580E+01  4.8407582056E+00
                       1.0408534579E+01  1.0408534579E+01  1.5010974781E+01
                       1.5477564834E+01  1.0408534580E+01  1.0053925607E+01
                       1.0408534580E+01  1.5477564834E+01  1.0053925607E+01
                       1.0408534579E+01  5.3395043245E+00  1.0053925607E+01
                       5.3395043245E+00  1.0408534579E+01  1.0053925607E+01
                      -6.8508763625E-12 -6.8508763625E-12  2.4307768787E-01
            xcart6     5.1993096153E+00  5.1993096153E+00  5.0468351518E+00
                       1.5597928846E+01  1.5597928846E+01  1.5095203305E+01
                       1.0398619231E+01  1.0398619231E+01  4.8415306761E+00
                       1.0398619231E+01  1.0398619231E+01  1.4991947570E+01
                       1.5460049991E+01  1.0398619231E+01  1.0041727764E+01
                       1.0398619231E+01  1.5460049991E+01  1.0041727764E+01
                       1.0398619231E+01  5.3371884707E+00  1.0041727764E+01
                       5.3371884707E+00  1.0398619231E+01  1.0041727764E+01
                      -1.9387801340E-12 -1.9387801340E-12  2.4451746733E-01
            xcart7     5.1944152573E+00  5.1944152573E+00  5.0404707832E+00
                       1.5583245772E+01  1.5583245772E+01  1.5077430012E+01
                       1.0388830515E+01  1.0388830515E+01  4.8423768836E+00
                       1.0388830514E+01  1.0388830514E+01  1.4972411912E+01
                       1.5442810164E+01  1.0388830515E+01  1.0029263706E+01
                       1.0388830515E+01  1.5442810164E+01  1.0029263706E+01
                       1.0388830514E+01  5.3348508648E+00  1.0029263706E+01
                       5.3348508648E+00  1.0388830514E+01  1.0029263706E+01
                      -3.7970871194E-12 -3.7970871194E-12  2.4592941092E-01
            xcart8     5.1895391826E+00  5.1895391826E+00  5.0338561617E+00
                       1.5568617548E+01  1.5568617548E+01  1.5059336076E+01
                       1.0379078365E+01  1.0379078365E+01  4.8431698970E+00
                       1.0379078365E+01  1.0379078365E+01  1.4952956295E+01
                       1.5425659825E+01  1.0379078365E+01  1.0016762202E+01
                       1.0379078365E+01  1.5425659825E+01  1.0016762202E+01
                       1.0379078365E+01  5.3324969049E+00  1.0016762202E+01
                       5.3324969049E+00  1.0379078365E+01  1.0016762202E+01
                      -3.5482232951E-12 -3.5482232951E-12  2.4747207510E-01
            xcart9     5.1855680539E+00  5.1855680539E+00  5.0243902905E+00
                       1.5556704162E+01  1.5556704162E+01  1.5034896344E+01
                       1.0371136108E+01  1.0371136108E+01  4.8457283630E+00
                       1.0371136108E+01  1.0371136108E+01  1.4927241535E+01
                       1.5412162523E+01  1.0371136108E+01  1.0000414832E+01
                       1.0371136108E+01  1.5412162523E+01  1.0000414832E+01
                       1.0371136108E+01  5.3301096925E+00  1.0000414832E+01
                       5.3301096925E+00  1.0371136108E+01  1.0000414832E+01
                      -3.6228607147E-12 -3.6228607147E-12  2.5013256426E-01
            xcart10    5.1808052051E+00  5.1808052051E+00  5.0174741273E+00
                       1.5542415615E+01  1.5542415615E+01  1.5016065101E+01
                       1.0361610410E+01  1.0361610410E+01  4.8466671817E+00
                       1.0361610410E+01  1.0361610410E+01  1.4907003650E+01
                       1.5395481063E+01  1.0361610410E+01  9.9874354533E+00
                       1.0361610410E+01  1.5395481063E+01  9.9874354533E+00
                       1.0361610410E+01  5.3277397577E+00  9.9874354533E+00
                       5.3277397577E+00  1.0361610410E+01  9.9874354533E+00
                      -2.5765430309E-14 -2.5765430309E-14  2.5177591681E-01
             xred1     2.5129851371E-01  2.5129851371E-01  2.4870148629E-01
                       7.5129851371E-01  7.5129851371E-01  7.4870148629E-01
                       2.3934968101E-01  2.3934968101E-01  7.6065031899E-01
                       7.4661536231E-01  7.4661536231E-01  2.5338463769E-01
                       2.5589377220E-01  7.4394982957E-01  7.4410622780E-01
                       7.4394982957E-01  2.5589377220E-01  7.4410622780E-01
                       2.5589377220E-01  7.4394982957E-01  2.5605017043E-01
                       7.4394982957E-01  2.5589377220E-01  2.5605017043E-01
                       1.1750725702E-02  1.1750725702E-02 -1.1750725702E-02
             xred2     2.5124018021E-01  2.5124018021E-01  2.4875981979E-01
                       7.5124018021E-01  7.5124018021E-01  7.4875981979E-01
                       2.3967039551E-01  2.3967039551E-01  7.6032960449E-01
                       7.4649997034E-01  7.4649997034E-01  2.5350002966E-01
                       2.5598160343E-01  7.4377185963E-01  7.4401839657E-01
                       7.4377185963E-01  2.5598160343E-01  7.4401839657E-01
                       2.5598160343E-01  7.4377185963E-01  2.5622814037E-01
                       7.4377185963E-01  2.5598160343E-01  2.5622814037E-01
                       1.1842347582E-02  1.1842347582E-02 -1.1842347582E-02
             xred3     2.5120510750E-01  2.5120510750E-01  2.4879489250E-01
                       7.5120510750E-01  7.5120510750E-01  7.4879489250E-01
                       2.3998077176E-01  2.3998077176E-01  7.6001922824E-01
                       7.4638051695E-01  7.4638051695E-01  2.5361948305E-01
                       2.5606672844E-01  7.4358488676E-01  7.4393327156E-01
                       7.4358488676E-01  2.5606672844E-01  7.4393327156E-01
                       2.5606672844E-01  7.4358488676E-01  2.5641511324E-01
                       7.4358488676E-01  2.5606672844E-01  2.5641511324E-01
                       1.1925265855E-02  1.1925265855E-02 -1.1925265855E-02
             xred4     2.5116666082E-01  2.5116666082E-01  2.4883333918E-01
                       7.5116666082E-01  7.5116666082E-01  7.4883333918E-01
                       2.4029139353E-01  2.4029139353E-01  7.5970860647E-01
                       7.4626289786E-01  7.4626289786E-01  2.5373710214E-01
                       2.5615111936E-01  7.4339989026E-01  7.4384888064E-01
                       7.4339989026E-01  2.5615111936E-01  7.4384888064E-01
                       2.5615111936E-01  7.4339989026E-01  2.5660010974E-01
                       7.4339989026E-01  2.5615111936E-01  2.5660010974E-01
                       1.2010367709E-02  1.2010367709E-02 -1.2010367709E-02
             xred5     2.5116014835E-01  2.5116014835E-01  2.4883985165E-01
                       7.5116014835E-01  7.5116014835E-01  7.4883985165E-01
                       2.4060552422E-01  2.4060552422E-01  7.5939447578E-01
                       7.4610697394E-01  7.4610697394E-01  2.5389302606E-01
                       2.5621776124E-01  7.4322486260E-01  7.4378223876E-01
                       7.4322486260E-01  2.5621776124E-01  7.4378223876E-01
                       2.5621776124E-01  7.4322486260E-01  2.5677513740E-01
                       7.4322486260E-01  2.5621776124E-01  2.5677513740E-01
                       1.2081957419E-02  1.2081957419E-02 -1.2081957419E-02
             xred6     2.5112710218E-01  2.5112710218E-01  2.4887289782E-01
                       7.5112710218E-01  7.5112710218E-01  7.4887289782E-01
                       2.4091129039E-01  2.4091129039E-01  7.5908870961E-01
                       7.4598916666E-01  7.4598916666E-01  2.5401083334E-01
                       2.5629925003E-01  7.4303990739E-01  7.4370074997E-01
                       7.4303990739E-01  2.5629925003E-01  7.4370074997E-01
                       2.5629925003E-01  7.4303990739E-01  2.5696009261E-01
                       7.4303990739E-01  2.5629925003E-01  2.5696009261E-01
                       1.2167023720E-02  1.2167023720E-02 -1.2167023720E-02
             xred7     2.5109550953E-01  2.5109550953E-01  2.4890449047E-01
                       7.5109550953E-01  7.5109550953E-01  7.4890449047E-01
                       2.4122728674E-01  2.4122728674E-01  7.5877271326E-01
                       7.4586394003E-01  7.4586394003E-01  2.5413605997E-01
                       2.5637561172E-01  7.4285766980E-01  7.4362438828E-01
                       7.4285766980E-01  2.5637561172E-01  7.4362438828E-01
                       2.5637561172E-01  7.4285766980E-01  2.5714233020E-01
                       7.4285766980E-01  2.5637561172E-01  2.5714233020E-01
                       1.2251191089E-02  1.2251191089E-02 -1.2251191089E-02
             xred8     2.5105312687E-01  2.5105312687E-01  2.4894687313E-01
                       7.5105312687E-01  7.5105312687E-01  7.4894687313E-01
                       2.4154304524E-01  2.4154304524E-01  7.5845695476E-01
                       7.4574765612E-01  7.4574765612E-01  2.5425234388E-01
                       2.5645204382E-01  7.4267840060E-01  7.4354795618E-01
                       7.4267840060E-01  2.5645204382E-01  7.4354795618E-01
                       2.5645204382E-01  7.4267840060E-01  2.5732159940E-01
                       7.4267840060E-01  2.5645204382E-01  2.5732159940E-01
                       1.2342156047E-02  1.2342156047E-02 -1.2342156047E-02
             xred9     2.5095585897E-01  2.5095585897E-01  2.4904414103E-01
                       7.5095585897E-01  7.5095585897E-01  7.4904414103E-01
                       2.4203213790E-01  2.4203213790E-01  7.5796786210E-01
                       7.4557876776E-01  7.4557876776E-01  2.5442123224E-01
                       2.5646442579E-01  7.4252751116E-01  7.4353557421E-01
                       7.4252751116E-01  2.5646442579E-01  7.4353557421E-01
                       2.5646442579E-01  7.4252751116E-01  2.5747248884E-01
                       7.4252751116E-01  2.5646442579E-01  2.5747248884E-01
                       1.2493502473E-02  1.2493502473E-02 -1.2493502473E-02
             xred10    2.5090906011E-01  2.5090906011E-01  2.4909093989E-01
                       7.5090906011E-01  7.5090906011E-01  7.4909093989E-01
                       2.4236750930E-01  2.4236750930E-01  7.5763249070E-01
                       7.4545521908E-01  7.4545521908E-01  2.5454478092E-01
                       2.5653247915E-01  7.4235181159E-01  7.4346752085E-01
                       7.4235181159E-01  2.5653247915E-01  7.4346752085E-01
                       2.5653247915E-01  7.4235181159E-01  2.5764818841E-01
                       7.4235181159E-01  2.5653247915E-01  2.5764818841E-01
                       1.2590569885E-02  1.2590569885E-02 -1.2590569885E-02
            znucl       55.00000   53.00000   40.00000   17.00000

- Timing analysis has been suppressed with timopt=0

 Suggested references for the acknowledgment of ABINIT usage.

 Calculation completed.
.Delivered   0 WARNINGs and   0 COMMENTs to log file.