.Version 9.2.2 of ABINIT

 ABINIT is a project of the Universite Catholique de Louvain,
 Corning Inc. and other collaborators, see ~abinit/doc/developers/contributors.txt .
 acknowledgments of the ABINIT effort.

.Starting date : Fri 11 Nov 2022.
- ( at 19h51 )

- input  file    -> Cs2TiI6.in
- output file    -> Cs2TiI6.out
- root for input  files -> Cs2TiI6i
- root for output files -> Cs2TiI6o

- inpspheads : Reading pseudopotential header in XML form from
-   ../../../Psps_for_tests/ATOMICDATA/Cs.GGA_PBE-JTH.xml
- inpspheads : Reading pseudopotential header in XML form from
-   ../../../Psps_for_tests/ATOMICDATA/I.GGA_PBE-JTH.xml
- inpspheads : Reading pseudopotential header in XML form from
-   ../../../Psps_for_tests/ATOMICDATA/Hf.GGA_PBE-JTH.xml
- inpspheads : Reading pseudopotential header in XML form from
-   ../../../Psps_for_tests/ATOMICDATA/Br.GGA_PBE-JTH.xml

 DATASET    1 : space group I4/m m m (#139); Bravais tI (body-center tetrag.)
     intxc =       0    ionmov =       2      iscf =      17    lmnmax =      18
     lnmax =       6     mgfft =      64  mpssoang =       3    mqgrid =    3950
     natom =       9  nloc_mem =       2    nspden =       1   nspinor =       1
    nsppol =       1      nsym =      16    n1xccc =       1    ntypat =       4
    occopt =       1   xclevel =       2
-    mband =          42        mffmem =           1         mkmem =           4
       mpw =       10638          nfft =      262144          nkpt =          20
Pmy_natom=         2
 PAW method is used; the additional fine FFT grid is defined by:
   mgfftf=       100    nfftf =   1000000
  Rough estimation (10% accuracy) of disk space for files :

[...]

 DATASET   10 : space group I4/m m m (#139); Bravais tI (body-center tetrag.)
     intxc =       0    ionmov =       2      iscf =      17    lmnmax =      18
     lnmax =       6     mgfft =      64  mpssoang =       3    mqgrid =    3915
     natom =       9  nloc_mem =       2    nspden =       1   nspinor =       1
    nsppol =       1      nsym =      16    n1xccc =       1    ntypat =       4
    occopt =       1   xclevel =       2
-    mband =          42        mffmem =           1         mkmem =           4
       mpw =       10341          nfft =      262144          nkpt =          20
Pmy_natom=         2
 PAW method is used; the additional fine FFT grid is defined by:
   mgfftf=       100    nfftf =   1000000
  Rough estimation (10% accuracy) of disk space for files :

------------- Echo of variables that govern the present computation ------------
-
- outvars: echo of selected default values
-   iomode0 =  0 , fftalg0 =112 , wfoptalg0 = 10
-
- outvars: echo of global parameters not present in the input file
-  max_nthreads =    0
-
 -outvars: echo values of preprocessed input variables --------
            acell1     1.4756645788E+01  1.4812882053E+01  1.4756645788E+01 Bohr
            acell2     1.4741874371E+01  1.4798054343E+01  1.4741874371E+01 Bohr
            acell3     1.4727102953E+01  1.4783226634E+01  1.4727102953E+01 Bohr
            acell4     1.4712331536E+01  1.4768398924E+01  1.4712331536E+01 Bohr
            acell5     1.4697560119E+01  1.4753571214E+01  1.4697560119E+01 Bohr
            acell6     1.4682788702E+01  1.4738743504E+01  1.4682788702E+01 Bohr
            acell7     1.4668017285E+01  1.4723915795E+01  1.4668017285E+01 Bohr
            acell8     1.4653245867E+01  1.4709088085E+01  1.4653245867E+01 Bohr
            acell9     1.4638474450E+01  1.4694260375E+01  1.4638474450E+01 Bohr
            acell10    1.4623703033E+01  1.4679432665E+01  1.4623703033E+01 Bohr
              amu      1.32905430E+02  1.26904470E+02  1.78490000E+02
                       7.99040000E+01
           diemac      1.20000000E+01
          dilatmx      1.15000000E+00
             ecut      1.60000000E+01 Hartree
           ecutsm      5.00000000E-01 Hartree
-          fftalg         112
          getxred1          0
          getxred2         -1
          getxred3         -1
          getxred4         -1
          getxred5         -1
          getxred6         -1
          getxred7         -1
          getxred8         -1
          getxred9         -1
          getxred10        -1
           ionmov           2
              ixc     -101130
           jdtset        1    2    3    4    5    6    7    8    9   10
              kpt      0.00000000E+00 -1.25000000E-01  0.00000000E+00
                       0.00000000E+00 -3.75000000E-01  0.00000000E+00
                       1.25000000E-01 -2.50000000E-01  0.00000000E+00
                       1.25000000E-01 -1.25000000E-01  1.25000000E-01
                       1.25000000E-01  5.00000000E-01  0.00000000E+00
                       2.50000000E-01 -3.75000000E-01  0.00000000E+00
                       1.25000000E-01 -3.75000000E-01  1.25000000E-01
                       2.50000000E-01 -2.50000000E-01  1.25000000E-01
                       2.50000000E-01 -1.25000000E-01  2.50000000E-01
                       1.25000000E-01  2.50000000E-01  0.00000000E+00
                       2.50000000E-01  3.75000000E-01  0.00000000E+00
                       3.75000000E-01  5.00000000E-01  0.00000000E+00
                       1.25000000E-01  3.75000000E-01  1.25000000E-01
                       2.50000000E-01  5.00000000E-01  1.25000000E-01
                       3.75000000E-01 -3.75000000E-01  1.25000000E-01
                       2.50000000E-01 -3.75000000E-01  2.50000000E-01
                       3.75000000E-01 -2.50000000E-01  2.50000000E-01
                       3.75000000E-01 -1.25000000E-01  3.75000000E-01
                       5.00000000E-01  2.50000000E-01  1.25000000E-01
                      -3.75000000E-01  3.75000000E-01  1.25000000E-01
         kptrlatt        4    4   -4     -4    4    4      4   -4    4
          kptrlen1     8.31568571E+01
          kptrlen2     8.30736170E+01
          kptrlen3     8.29903769E+01
          kptrlen4     8.29071368E+01
          kptrlen5     8.28238967E+01
          kptrlen6     8.27406566E+01
          kptrlen7     8.26574165E+01
          kptrlen8     8.25741764E+01
          kptrlen9     8.24909363E+01
          kptrlen10    8.24076962E+01
P           mkmem           4
            natom           9
            nband          42
           ndtset          10
            ngfft          64      64      64
          ngfftdg         100     100     100
             nkpt          20
            nstep        2500
             nsym          16
            ntime        1000
           ntypat           4
              occ      2.000000  2.000000  2.000000  2.000000  2.000000  2.000000
                       2.000000  2.000000  2.000000  2.000000  2.000000  2.000000
                       2.000000  2.000000  2.000000  2.000000  2.000000  2.000000
                       2.000000  2.000000  2.000000  2.000000  2.000000  2.000000
                       2.000000  2.000000  2.000000  2.000000  2.000000  2.000000
                       2.000000  2.000000  2.000000  2.000000  2.000000  2.000000
                       0.000000  0.000000  0.000000  0.000000  0.000000  0.000000
          optcell           3
        optforces           1
        pawecutdg      4.00000000E+01 Hartree
            prtwf           0
            rprim      0.0000000000E+00  7.0440175136E-01  7.0980150231E-01
                       7.0710678119E-01  0.0000000000E+00  7.0710678119E-01
                       7.0980150231E-01  7.0440175136E-01  0.0000000000E+00
           shiftk     -5.00000000E-01  5.00000000E-01  5.00000000E-01
          spgroup         139
           symrel      1  0  0   0  1  0   0  0  1      -1  0  0   0 -1  0   0  0 -1
                       0  0 -1   0 -1  0  -1  0  0       0  0  1   0  1  0   1  0  0
                       0 -1  1   0 -1  0   1 -1  0       0  1 -1   0  1  0  -1  1  0
                      -1  1  0   0  1  0   0  1 -1       1 -1  0   0 -1  0   0 -1  1
                       0 -1  1  -1  0  1   0  0  1       0  1 -1   1  0 -1   0  0 -1
                       0  0 -1   1  0 -1   0  1 -1       0  0  1  -1  0  1   0 -1  1
                       1  0  0   1  0 -1   1 -1  0      -1  0  0  -1  0  1  -1  1  0
                      -1  1  0  -1  0  1  -1  0  0       1 -1  0   1  0 -1   1  0  0
           toldff      1.00000000E-08
           tolmxf      1.00000000E-05
            typat      1  1  2  4  4  2  4  4  3
           useylm           1
              wtk        0.03125    0.03125    0.06250    0.03125    0.06250    0.06250
                         0.03125    0.06250    0.03125    0.06250    0.06250    0.06250
                         0.03125    0.06250    0.06250    0.03125    0.06250    0.03125
                         0.06250    0.06250
           xangst1     2.7713775998E+00  2.7502945946E+00  2.7713775998E+00
                       8.3141327995E+00  8.2508837838E+00  8.3141327995E+00
                       5.5427551997E+00  8.1456036252E+00  5.5427551997E+00
                       5.5427551997E+00  5.5005891892E+00  2.6070291249E+00
                       5.5427551996E+00  5.5005891892E+00  8.4784812745E+00
                       5.5427551996E+00  2.8555747532E+00  5.5427551996E+00
                       8.4784812745E+00  5.5005891892E+00  5.5427551996E+00
                       2.6070291249E+00  5.5005891892E+00  5.5427551997E+00
                       3.2269008200E-21 -3.8885797502E-23  4.6847733666E-22
           xangst2     2.7686034481E+00  2.7475415470E+00  2.7686034481E+00
                       8.3058103443E+00  8.2426246409E+00  8.3058103443E+00
                       5.5372068962E+00  8.1374498678E+00  5.5372068962E+00
                       5.5372068962E+00  5.4950830939E+00  2.6044194861E+00
                       5.5372068961E+00  5.4950830939E+00  8.4699943063E+00
                       5.5372068961E+00  2.8527163200E+00  5.5372068961E+00
                       8.4699943063E+00  5.4950830939E+00  5.5372068961E+00
                       2.6044194861E+00  5.4950830939E+00  5.5372068962E+00
                       3.2236706890E-21 -3.8846872780E-23  4.6800839038E-22
           xangst3     2.7658292963E+00  2.7447884993E+00  2.7658292963E+00
                       8.2974878890E+00  8.2343654980E+00  8.2974878890E+00
                       5.5316585927E+00  8.1292961105E+00  5.5316585927E+00
                       5.5316585927E+00  5.4895769986E+00  2.6018098473E+00
                       5.5316585926E+00  5.4895769986E+00  8.4615073380E+00
                       5.5316585926E+00  2.8498578868E+00  5.5316585926E+00
                       8.4615073380E+00  5.4895769986E+00  5.5316585926E+00
                       2.6018098473E+00  5.4895769986E+00  5.5316585927E+00
                       3.2204405581E-21 -3.8807948058E-23  4.6753944410E-22
           xangst4     2.7630551446E+00  2.7420354517E+00  2.7630551446E+00
                       8.2891654338E+00  8.2261063550E+00  8.2891654338E+00
                       5.5261102892E+00  8.1211423531E+00  5.5261102892E+00
                       5.5261102892E+00  5.4840709034E+00  2.5992002086E+00
                       5.5261102891E+00  5.4840709034E+00  8.4530203698E+00
[...]
                       3.2103443116E-21 -3.8700957232E-23  4.6607368394E-22
           xangst7     2.7546119144E+00  2.7340160367E+00  2.7546119144E+00
                       8.2638357433E+00  8.2020481101E+00  8.2638357433E+00
                       5.5092238289E+00  8.0837704820E+00  5.5092238289E+00
                       5.5092238290E+00  5.4680320734E+00  2.6072135631E+00
                       5.5092238288E+00  5.4680320734E+00  8.4112340947E+00
                       5.5092238288E+00  2.8522936649E+00  5.5092238288E+00
                       8.4112340947E+00  5.4680320734E+00  5.5092238288E+00
                       2.6072135631E+00  5.4680320734E+00  5.5092238290E+00
                       3.2073794080E-21 -3.8655638628E-23  4.6564324302E-22
           xangst8     2.7519022768E+00  2.7311349300E+00  2.7519022768E+00
                       8.2557068305E+00  8.1934047900E+00  8.2557068305E+00
                       5.5038045537E+00  8.0731476726E+00  5.5038045537E+00
                       5.5038045537E+00  5.4622698600E+00  2.6068209456E+00
                       5.5038045536E+00  5.4622698600E+00  8.4007881617E+00
                       5.5038045536E+00  2.8513920475E+00  5.5038045536E+00
                       8.4007881617E+00  5.4622698600E+00  5.5038045536E+00
                       2.6068209456E+00  5.4622698600E+00  5.5038045537E+00
                       2.2150293483E-21 -3.8915435665E-21  1.6631454987E-21
           xangst9     2.7484953072E+00  2.7296384009E+00  2.7484953072E+00
                       8.2454859216E+00  8.1889152028E+00  8.2454859216E+00
                       5.4969906144E+00  8.0679429087E+00  5.4969906144E+00
                       5.4969906144E+00  5.4592768018E+00  2.6063853845E+00
                       5.4969906143E+00  5.4592768018E+00  8.3875958442E+00
                       5.4969906143E+00  2.8506106950E+00  5.4969906143E+00
                       8.3875958442E+00  5.4592768018E+00  5.4969906143E+00
                       2.6063853845E+00  5.4592768018E+00  5.4969906144E+00
                       3.2002574319E-21 -3.8593744219E-23  4.6460928364E-22
           xangst10    2.7456320172E+00  2.7270624160E+00  2.7456320172E+00
                       8.2368960515E+00  8.1811872479E+00  8.2368960515E+00
                       5.4912640344E+00  8.0585981954E+00  5.4912640344E+00
                       5.4912640344E+00  5.4541248319E+00  2.6059816875E+00
                       5.4912640343E+00  5.4541248319E+00  8.3765463812E+00
                       5.4912640343E+00  2.8496514684E+00  5.4912640343E+00
                       8.3765463812E+00  5.4541248319E+00  5.4912640343E+00
                       2.6059816875E+00  5.4541248319E+00  5.4912640344E+00
                       3.1969235113E-21 -3.8557322946E-23  4.6412526930E-22
            xcart1     5.2371643387E+00  5.1972645395E+00  5.2371643387E+00
                       1.5711493016E+01  1.5591793619E+01  1.5711493016E+01
                       1.0474328678E+01  1.5388995562E+01  1.0474328678E+01
                       1.0474328678E+01  1.0394529079E+01  4.9309643955E+00
                       1.0474328677E+01  1.0394529079E+01  1.6017692959E+01
                       1.0474328677E+01  5.4000625961E+00  1.0474328677E+01
                       1.6017692959E+01  1.0394529079E+01  1.0474328677E+01
                       4.9309643955E+00  1.0394529079E+01  1.0474328678E+01
                       6.0979817041E-21 -7.3482955915E-23  8.8529718983E-22
            xcart2     5.2319151667E+00  5.1920755001E+00  5.2319151667E+00
                       1.5695745500E+01  1.5576226500E+01  1.5695745500E+01
                       1.0463830333E+01  1.5369872811E+01  1.0463830333E+01
                       1.0463830333E+01  1.0384151000E+01  4.9303544797E+00
                       1.0463830333E+01  1.0384151000E+01  1.5997306187E+01
                       1.0463830333E+01  5.3984291889E+00  1.0463830333E+01
                       1.5997306187E+01  1.0384151000E+01  1.0463830333E+01
                       4.9303544797E+00  1.0384151000E+01  1.0463830333E+01
                       6.0918697410E-21 -7.3409589252E-23  8.8440986283E-22
            xcart3     5.2266754448E+00  5.1868677042E+00  5.2266754448E+00
                       1.5680026334E+01  1.5560603113E+01  1.5680026334E+01
                       1.0453350890E+01  1.5350712964E+01  1.0453350890E+01
                       1.0453350890E+01  1.0373735408E+01  4.9296613620E+00
                       1.0453350890E+01  1.0373735408E+01  1.5977040417E+01
                       1.0453350890E+01  5.3967578529E+00  1.0453350890E+01
                       1.5977040417E+01  1.0373735408E+01  1.0453350890E+01
                       4.9296613620E+00  1.0373735408E+01  1.0453350890E+01
                       6.0857687815E-21 -7.3335957395E-23  8.8352413332E-22
            xcart4     5.2214329424E+00  5.1816654271E+00  5.2214329424E+00
                       1.5664298827E+01  1.5544996281E+01  1.5664298827E+01
                       1.0442865885E+01  1.5331555616E+01  1.0442865885E+01
                       1.0442865885E+01  1.0363330854E+01  4.9290280174E+00
                       1.0442865885E+01  1.0363330854E+01  1.5956703752E+01
                       1.0442865885E+01  5.3951060924E+00  1.0442865885E+01
                       1.5956703752E+01  1.0363330854E+01  1.0442865885E+01
                       4.9290280174E+00  1.0363330854E+01  1.0442865885E+01
                       6.0796645842E-21 -7.3262403569E-23  8.8263793377E-22
            xcart5     5.2161777826E+00  5.1764882720E+00  5.2161777826E+00
                       1.5648533348E+01  1.5529464816E+01  1.5648533348E+01
                       1.0432355565E+01  1.5312531369E+01  1.0432355565E+01
                       1.0432355565E+01  1.0352976544E+01  4.9283744588E+00
                       1.0432355565E+01  1.0352976544E+01  1.5936336672E+01
                       1.0432355565E+01  5.3934217190E+00  1.0432355565E+01
                       1.5936336672E+01  1.0352976544E+01  1.0432355565E+01
                       4.9283744588E+00  1.0352976544E+01  1.0432355565E+01
                       6.1543165377E-21 -4.9510070346E-21  5.3709014650E-22
            xcart6     5.2102740532E+00  5.1725986362E+00  5.2102740532E+00
                       1.5630822160E+01  1.5517795909E+01  1.5630822160E+01
                       1.0420548107E+01  1.5298565424E+01  1.0420548107E+01
                       1.0420548107E+01  1.0345197272E+01  4.9275133773E+00
                       1.0420548106E+01  1.0345197272E+01  1.5913582836E+01
                       1.0420548106E+01  5.3918291215E+00  1.0420548106E+01
                       1.5913582836E+01  1.0345197272E+01  1.0420548106E+01
                       4.9275133773E+00  1.0345197272E+01  1.0420548107E+01
                       6.0666715412E-21 -7.3134210249E-23  8.8075162038E-22
            xcart7     5.2054621207E+00  5.1665415523E+00  5.2054621207E+00
                       1.5616386362E+01  1.5499624657E+01  1.5616386362E+01
                       1.0410924241E+01  1.5276112332E+01  1.0410924241E+01
                       1.0410924241E+01  1.0333083105E+01  4.9269196042E+00
                       1.0410924241E+01  1.0333083105E+01  1.5894928879E+01
                       1.0410924241E+01  5.3900538772E+00  1.0410924241E+01
                       1.5894928879E+01  1.0333083105E+01  1.0410924241E+01
                       4.9269196042E+00  1.0333083105E+01  1.0410924241E+01
                       6.0610686854E-21 -7.3048570500E-23  8.7993820494E-22
            xcart8     5.2003416477E+00  5.1610970497E+00  5.2003416477E+00
                       1.5601024943E+01  1.5483291149E+01  1.5601024943E+01
                       1.0400683295E+01  1.5256038132E+01  1.0400683295E+01
                       1.0400683295E+01  1.0322194099E+01  4.9261776647E+00
                       1.0400683295E+01  1.0322194099E+01  1.5875188926E+01
                       1.0400683295E+01  5.3883500672E+00  1.0400683295E+01
                       1.5875188926E+01  1.0322194099E+01  1.0400683295E+01
                       4.9261776647E+00  1.0322194099E+01  1.0400683295E+01
                       4.1857988447E-21 -7.3539515749E-21  3.1428895118E-21
            xcart9     5.1939034081E+00  5.1582690195E+00  5.1939034081E+00
                       1.5581710224E+01  1.5474807059E+01  1.5581710224E+01
                       1.0387806816E+01  1.5246202553E+01  1.0387806816E+01
                       1.0387806816E+01  1.0316538039E+01  4.9253545736E+00
                       1.0387806816E+01  1.0316538039E+01  1.5850259059E+01
                       1.0387806816E+01  5.3868735249E+00  1.0387806816E+01
                       1.5850259059E+01  1.0316538039E+01  1.0387806816E+01
                       4.9253545736E+00  1.0316538039E+01  1.0387806816E+01
                       6.0476101010E-21 -7.2931607017E-23  8.7798430487E-22
            xcart10    5.1884925741E+00  5.1534011134E+00  5.1884925741E+00
                       1.5565477722E+01  1.5460203340E+01  1.5565477722E+01
                       1.0376985148E+01  1.5228543604E+01  1.0376985148E+01
                       1.0376985148E+01  1.0306802227E+01  4.9245916966E+00
                       1.0376985148E+01  1.0306802227E+01  1.5829378600E+01
                       1.0376985148E+01  5.3850608495E+00  1.0376985148E+01
                       1.5829378600E+01  1.0306802227E+01  1.0376985148E+01
                       4.9245916966E+00  1.0306802227E+01  1.0376985148E+01
                       6.0413099041E-21 -7.2862780786E-23  8.7706965033E-22
             xred1     2.5000000000E-01  2.5000000000E-01  2.5000000000E-01
                       7.5000000000E-01  7.5000000000E-01  7.5000000000E-01
                       7.4024496179E-01  2.5975503821E-01  7.4024496179E-01
                       2.3538331416E-01  2.3538331416E-01  7.6461668584E-01
                       7.6461668584E-01  7.6461668584E-01  2.3538331416E-01
                       2.5975503821E-01  7.4024496179E-01  2.5975503821E-01
                       2.3538331416E-01  7.6461668584E-01  7.6461668584E-01
                       7.6461668584E-01  2.3538331416E-01  2.3538331416E-01
                      -2.5236613091E-22  3.3688679254E-22  2.4529674322E-22
             xred2     2.5000000000E-01  2.5000000000E-01  2.5000000000E-01
                       7.5000000000E-01  7.5000000000E-01  7.5000000000E-01
                       7.4006400770E-01  2.5993599230E-01  7.4006400770E-01
                       2.3559032986E-01  2.3559032986E-01  7.6440967014E-01
                       7.6440967014E-01  7.6440967014E-01  2.3559032986E-01
                       2.5993599230E-01  7.4006400770E-01  2.5993599230E-01
                       2.3559032986E-01  7.6440967014E-01  7.6440967014E-01
                       7.6440967014E-01  2.3559032986E-01  2.3559032986E-01
                      -2.5236613091E-22  3.3688679254E-22  2.4529674322E-22
             xred3     2.5000000000E-01  2.5000000000E-01  2.5000000000E-01
                       7.5000000000E-01  7.5000000000E-01  7.5000000000E-01
                       7.3988357904E-01  2.6011642096E-01  7.3988357904E-01
                       2.3579335536E-01  2.3579335536E-01  7.6420664464E-01
                       7.6420664464E-01  7.6420664464E-01  2.3579335536E-01
                       2.6011642096E-01  7.3988357904E-01  2.6011642096E-01
                       2.3579335536E-01  7.6420664464E-01  7.6420664464E-01
                       7.6420664464E-01  2.3579335536E-01  2.3579335536E-01
                      -2.5236613091E-22  3.3688679254E-22  2.4529674322E-22
             xred4     2.5000000000E-01  2.5000000000E-01  2.5000000000E-01
                       7.5000000000E-01  7.5000000000E-01  7.5000000000E-01
                       7.3970212047E-01  2.6029787953E-01  7.3970212047E-01
                       2.3599977591E-01  2.3599977591E-01  7.6400022409E-01
                       7.6400022409E-01  7.6400022409E-01  2.3599977591E-01
                       2.6029787953E-01  7.3970212047E-01  2.6029787953E-01
                       2.3599977591E-01  7.6400022409E-01  7.6400022409E-01
                       7.6400022409E-01  2.3599977591E-01  2.3599977591E-01
                      -2.5236613091E-22  3.3688679254E-22  2.4529674322E-22
             xred5     2.5000000000E-01  2.5000000000E-01  2.5000000000E-01
                       7.5000000000E-01  7.5000000000E-01  7.5000000000E-01
                       7.3952313636E-01  2.6047686364E-01  7.3952313636E-01
                       2.3620621575E-01  2.3620621575E-01  7.6379378425E-01
                       7.6379378425E-01  7.6379378425E-01  2.3620621575E-01
                       2.6047686364E-01  7.3952313636E-01  2.6047686364E-01
                       2.3620621575E-01  7.6379378425E-01  7.6379378425E-01
                       7.6379378425E-01  2.3620621575E-01  2.3620621575E-01
                      -5.0833170157E-22  5.5981481517E-22  3.0111064870E-23
             xred6     2.5000000000E-01  2.5000000000E-01  2.5000000000E-01
                       7.5000000000E-01  7.5000000000E-01  7.5000000000E-01
                       7.3940423854E-01  2.6059576146E-01  7.3940423854E-01
                       2.3643254304E-01  2.3643254304E-01  7.6356745696E-01
                       7.6356745696E-01  7.6356745696E-01  2.3643254304E-01
                       2.6059576146E-01  7.3940423854E-01  2.6059576146E-01
                       2.3643254304E-01  7.6356745696E-01  7.6356745696E-01
                       7.6356745696E-01  2.3643254304E-01  2.3643254304E-01
                      -2.5236613091E-22  3.3688679254E-22  2.4529674322E-22
             xred7     2.5000000000E-01  2.5000000000E-01  2.5000000000E-01
                       7.5000000000E-01  7.5000000000E-01  7.5000000000E-01
                       7.3918462560E-01  2.6081537440E-01  7.3918462560E-01
                       2.3662258460E-01  2.3662258460E-01  7.6337741540E-01
                       7.6337741540E-01  7.6337741540E-01  2.3662258460E-01
                       2.6081537440E-01  7.3918462560E-01  2.6081537440E-01
                       2.3662258460E-01  7.6337741540E-01  7.6337741540E-01
                       7.6337741540E-01  2.3662258460E-01  2.3662258460E-01
                      -2.5236613091E-22  3.3688679254E-22  2.4529674322E-22
             xred8     2.5000000000E-01  2.5000000000E-01  2.5000000000E-01
                       7.5000000000E-01  7.5000000000E-01  7.5000000000E-01
                       7.3899201975E-01  2.6100798025E-01  7.3899201975E-01
                       2.3681990523E-01  2.3681990523E-01  7.6318009477E-01
                       7.6318009477E-01  7.6318009477E-01  2.3681990523E-01
                       2.6100798025E-01  7.3899201975E-01  2.6100798025E-01
                       2.3681990523E-01  7.6318009477E-01  7.6318009477E-01
                       7.6318009477E-01  2.3681990523E-01  2.3681990523E-01
                      -4.0635694638E-22  7.0853800726E-22 -3.0608379093E-22
             xred9     2.5000000000E-01  2.5000000000E-01  2.5000000000E-01
                       7.5000000000E-01  7.5000000000E-01  7.5000000000E-01
                       7.3892048357E-01  2.6107951643E-01  7.3892048357E-01
                       2.3707384343E-01  2.3707384343E-01  7.6292615657E-01
                       7.6292615657E-01  7.6292615657E-01  2.3707384343E-01
                       2.6107951643E-01  7.3892048357E-01  2.6107951643E-01
                       2.3707384343E-01  7.6292615657E-01  7.6292615657E-01
                       7.6292615657E-01  2.3707384343E-01  2.3707384343E-01
                      -2.5236613091E-22  3.3688679254E-22  2.4529674322E-22
             xred10    2.5000000000E-01  2.5000000000E-01  2.5000000000E-01
                       7.5000000000E-01  7.5000000000E-01  7.5000000000E-01
                       7.3876180357E-01  2.6123819643E-01  7.3876180357E-01
                       2.3728431843E-01  2.3728431843E-01  7.6271568157E-01
                       7.6271568157E-01  7.6271568157E-01  2.3728431843E-01
                       2.6123819643E-01  7.3876180357E-01  2.6123819643E-01
                       2.3728431843E-01  7.6271568157E-01  7.6271568157E-01
                       7.6271568157E-01  2.3728431843E-01  2.3728431843E-01
                      -2.5236613091E-22  3.3688679254E-22  2.4529674322E-22
            znucl       55.00000   53.00000   72.00000   35.00000

- Timing analysis has been suppressed with timopt=0

 Suggested references for the acknowledgment of ABINIT usage.

 Calculation completed.
.Delivered   0 WARNINGs and  69 COMMENTs to log file.