.Version 9.2.2 of ABINIT

 ABINIT is a project of the Universite Catholique de Louvain,
 Corning Inc. and other collaborators, see ~abinit/doc/developers/contributors.txt .
 acknowledgments of the ABINIT effort.

.Starting date : Sun 11 Dec 2022.
- ( at 07h59 )

- The starting date is more than 2 years after the initial release
- of this version of ABINIT, namely Nov 2020.
- Note that the use beyond 3 years after the release will not be supported.
- Action: please, switch to a more recent version of ABINIT.

- input  file    -> Cs2TiI6.in
- output file    -> Cs2TiI6.out
- root for input  files -> Cs2TiI6i
- root for output files -> Cs2TiI6o

- inpspheads : Reading pseudopotential header in XML form from
-   ../../../Psps_for_tests/ATOMICDATA/Cs.GGA_PBE-JTH.xml
- inpspheads : Reading pseudopotential header in XML form from
-   ../../../Psps_for_tests/ATOMICDATA/I.GGA_PBE-JTH.xml
- inpspheads : Reading pseudopotential header in XML form from
-   ../../../Psps_for_tests/ATOMICDATA/Zr.GGA_PBE-JTH.xml
- inpspheads : Reading pseudopotential header in XML form from
-   ../../../Psps_for_tests/ATOMICDATA/Cl.GGA_PBE-JTH.xml

 DATASET    1 : space group I4 m m (#107); Bravais tI (body-center tetrag.)
     intxc =       0    ionmov =       0      iscf =      17    lmnmax =      18
     lnmax =       6     mgfft =      54  mpssoang =       3    mqgrid =    3409
     natom =       9  nloc_mem =       2    nspden =       1   nspinor =       1
    nsppol =       1      nsym =       8    n1xccc =       1    ntypat =       4
    occopt =       1   xclevel =       2
-    mband =          42        mffmem =           1         mkmem =          41
       mpw =        6854          nfft =      157464          nkpt =         163
Pmy_natom=         3
 PAW method is used; the additional fine FFT grid is defined by:
   mgfftf=        90    nfftf =    729000
  Rough estimation (10% accuracy) of disk space for files :

[...]

 DATASET   10 : space group I4 m m (#107); Bravais tI (body-center tetrag.)
     intxc =       0    ionmov =       0      iscf =      17    lmnmax =      18
     lnmax =       6     mgfft =      50  mpssoang =       3    mqgrid =    3098
     natom =       9  nloc_mem =       2    nspden =       1   nspinor =       1
    nsppol =       1      nsym =       8    n1xccc =       1    ntypat =       4
    occopt =       1   xclevel =       2
-    mband =          42        mffmem =           1         mkmem =          41
       mpw =        5156          nfft =      125000          nkpt =         163
Pmy_natom=         3
 PAW method is used; the additional fine FFT grid is defined by:
   mgfftf=        80    nfftf =    512000
  Rough estimation (10% accuracy) of disk space for files :

------------- Echo of variables that govern the present computation ------------
-
- outvars: echo of selected default values
-   iomode0 =  0 , fftalg0 =112 , wfoptalg0 = 10
-
- outvars: echo of global parameters not present in the input file
-  max_nthreads =    0
-
 -outvars: echo values of preprocessed input variables --------
            acell1     1.4603849289E+01  1.4603849289E+01  1.4788943682E+01 Bohr
            acell2     1.4448259736E+01  1.4448259736E+01  1.4657393900E+01 Bohr
            acell3     1.4291620597E+01  1.4291620597E+01  1.4528467705E+01 Bohr
            acell4     1.4139417314E+01  1.4139417314E+01  1.4389736113E+01 Bohr
            acell5     1.3986948009E+01  1.3986948009E+01  1.4251717287E+01 Bohr
            acell6     1.3838330974E+01  1.3838330974E+01  1.4104893657E+01 Bohr
            acell7     1.3688600564E+01  1.3688600564E+01  1.3960657816E+01 Bohr
            acell8     1.3542888705E+01  1.3542888705E+01  1.3807122023E+01 Bohr
            acell9     1.3397224981E+01  1.3397224981E+01  1.3653485301E+01 Bohr
            acell10    1.3255500769E+01  1.3255500769E+01  1.3490840394E+01 Bohr
              amu      1.32905430E+02  1.26904470E+02  9.12240000E+01
                       3.54527000E+01
           diemac      1.20000000E+01
             ecut      1.60000000E+01 Hartree
-          fftalg         112
           istwfk        2    0    0    0    0    0    3    0    0    0
                         0    0    0    0    0    0    0    0    0    0
                         0    0    0    0    0    0    0    0    0    0
                         0    0    0    0    0    0    0    0    0    0
                         0    0    7    0    0    0    0    0    0    0
                       outvar_i_n : Printing only first  50 k-points.
              ixc     -101130
           jdtset        1    2    3    4    5    6    7    8    9   10
              kpt      0.00000000E+00  0.00000000E+00  0.00000000E+00
                       8.33333333E-02  0.00000000E+00  0.00000000E+00
                       1.66666667E-01  0.00000000E+00  0.00000000E+00
                       2.50000000E-01  0.00000000E+00  0.00000000E+00
                       3.33333333E-01  0.00000000E+00  0.00000000E+00
                       4.16666667E-01  0.00000000E+00  0.00000000E+00
                       5.00000000E-01  0.00000000E+00  0.00000000E+00
                       8.33333333E-02  8.33333333E-02  0.00000000E+00
                       1.66666667E-01  8.33333333E-02  0.00000000E+00
                       2.50000000E-01  8.33333333E-02  0.00000000E+00
                       3.33333333E-01  8.33333333E-02  0.00000000E+00
                       4.16666667E-01  8.33333333E-02  0.00000000E+00
                       5.00000000E-01  8.33333333E-02  0.00000000E+00
                      -4.16666667E-01  8.33333333E-02  0.00000000E+00
                      -3.33333333E-01  8.33333333E-02  0.00000000E+00
                      -2.50000000E-01  8.33333333E-02  0.00000000E+00
                      -1.66666667E-01  8.33333333E-02  0.00000000E+00
                      -8.33333333E-02  8.33333333E-02  0.00000000E+00
                       1.66666667E-01  1.66666667E-01  0.00000000E+00
                       2.50000000E-01  1.66666667E-01  0.00000000E+00
                       3.33333333E-01  1.66666667E-01  0.00000000E+00
                       4.16666667E-01  1.66666667E-01  0.00000000E+00
                       5.00000000E-01  1.66666667E-01  0.00000000E+00
                      -4.16666667E-01  1.66666667E-01  0.00000000E+00
                      -3.33333333E-01  1.66666667E-01  0.00000000E+00
                      -2.50000000E-01  1.66666667E-01  0.00000000E+00
                      -1.66666667E-01  1.66666667E-01  0.00000000E+00
                       2.50000000E-01  2.50000000E-01  0.00000000E+00
                       3.33333333E-01  2.50000000E-01  0.00000000E+00
                       4.16666667E-01  2.50000000E-01  0.00000000E+00
                       5.00000000E-01  2.50000000E-01  0.00000000E+00
                      -4.16666667E-01  2.50000000E-01  0.00000000E+00
                      -3.33333333E-01  2.50000000E-01  0.00000000E+00
                      -2.50000000E-01  2.50000000E-01  0.00000000E+00
                       3.33333333E-01  3.33333333E-01  0.00000000E+00
                       4.16666667E-01  3.33333333E-01  0.00000000E+00
                       5.00000000E-01  3.33333333E-01  0.00000000E+00
                      -4.16666667E-01  3.33333333E-01  0.00000000E+00
                      -3.33333333E-01  3.33333333E-01  0.00000000E+00
                       4.16666667E-01  4.16666667E-01  0.00000000E+00
                       5.00000000E-01  4.16666667E-01  0.00000000E+00
                      -4.16666667E-01  4.16666667E-01  0.00000000E+00
                       5.00000000E-01  5.00000000E-01  0.00000000E+00
                       8.33333333E-02  0.00000000E+00  8.33333333E-02
                       1.66666667E-01  0.00000000E+00  8.33333333E-02
                       2.50000000E-01  0.00000000E+00  8.33333333E-02
                       3.33333333E-01  0.00000000E+00  8.33333333E-02
                       4.16666667E-01  0.00000000E+00  8.33333333E-02
                       5.00000000E-01  0.00000000E+00  8.33333333E-02
                      -4.16666667E-01  0.00000000E+00  8.33333333E-02
                       outvar_i_n : Printing only first  50 k-points.
         kptrlatt       12    0    0      0   12    0      0    0   12
          kptrlen1     1.75246191E+02
          kptrlen2     1.73379117E+02
          kptrlen3     1.71499447E+02
          kptrlen4     1.69673008E+02
          kptrlen5     1.67843376E+02
          kptrlen6     1.66059972E+02
          kptrlen7     1.64263207E+02
          kptrlen8     1.62514664E+02
          kptrlen9     1.60766700E+02
          kptrlen10    1.59066009E+02
P           mkmem          41
            natom           9
            nband          42
           ndtset          10
            ngfft1         54      54      54
            ngfft2         54      54      54
            ngfft3         54      54      54
            ngfft4         54      54      54
            ngfft5         54      54      54
            ngfft6         54      54      54
            ngfft7         54      54      54
            ngfft8         50      50      50
            ngfft9         50      50      50
            ngfft10        50      50      50
          ngfftdg1         90      90      90
          ngfftdg2         90      90      90
          ngfftdg3         90      90      90
          ngfftdg4         90      90      90
          ngfftdg5         90      90      90
          ngfftdg6         90      90      90
          ngfftdg7         80      80      80
          ngfftdg8         80      80      80
          ngfftdg9         80      80      80
          ngfftdg10        80      80      80
             nkpt         163
            nstep        2500
             nsym           8
           ntypat           4
              occ      2.000000  2.000000  2.000000  2.000000  2.000000  2.000000
                       2.000000  2.000000  2.000000  2.000000  2.000000  2.000000
                       2.000000  2.000000  2.000000  2.000000  2.000000  2.000000
                       2.000000  2.000000  2.000000  2.000000  2.000000  2.000000
                       2.000000  2.000000  2.000000  2.000000  2.000000  2.000000
                       2.000000  2.000000  2.000000  2.000000  2.000000  2.000000
                       0.000000  0.000000  0.000000  0.000000  0.000000  0.000000
        pawecutdg      4.00000000E+01 Hartree
            prtwf           0
            rprim1     0.0000000000E+00  7.1606890467E-01  6.9802960092E-01
                       7.1606890467E-01  0.0000000000E+00  6.9802960092E-01
                       7.0710678119E-01  7.0710678119E-01  0.0000000000E+00
            rprim2     0.0000000000E+00  7.1734193672E-01  6.9672128274E-01
                       7.1734193672E-01  0.0000000000E+00  6.9672128274E-01
                       7.0710678119E-01  7.0710678119E-01  0.0000000000E+00
            rprim3     0.0000000000E+00  7.1882527002E-01  6.9519078761E-01
                       7.1882527002E-01  0.0000000000E+00  6.9519078761E-01
                       7.0710678119E-01  7.0710678119E-01  0.0000000000E+00
[...]
                       1.5037446195E-12  1.5037446195E-12 -8.3444818070E-02
           xangst7     2.6119329250E+00  2.6119329250E+00  2.4538600417E+00
                       7.8357987751E+00  7.8357987751E+00  7.4720618262E+00
                       5.2238658501E+00  5.2238658501E+00  2.7649203184E+00
                       5.2238658501E+00  5.2238658501E+00  7.4947570493E+00
                       7.9846938785E+00  5.2238658501E+00  5.0115453961E+00
                       5.2238658501E+00  7.9846938785E+00  5.0115453961E+00
                       5.2238658501E+00  2.4630378216E+00  5.0115453961E+00
                       2.4630378216E+00  5.2238658501E+00  5.0115453961E+00
                       1.4653408216E-13  1.4653408216E-13 -8.6166543942E-02
           xangst8     2.5832075457E+00  2.5832075457E+00  2.4318075641E+00
                       7.7496226370E+00  7.7496226370E+00  7.3985106209E+00
                       5.1664150913E+00  5.1664150913E+00  2.7469549604E+00
                       5.1664150914E+00  5.1664150914E+00  7.3921073718E+00
                       7.8744735219E+00  5.1664150913E+00  4.9633549741E+00
                       5.1664150913E+00  7.8744735219E+00  4.9633549741E+00
                       5.1664150914E+00  2.4583566607E+00  4.9633549741E+00
                       2.4583566607E+00  5.1664150914E+00  4.9633549741E+00
                      -2.3624659167E-12 -2.3624659167E-12 -8.9175959411E-02
           xangst9     2.5544632831E+00  2.5544632831E+00  2.4103055283E+00
                       7.6633898492E+00  7.6633898492E+00  7.3255843957E+00
                       5.1089265662E+00  5.1089265662E+00  2.7277033694E+00
                       5.1089265660E+00  5.1089265660E+00  7.2896196184E+00
                       7.7651597642E+00  5.1089265662E+00  4.9154919732E+00
                       5.1089265662E+00  7.7651597642E+00  4.9154919732E+00
                       5.1089265660E+00  2.4526933680E+00  4.9154919732E+00
                       2.4526933680E+00  5.1089265660E+00  4.9154919732E+00
                       2.4247584509E-12  2.4247584509E-12 -9.2949864735E-02
           xangst10    2.5240336577E+00  2.5240336577E+00  2.3917030926E+00
                       7.5721009731E+00  7.5721009731E+00  7.2620574352E+00
                       5.0480673154E+00  5.0480673154E+00  2.7074476749E+00
                       5.0480673154E+00  5.0480673154E+00  7.2008738879E+00
                       7.6498267886E+00  5.0480673154E+00  4.8744716652E+00
                       5.0480673154E+00  7.6498267886E+00  4.8744716652E+00
                       5.0480673154E+00  2.4463078423E+00  4.8744716652E+00
                       2.4463078423E+00  5.0480673154E+00  4.8744716652E+00
                       5.5776378091E-13  5.5776378091E-13 -9.7134010076E-02
            xcart1     5.2286811821E+00  5.2286811821E+00  4.9651789350E+00
                       1.5686043546E+01  1.5686043546E+01  1.5159098026E+01
                       1.0457362364E+01  1.0457362364E+01  5.3731894661E+00
                       1.0457362364E+01  1.0457362364E+01  1.5575630571E+01
                       1.6230722902E+01  1.0457362364E+01  1.0157586944E+01
                       1.0457362364E+01  1.6230722902E+01  1.0157586944E+01
                       1.0457362364E+01  4.6840018268E+00  1.0157586944E+01
                       4.6840018268E+00  1.0457362364E+01  1.0157586944E+01
                      -1.1993960630E-12 -1.1993960630E-12 -1.5209204587E-01
            xcart2     5.1821713106E+00  5.1821713106E+00  4.8948910196E+00
                       1.5546513932E+01  1.5546513932E+01  1.4961301076E+01
                       1.0364342621E+01  1.0364342621E+01  5.3568134079E+00
                       1.0364342621E+01  1.0364342621E+01  1.5325257827E+01
                       1.6047397369E+01  1.0364342621E+01  1.0035678962E+01
                       1.0364342621E+01  1.6047397369E+01  1.0035678962E+01
                       1.0364342621E+01  4.6812878736E+00  1.0035678962E+01
                       4.6812878736E+00  1.0364342621E+01  1.0035678962E+01
                       5.2819218488E-14  5.2819218488E-14 -1.4969872547E-01
            xcart3     5.1365890173E+00  5.1365890173E+00  4.8405453007E+00
                       1.5409767052E+01  1.5409767052E+01  1.4775948280E+01
                       1.0273178035E+01  1.0273178035E+01  5.3340882022E+00
                       1.0273178035E+01  1.0273178035E+01  1.5063596513E+01
                       1.5868624733E+01  1.0273178035E+01  9.9051804153E+00
                       1.0273178035E+01  1.5868624733E+01  9.9051804153E+00
                       1.0273178035E+01  4.6777313365E+00  9.9051804153E+00
                       4.6777313365E+00  1.0273178035E+01  9.9051804153E+00
                      -1.1945741688E-12 -1.1945741688E-12 -1.5167612494E-01
            xcart4     5.0875399925E+00  5.0875399925E+00  4.7872687697E+00
                       1.5262619978E+01  1.5262619978E+01  1.4605153943E+01
                       1.0175079985E+01  1.0175079985E+01  5.3106915155E+00
                       1.0175079985E+01  1.0175079985E+01  1.4830036882E+01
                       1.5676365861E+01  1.0175079985E+01  9.7907161619E+00
                       1.0175079985E+01  1.5676365861E+01  9.7907161619E+00
                       1.0175079985E+01  4.6737941090E+00  9.7907161619E+00
                       4.6737941090E+00  1.0175079985E+01  9.7907161619E+00
                      -4.9625844456E-13 -4.9625844456E-13 -1.5293437112E-01
            xcart5     5.0387429687E+00  5.0387429687E+00  4.7339389577E+00
                       1.5116228906E+01  1.5116228906E+01  1.4433371508E+01
                       1.0077485937E+01  1.0077485937E+01  5.2844534999E+00
                       1.0077485937E+01  1.0077485937E+01  1.4594072900E+01
                       1.5486646879E+01  1.0077485937E+01  9.6761943154E+00
                       1.0077485937E+01  1.5486646879E+01  9.6761943154E+00
                       1.0077485937E+01  4.6683249960E+00  9.6761943154E+00
                       4.6683249960E+00  1.0077485937E+01  9.6761943154E+00
                      -1.8174692919E-12 -1.8174692919E-12 -1.5515372839E-01
            xcart6     4.9868329763E+00  4.9868329763E+00  4.6860876435E+00
                       1.4960498929E+01  1.4960498929E+01  1.4279074228E+01
                       9.9736659527E+00  9.9736659527E+00  5.2567742332E+00
                       9.9736659526E+00  9.9736659526E+00  1.4382984574E+01
                       1.5285145538E+01  9.9736659527E+00  9.5741649632E+00
                       9.9736659527E+00  1.5285145538E+01  9.5741649632E+00
                       9.9736659526E+00  4.6621863672E+00  9.5741649632E+00
                       4.6621863672E+00  9.9736659526E+00  9.5741649632E+00
                       2.8416655046E-12  2.8416655046E-12 -1.5768785336E-01
            xcart7     4.9358379058E+00  4.9358379058E+00  4.6371234473E+00
                       1.4807513717E+01  1.4807513717E+01  1.4120150500E+01
                       9.8716758116E+00  9.8716758116E+00  5.2249421810E+00
                       9.8716758115E+00  9.8716758115E+00  1.4163038256E+01
                       1.5088884685E+01  9.8716758116E+00  9.4704483011E+00
                       9.8716758116E+00  1.5088884685E+01  9.4704483011E+00
                       9.8716758115E+00  4.6544669377E+00  9.4704483011E+00
                       4.6544669377E+00  9.8716758115E+00  9.4704483011E+00
                       2.7690928442E-13  2.7690928442E-13 -1.6283116987E-01
            xcart8     4.8815548057E+00  4.8815548057E+00  4.5954503041E+00
                       1.4644664417E+01  1.4644664417E+01  1.3981158865E+01
                       9.7631096113E+00  9.7631096113E+00  5.1909925745E+00
                       9.7631096116E+00  9.7631096116E+00  1.3969058478E+01
                       1.4880598397E+01  9.7631096113E+00  9.3793816013E+00
                       9.7631096113E+00  1.4880598397E+01  9.3793816013E+00
                       9.7631096116E+00  4.6456208257E+00  9.3793816013E+00
                       4.6456208257E+00  9.7631096116E+00  9.3793816013E+00
                      -4.4644135808E-12 -4.4644135808E-12 -1.6851814092E-01
            xcart9     4.8272360215E+00  4.8272360215E+00  4.5548173450E+00
                       1.4481708064E+01  1.4481708064E+01  1.3843348271E+01
                       9.6544720431E+00  9.6544720431E+00  5.1546123399E+00
                       9.6544720429E+00  9.6544720429E+00  1.3775384692E+01
                       1.4674025332E+01  9.6544720431E+00  9.2889336377E+00
                       9.6544720431E+00  1.4674025332E+01  9.2889336377E+00
                       9.6544720428E+00  4.6349187535E+00  9.2889336377E+00
                       4.6349187535E+00  9.6544720428E+00  9.2889336377E+00
                       4.5821294106E-12  4.5821294106E-12 -1.7564978844E-01
            xcart10    4.7697323632E+00  4.7697323632E+00  4.5196638361E+00
                       1.4309197090E+01  1.4309197090E+01  1.3723299714E+01
                       9.5394647265E+00  9.5394647265E+00  5.1163346247E+00
                       9.5394647265E+00  9.5394647265E+00  1.3607679566E+01
                       1.4456077594E+01  9.5394647265E+00  9.2114164898E+00
                       9.5394647265E+00  1.4456077594E+01  9.2114164898E+00
                       9.5394647265E+00  4.6228518586E+00  9.2114164898E+00
                       4.6228518586E+00  9.5394647265E+00  9.2114164898E+00
                       1.0540207928E-12  1.0540207928E-12 -1.8355667723E-01
             xred1     2.4353631271E-01  2.4353631271E-01  2.5646368729E-01
                       7.4353631271E-01  7.4353631271E-01  7.5646368729E-01
                       2.6354875971E-01  2.6354875971E-01  7.3645124029E-01
                       7.6396675470E-01  7.6396675470E-01  2.3603324530E-01
                       2.2217508487E-01  7.7426081513E-01  7.7782491513E-01
                       7.7426081513E-01  2.2217508487E-01  7.7782491513E-01
                       2.2217508487E-01  7.7426081513E-01  2.2573918487E-01
                       7.7426081513E-01  2.2217508487E-01  2.2573918487E-01
                      -7.4599398184E-03 -7.4599398184E-03  7.4599398184E-03
             xred2     2.4312992378E-01  2.4312992378E-01  2.5687007622E-01
                       7.4312992378E-01  7.4312992378E-01  7.5687007622E-01
                       2.6607367362E-01  2.6607367362E-01  7.3392632638E-01
                       7.6120770667E-01  7.6120770667E-01  2.3879229333E-01
                       2.2430979994E-01  7.7263736449E-01  7.7569020006E-01
                       7.7263736449E-01  2.2430979994E-01  7.7569020006E-01
                       2.2430979994E-01  7.7263736449E-01  2.2736263551E-01
                       7.7263736449E-01  2.2430979994E-01  2.2736263551E-01
                      -7.4355566996E-03 -7.4355566996E-03  7.4355566996E-03
             xred3     2.4360085398E-01  2.4360085398E-01  2.5639914602E-01
                       7.4360085398E-01  7.4360085398E-01  7.5639914602E-01
                       2.6843844248E-01  2.6843844248E-01  7.3156155752E-01
                       7.5807677581E-01  7.5807677581E-01  2.4192322419E-01
                       2.2614624594E-01  7.7081184788E-01  7.7385375406E-01
                       7.7081184788E-01  2.2614624594E-01  7.7385375406E-01
                       2.2614624594E-01  7.7081184788E-01  2.2918815212E-01
                       7.7081184788E-01  2.2614624594E-01  2.2918815212E-01
                      -7.6331138890E-03 -7.6331138890E-03  7.6331138890E-03
             xred4     2.4380346099E-01  2.4380346099E-01  2.5619653901E-01
                       7.4380346099E-01  7.4380346099E-01  7.5619653901E-01
                       2.7046005437E-01  2.7046005437E-01  7.2953994563E-01
                       7.5525617891E-01  7.5525617891E-01  2.4474382109E-01
                       2.2828501791E-01  7.6894768436E-01  7.7171498209E-01
                       7.6894768436E-01  2.2828501791E-01  7.7171498209E-01
                       2.2828501791E-01  7.6894768436E-01  2.3105231564E-01
                       7.6894768436E-01  2.2828501791E-01  2.3105231564E-01
                      -7.7885597773E-03 -7.7885597773E-03  7.7885597773E-03
             xred5     2.4403174791E-01  2.4403174791E-01  2.5596825209E-01
                       7.4403174791E-01  7.4403174791E-01  7.5596825209E-01
                       2.7241044632E-01  2.7241044632E-01  7.2758955368E-01
                       7.5231580947E-01  7.5231580947E-01  2.4768419053E-01
                       2.3042359162E-01  7.6718057396E-01  7.6957640838E-01
                       7.6718057396E-01  2.3042359162E-01  7.6957640838E-01
                       2.3042359162E-01  7.6718057396E-01  2.3281942604E-01
                       7.6718057396E-01  2.3042359162E-01  2.3281942604E-01
                      -7.9980827534E-03 -7.9980827534E-03  7.9980827534E-03
             xred6     2.4424550176E-01  2.4424550176E-01  2.5575449824E-01
                       7.4424550176E-01  7.4424550176E-01  7.5575449824E-01
                       2.7399049226E-01  2.7399049226E-01  7.2600950774E-01
                       7.4966145562E-01  7.4966145562E-01  2.5033854438E-01
                       2.3274380090E-01  7.6529418014E-01  7.6725619910E-01
                       7.6529418014E-01  2.3274380090E-01  7.6725619910E-01
                       2.3274380090E-01  7.6529418014E-01  2.3470581986E-01
                       7.6529418014E-01  2.3274380090E-01  2.3470581986E-01
                      -8.2189134722E-03 -8.2189134722E-03  8.2189134722E-03
             xred7     2.4449595165E-01  2.4449595165E-01  2.5550404835E-01
                       7.4449595165E-01  7.4449595165E-01  7.5550404835E-01
                       2.7548915300E-01  2.7548915300E-01  7.2451084700E-01
                       7.4675724205E-01  7.4675724205E-01  2.5324275795E-01
                       2.3508534683E-01  7.6358820424E-01  7.6491465317E-01
                       7.6358820424E-01  2.3508534683E-01  7.6491465317E-01
                       2.3508534683E-01  7.6358820424E-01  2.3641179576E-01
                       7.6358820424E-01  2.3508534683E-01  2.3641179576E-01
                      -8.5854004724E-03 -8.5854004724E-03  8.5854004724E-03
             xred8     2.4481104833E-01  2.4481104833E-01  2.5518895167E-01
                       7.4481104833E-01  7.4481104833E-01  7.5518895167E-01
                       2.7653706382E-01  2.7653706382E-01  7.2346293618E-01
                       7.4416643066E-01  7.4416643066E-01  2.5583356934E-01
                       2.3758001512E-01  7.6174587921E-01  7.6241998488E-01
                       7.6174587921E-01  2.3758001512E-01  7.6241998488E-01
                       2.3758001512E-01  7.6174587921E-01  2.3825412079E-01
                       7.6174587921E-01  2.3758001512E-01  2.3825412079E-01
                      -8.9773798022E-03 -8.9773798022E-03  8.9773798022E-03
             xred9     2.4518502340E-01  2.4518502340E-01  2.5481497660E-01
                       7.4518502340E-01  7.4518502340E-01  7.5481497660E-01
                       2.7747188338E-01  2.7747188338E-01  7.2252811662E-01
                       7.4152655576E-01  7.4152655576E-01  2.5847344424E-01
                       2.4006166831E-01  7.5998168746E-01  7.5993833169E-01
                       7.5998168746E-01  2.4006166831E-01  7.5993833169E-01
                       2.4006166831E-01  7.5998168746E-01  2.4001831254E-01
                       7.5998168746E-01  2.4006166831E-01  2.4001831254E-01
                      -9.4551974813E-03 -9.4551974813E-03  9.4551974813E-03
             xred10    2.4553686696E-01  2.4553686696E-01  2.5446313304E-01
                       7.4553686696E-01  7.4553686696E-01  7.5446313304E-01
                       2.7795181669E-01  2.7795181669E-01  7.2204818331E-01
                       7.3925564562E-01  7.3925564562E-01  2.6074435438E-01
                       2.4272412069E-01  7.5812126391E-01  7.5727587931E-01
                       7.5812126391E-01  2.4272412069E-01  7.5727587931E-01
                       2.4272412069E-01  7.5812126391E-01  2.4187873609E-01
                       7.5812126391E-01  2.4272412069E-01  2.4187873609E-01
                      -9.9719654097E-03 -9.9719654097E-03  9.9719654097E-03
            znucl       55.00000   53.00000   40.00000   17.00000

- Timing analysis has been suppressed with timopt=0

 Suggested references for the acknowledgment of ABINIT usage.

 Calculation completed.
.Delivered   0 WARNINGs and   4 COMMENTs to log file.