.Version 9.2.2 of ABINIT

 ABINIT is a project of the Universite Catholique de Louvain,
 Corning Inc. and other collaborators, see ~abinit/doc/developers/contributors.txt .
 acknowledgments of the ABINIT effort.

.Starting date : Sun 27 Nov 2022.
- ( at 16h07 )

- input  file    -> Cs2TiI6.in
- output file    -> Cs2TiI6.out
- root for input  files -> Cs2TiI6i
- root for output files -> Cs2TiI6o

- inpspheads : Reading pseudopotential header in XML form from
-   ../../../Psps_for_tests/ATOMICDATA/Cs.GGA_PBE-JTH.xml
- inpspheads : Reading pseudopotential header in XML form from
-   ../../../Psps_for_tests/ATOMICDATA/I.GGA_PBE-JTH.xml
- inpspheads : Reading pseudopotential header in XML form from
-   ../../../Psps_for_tests/ATOMICDATA/Zr.GGA_PBE-JTH.xml
- inpspheads : Reading pseudopotential header in XML form from
-   ../../../Psps_for_tests/ATOMICDATA/Br.GGA_PBE-JTH.xml

 DATASET    1 : space group Fm m 2 (# 42); Bravais oF (face-center ortho.)
     intxc =       0    ionmov =       0      iscf =      17    lmnmax =      18
     lnmax =       6     mgfft =      54  mpssoang =       3    mqgrid =    3356
     natom =       9  nloc_mem =       2    nspden =       1   nspinor =       1
    nsppol =       1      nsym =       4    n1xccc =       1    ntypat =       4
    occopt =       1   xclevel =       2
-    mband =          42        mffmem =           1         mkmem =          47
       mpw =        6536          nfft =      157464          nkpt =         280
Pmy_natom=         2
 PAW method is used; the additional fine FFT grid is defined by:
   mgfftf=        90    nfftf =    729000
  Rough estimation (10% accuracy) of disk space for files :

[...]

 DATASET   10 : space group Fm m 2 (# 42); Bravais oF (face-center ortho.)
     intxc =       0    ionmov =       0      iscf =      17    lmnmax =      18
     lnmax =       6     mgfft =      54  mpssoang =       3    mqgrid =    3341
     natom =       9  nloc_mem =       2    nspden =       1   nspinor =       1
    nsppol =       1      nsym =       4    n1xccc =       1    ntypat =       4
    occopt =       1   xclevel =       2
-    mband =          42        mffmem =           1         mkmem =          47
       mpw =        6456          nfft =      157464          nkpt =         280
Pmy_natom=         2
 PAW method is used; the additional fine FFT grid is defined by:
   mgfftf=        90    nfftf =    729000
  Rough estimation (10% accuracy) of disk space for files :

------------- Echo of variables that govern the present computation ------------
-
- outvars: echo of selected default values
-   iomode0 =  0 , fftalg0 =112 , wfoptalg0 = 10
-
- outvars: echo of global parameters not present in the input file
-  max_nthreads =    0
-
 -outvars: echo values of preprocessed input variables --------
            acell1     1.4568087619E+01  1.4381330249E+01  1.4371018966E+01 Bohr
            acell2     1.4560826401E+01  1.4373899828E+01  1.4364155654E+01 Bohr
            acell3     1.4553926899E+01  1.4366576162E+01  1.4356858660E+01 Bohr
            acell4     1.4547360504E+01  1.4358558397E+01  1.4349951629E+01 Bohr
            acell5     1.4540267078E+01  1.4351035913E+01  1.4343028422E+01 Bohr
            acell6     1.4533665616E+01  1.4343219575E+01  1.4335953138E+01 Bohr
            acell7     1.4527328885E+01  1.4335353951E+01  1.4328688063E+01 Bohr
            acell8     1.4520253641E+01  1.4328048394E+01  1.4321532542E+01 Bohr
            acell9     1.4513146510E+01  1.4320615562E+01  1.4314532793E+01 Bohr
            acell10    1.4506174765E+01  1.4313210370E+01  1.4307383163E+01 Bohr
              amu      1.32905430E+02  1.26904470E+02  9.12240000E+01
                       7.99040000E+01
           diemac      1.20000000E+01
             ecut      1.60000000E+01 Hartree
-          fftalg         112
           istwfk        2    0    0    0    0    0    3    0    0    0
                         0    0    0    0    0    0    0    0    0    0
                         0    0    0    0    0    0    0    0    0    0
                         0    0    0    0    0    0    0    0    0    0
                         0    0    7    0    0    0    0    0    0    0
                       outvar_i_n : Printing only first  50 k-points.
              ixc     -101130
           jdtset        1    2    3    4    5    6    7    8    9   10
              kpt      0.00000000E+00  0.00000000E+00  0.00000000E+00
                       8.33333333E-02  0.00000000E+00  0.00000000E+00
                       1.66666667E-01  0.00000000E+00  0.00000000E+00
                       2.50000000E-01  0.00000000E+00  0.00000000E+00
                       3.33333333E-01  0.00000000E+00  0.00000000E+00
                       4.16666667E-01  0.00000000E+00  0.00000000E+00
                       5.00000000E-01  0.00000000E+00  0.00000000E+00
                       8.33333333E-02  8.33333333E-02  0.00000000E+00
                       1.66666667E-01  8.33333333E-02  0.00000000E+00
                       2.50000000E-01  8.33333333E-02  0.00000000E+00
                       3.33333333E-01  8.33333333E-02  0.00000000E+00
                       4.16666667E-01  8.33333333E-02  0.00000000E+00
                       5.00000000E-01  8.33333333E-02  0.00000000E+00
                      -4.16666667E-01  8.33333333E-02  0.00000000E+00
                      -3.33333333E-01  8.33333333E-02  0.00000000E+00
                      -2.50000000E-01  8.33333333E-02  0.00000000E+00
                      -1.66666667E-01  8.33333333E-02  0.00000000E+00
                      -8.33333333E-02  8.33333333E-02  0.00000000E+00
                       1.66666667E-01  1.66666667E-01  0.00000000E+00
                       2.50000000E-01  1.66666667E-01  0.00000000E+00
                       3.33333333E-01  1.66666667E-01  0.00000000E+00
                       4.16666667E-01  1.66666667E-01  0.00000000E+00
                       5.00000000E-01  1.66666667E-01  0.00000000E+00
                      -4.16666667E-01  1.66666667E-01  0.00000000E+00
                      -3.33333333E-01  1.66666667E-01  0.00000000E+00
                      -2.50000000E-01  1.66666667E-01  0.00000000E+00
                      -1.66666667E-01  1.66666667E-01  0.00000000E+00
                       2.50000000E-01  2.50000000E-01  0.00000000E+00
                       3.33333333E-01  2.50000000E-01  0.00000000E+00
                       4.16666667E-01  2.50000000E-01  0.00000000E+00
                       5.00000000E-01  2.50000000E-01  0.00000000E+00
                      -4.16666667E-01  2.50000000E-01  0.00000000E+00
                      -3.33333333E-01  2.50000000E-01  0.00000000E+00
                      -2.50000000E-01  2.50000000E-01  0.00000000E+00
                       3.33333333E-01  3.33333333E-01  0.00000000E+00
                       4.16666667E-01  3.33333333E-01  0.00000000E+00
                       5.00000000E-01  3.33333333E-01  0.00000000E+00
                      -4.16666667E-01  3.33333333E-01  0.00000000E+00
                      -3.33333333E-01  3.33333333E-01  0.00000000E+00
                       4.16666667E-01  4.16666667E-01  0.00000000E+00
                       5.00000000E-01  4.16666667E-01  0.00000000E+00
                      -4.16666667E-01  4.16666667E-01  0.00000000E+00
                       5.00000000E-01  5.00000000E-01  0.00000000E+00
                       8.33333333E-02  0.00000000E+00  8.33333333E-02
                       1.66666667E-01  0.00000000E+00  8.33333333E-02
                       2.50000000E-01  0.00000000E+00  8.33333333E-02
                       3.33333333E-01  0.00000000E+00  8.33333333E-02
                       4.16666667E-01  0.00000000E+00  8.33333333E-02
                       5.00000000E-01  0.00000000E+00  8.33333333E-02
                      -4.16666667E-01  0.00000000E+00  8.33333333E-02
                       outvar_i_n : Printing only first  50 k-points.
         kptrlatt       12    0    0      0   12    0      0    0   12
          kptrlen1     1.72452228E+02
          kptrlen2     1.72369868E+02
          kptrlen3     1.72282304E+02
          kptrlen4     1.72199420E+02
          kptrlen5     1.72116341E+02
          kptrlen6     1.72031438E+02
          kptrlen7     1.71944257E+02
          kptrlen8     1.71858391E+02
          kptrlen9     1.71774394E+02
          kptrlen10    1.71688598E+02
P           mkmem          47
            natom           9
            nband          42
           ndtset          10
            ngfft          54      54      54
          ngfftdg          90      90      90
             nkpt         280
            nstep        2500
             nsym           4
           ntypat           4
              occ      2.000000  2.000000  2.000000  2.000000  2.000000  2.000000
                       2.000000  2.000000  2.000000  2.000000  2.000000  2.000000
                       2.000000  2.000000  2.000000  2.000000  2.000000  2.000000
                       2.000000  2.000000  2.000000  2.000000  2.000000  2.000000
                       2.000000  2.000000  2.000000  2.000000  2.000000  2.000000
                       2.000000  2.000000  2.000000  2.000000  2.000000  2.000000
                       0.000000  0.000000  0.000000  0.000000  0.000000  0.000000
        pawecutdg      4.00000000E+01 Hartree
            prtwf           0
            rprim1     0.0000000000E+00  7.0661271207E-01  7.0760050533E-01
                       6.9728964458E-01  0.0000000000E+00  7.1678947506E-01
                       6.9778995363E-01  7.1630243656E-01  0.0000000000E+00
            rprim2     0.0000000000E+00  7.0663966081E-01  7.0757359318E-01
                       6.9730422328E-01  0.0000000000E+00  7.1677529268E-01
                       6.9777725166E-01  7.1631481003E-01  0.0000000000E+00
            rprim3     0.0000000000E+00  7.0664073521E-01  7.0757252020E-01
                       6.9727904401E-01  0.0000000000E+00  7.1679978710E-01
                       6.9775100033E-01  7.1634038106E-01  0.0000000000E+00
            rprim4     0.0000000000E+00  7.0669386280E-01  7.0751945859E-01
                       6.9725548682E-01  0.0000000000E+00  7.1682270200E-01
                       6.9767368452E-01  7.1641568236E-01  0.0000000000E+00
            rprim5     0.0000000000E+00  7.0672244011E-01  7.0749091347E-01
                       6.9725845992E-01  0.0000000000E+00  7.1681981004E-01
                       6.9764772853E-01  7.1644095840E-01  0.0000000000E+00
            rprim6     0.0000000000E+00  7.0675788200E-01  7.0745550830E-01
                       6.9722850811E-01  0.0000000000E+00  7.1684894328E-01
                       6.9758191097E-01  7.1650504359E-01  0.0000000000E+00
            rprim7     0.0000000000E+00  7.0678661369E-01  7.0742680378E-01
                       6.9717553790E-01  0.0000000000E+00  7.1690045987E-01
                       6.9749987282E-01  7.1658490593E-01  0.0000000000E+00
            rprim8     0.0000000000E+00  7.0679367459E-01  7.0741974920E-01
                       6.9716622907E-01  0.0000000000E+00  7.1690951246E-01
                       6.9748341800E-01  7.1660092215E-01  0.0000000000E+00
[...]
                       7.1043887619E-13  1.5543569806E-12  7.7300537050E-02
           xangst7     2.6443668021E+00  2.7167221243E+00  2.7239093115E+00
                       7.9331004063E+00  8.1501663729E+00  8.1622750415E+00
                       5.2887336042E+00  5.4334442485E+00  2.6845195824E+00
                       5.2887336042E+00  5.4334442487E+00  8.1100212391E+00
                       7.9759415093E+00  5.4334442485E+00  5.4522101474E+00
                       5.2887336042E+00  8.0329879696E+00  5.4222772615E+00
                       5.2887336042E+00  2.8339005276E+00  5.4222772614E+00
                       2.6015256991E+00  5.4334442487E+00  5.4522101476E+00
                       5.8373767789E-13  3.2496275571E-12  7.7225847963E-02
           xangst8     2.6429838945E+00  2.7154261266E+00  2.7224145615E+00
                       7.9289516836E+00  8.1462783797E+00  8.1580774388E+00
                       5.2859677890E+00  5.4308522530E+00  2.6845913882E+00
                       5.2859677891E+00  5.4308522532E+00  8.1054215042E+00
                       7.9707220152E+00  5.4308522530E+00  5.4492539834E+00
                       5.2859677890E+00  8.0284547592E+00  5.4193390779E+00
                       5.2859677891E+00  2.8332497471E+00  5.4193390778E+00
                       2.6012135629E+00  5.4308522532E+00  5.4492539835E+00
                       1.4547126727E-12  2.6550134725E-12  7.7612003283E-02
           xangst9     2.6416125123E+00  2.7141764224E+00  2.7208623587E+00
                       7.9248375369E+00  8.1425292671E+00  8.1537060204E+00
                       5.2832250246E+00  5.4283528447E+00  2.6844385983E+00
                       5.2832250246E+00  5.4283528448E+00  8.1005387954E+00
                       7.9655697858E+00  5.4283528447E+00  5.4462975078E+00
                       5.2832250246E+00  8.0240179834E+00  5.4164111460E+00
                       5.2832250246E+00  2.8326877061E+00  5.4164111460E+00
                       2.6008802634E+00  5.4283528448E+00  5.4462975078E+00
                       4.2536564216E-13  9.7386072397E-13  7.7786213021E-02
           xangst10    2.6401919076E+00  2.7129192803E+00  2.7193957553E+00
                       7.9205757229E+00  8.1387578408E+00  8.1495363351E+00
                       5.2803838153E+00  5.4258385605E+00  2.6842585013E+00
                       5.2803838153E+00  5.4258385606E+00  8.0958935772E+00
                       7.9602538915E+00  5.4258385605E+00  5.4434612112E+00
                       5.2803838153E+00  8.0196076131E+00  5.4135898792E+00
                       5.2803838153E+00  2.8320695080E+00  5.4135898790E+00
                       2.6005137390E+00  5.4258385606E+00  5.4434612114E+00
                       6.8425164199E-14  1.9104679128E-12  7.7938288437E-02
            xcart1     5.0139763290E+00  5.1469979508E+00  5.1644980306E+00
                       1.5041928987E+01  1.5440993852E+01  1.5472884191E+01
                       1.0027952658E+01  1.0293995901E+01  5.0744621916E+00
                       1.0027952658E+01  1.0293995902E+01  1.5380257717E+01
                       1.5136054900E+01  1.0293995901E+01  1.0336186049E+01
                       1.0027952658E+01  1.5226123539E+01  1.0279233200E+01
                       1.0027952658E+01  5.3618682647E+00  1.0279233200E+01
                       4.9198504161E+00  1.0293995902E+01  1.0336186050E+01
                       8.2668051268E-14  6.5667698922E-12  1.4414865436E-01
            xcart2     5.0114905274E+00  5.1446287144E+00  5.1615051614E+00
                       1.5034471582E+01  1.5433886143E+01  1.5464361418E+01
                       1.0022981055E+01  1.0289257429E+01  5.0742000437E+00
                       1.0022981055E+01  1.0289257429E+01  1.5370773574E+01
                       1.5126724927E+01  1.0289257429E+01  1.0330247765E+01
                       1.0022981055E+01  1.5217703561E+01  1.0273470155E+01
                       1.0022981055E+01  5.3608112968E+00  1.0273470155E+01
                       4.9192371823E+00  1.0289257429E+01  1.0330247765E+01
                       2.8310184566E-12  4.0664045833E-12  1.4457401238E-01
            xcart3     5.0087562459E+00  5.1421988019E+00  5.1587695592E+00
                       1.5026268738E+01  1.5426596406E+01  1.5456728294E+01
                       1.0017512492E+01  1.0284397604E+01  5.0740415942E+00
                       1.0017512492E+01  1.0284397604E+01  1.5362304251E+01
                       1.5116391977E+01  1.0284397604E+01  1.0325217864E+01
                       1.0017512492E+01  1.5209145682E+01  1.0268261387E+01
                       1.0017512492E+01  5.3596495249E+00  1.0268261387E+01
                       4.9186330061E+00  1.0284397604E+01  1.0325217864E+01
                       2.2845251747E-12  5.4371003033E-12  1.4486767624E-01
            xcart4     5.0057918127E+00  5.1402651941E+00  5.1559420358E+00
                       1.5017375438E+01  1.5420795582E+01  1.5448482663E+01
                       1.0011583626E+01  1.0280530388E+01  5.0739161881E+00
                       1.0011583625E+01  1.0280530388E+01  1.5352809661E+01
                       1.5105116172E+01  1.0280530388E+01  1.0319373832E+01
                       1.0011583626E+01  1.5202448023E+01  1.0262597789E+01
                       1.0011583625E+01  5.3586127535E+00  1.0262597789E+01
                       4.9180510787E+00  1.0280530388E+01  1.0319373833E+01
                      -3.9125879074E-12 -5.0172253229E-14  1.4523122721E-01
            xcart5     5.0031905995E+00  5.1379665146E+00  5.1528647974E+00
                       1.5009571798E+01  1.5413899544E+01  1.5439971634E+01
                       1.0006381199E+01  1.0275933029E+01  5.0737004241E+00
                       1.0006381199E+01  1.0275933029E+01  1.5343410241E+01
                       1.5095319383E+01  1.0275933029E+01  1.0313698022E+01
                       1.0006381199E+01  1.5194356961E+01  1.0256940342E+01
                       1.0006381199E+01  5.3575090970E+00  1.0256940342E+01
                       4.9174430143E+00  1.0275933029E+01  1.0313698022E+01
                       7.4649649479E-13  1.4095602360E-12  1.4563087182E-01
            xcart6     5.0002507928E+00  5.1358913641E+00  5.1499417928E+00
                       1.5000752379E+01  1.5407674092E+01  1.5431863588E+01
                       1.0000501586E+01  1.0271782728E+01  5.0736379641E+00
                       1.0000501586E+01  1.0271782728E+01  1.5334490539E+01
                       1.5084299054E+01  1.0271782728E+01  1.0308166848E+01
                       1.0000501586E+01  1.5187281016E+01  1.0251514971E+01
                       1.0000501586E+01  5.3562844403E+00  1.0251514970E+01
                       4.9167041172E+00  1.0271782728E+01  1.0308166848E+01
                       1.3425349102E-12  2.9373090061E-12  1.4607684495E-01
            xcart7     4.9971290508E+00  5.1338607941E+00  5.1474426095E+00
                       1.4991387153E+01  1.5401582382E+01  1.5424464450E+01
                       9.9942581017E+00  1.0267721588E+01  5.0730068091E+00
                       9.9942581017E+00  1.0267721588E+01  1.5325719074E+01
                       1.5072345105E+01  1.0267721588E+01  1.0303183998E+01
                       9.9942581017E+00  1.5180147291E+01  1.0246619041E+01
                       9.9942581017E+00  5.3552958850E+00  1.0246619041E+01
                       4.9161710989E+00  1.0267721588E+01  1.0303183998E+01
                       1.1031043447E-12  6.1409061168E-12  1.4593570303E-01
            xcart8     4.9945157343E+00  5.1314117133E+00  5.1446179415E+00
                       1.4983547203E+01  1.5394235140E+01  1.5416532130E+01
                       9.9890314685E+00  1.0262823426E+01  5.0731425023E+00
                       9.9890314687E+00  1.0262823427E+01  1.5317026835E+01
                       1.5062481690E+01  1.0262823426E+01  1.0297597657E+01
                       9.9890314685E+00  1.5171580765E+01  1.0241066679E+01
                       9.9890314687E+00  5.3540660880E+00  1.0241066678E+01
                       4.9155812471E+00  1.0262823427E+01  1.0297597657E+01
                       2.7490085535E-12  5.0172483421E-12  1.4666543083E-01
            xcart9     4.9919241974E+00  5.1290501146E+00  5.1416847033E+00
                       1.4975772592E+01  1.5387150344E+01  1.5408271347E+01
                       9.9838483949E+00  1.0258100229E+01  5.0728537713E+00
                       9.9838483949E+00  1.0258100229E+01  1.5307799852E+01
                       1.5052745388E+01  1.0258100229E+01  1.0292010728E+01
                       9.9838483949E+00  1.5163196474E+01  1.0235533689E+01
                       9.9838483949E+00  5.3530039845E+00  1.0235533689E+01
                       4.9149514022E+00  1.0258100229E+01  1.0292010728E+01
                       8.0382457002E-13  1.8403300599E-12  1.4699463952E-01
            xcart10    4.9892396437E+00  5.1266744603E+00  5.1389132245E+00
                       1.4967718931E+01  1.5380023381E+01  1.5400391783E+01
                       9.9784792874E+00  1.0253348921E+01  5.0725134373E+00
                       9.9784792874E+00  1.0253348921E+01  1.5299021662E+01
                       1.5042699803E+01  1.0253348921E+01  1.0286650904E+01
                       9.9784792874E+00  1.5154862082E+01  1.0230202267E+01
                       9.9784792874E+00  5.3518357594E+00  1.0230202267E+01
                       4.9142587716E+00  1.0253348921E+01  1.0286650904E+01
                       1.2930482093E-13  3.6102611409E-12  1.4728202041E-01
             xred1     2.5049983335E-01  2.5049983335E-01  2.4950016665E-01
                       7.5049983335E-01  7.5049983335E-01  7.4950016665E-01
                       2.4613271722E-01  2.4613271722E-01  7.5386728278E-01
                       7.4600706056E-01  7.4600706056E-01  2.5399293944E-01
                       2.4665523434E-01  7.5604158827E-01  7.5334476566E-01
                       7.3814927752E-01  2.5902264059E-01  7.4097735941E-01
                       2.5902264059E-01  7.3814927752E-01  2.6185072248E-01
                       7.5604158827E-01  2.4665523434E-01  2.4395841173E-01
                       6.9918148253E-03  6.9918148253E-03 -6.9918148253E-03
             xred2     2.5048904076E-01  2.5048904076E-01  2.4951095924E-01
                       7.5048904076E-01  7.5048904076E-01  7.4951095924E-01
                       2.4625210318E-01  2.4625210318E-01  7.5374789682E-01
                       7.4594720103E-01  7.4594720103E-01  2.5405279897E-01
                       2.4672722512E-01  7.5593140745E-01  7.5327277488E-01
                       7.3806862894E-01  2.5907914247E-01  7.4092085753E-01
                       2.5907914247E-01  7.3806862894E-01  2.6193137106E-01
                       7.5593140745E-01  2.4672722512E-01  2.4406859255E-01
                       7.0162103008E-03  7.0162103008E-03 -7.0162103008E-03
             xred3     2.5047534624E-01  2.5047534624E-01  2.4952465376E-01
                       7.5047534624E-01  7.5047534624E-01  7.4952465376E-01
                       2.4636152295E-01  2.4636152295E-01  7.5363847705E-01
                       7.4589074628E-01  7.4589074628E-01  2.5410925372E-01
                       2.4682523662E-01  7.5582180537E-01  7.5317476338E-01
                       7.3798622086E-01  2.5912997001E-01  7.4087002999E-01
                       2.5912997001E-01  7.3798622086E-01  2.6201377914E-01
                       7.5582180537E-01  2.4682523662E-01  2.4417819463E-01
                       7.0338054356E-03  7.0338054356E-03 -7.0338054356E-03
             xred4     2.5046984134E-01  2.5046984134E-01  2.4953015866E-01
                       7.5046984134E-01  7.5046984134E-01  7.4953015866E-01
                       2.4648511829E-01  2.4648511829E-01  7.5351488171E-01
                       7.4582215496E-01  7.4582215496E-01  2.5417784504E-01
                       2.4692156601E-01  7.5568548761E-01  7.5307843399E-01
                       7.3792594115E-01  2.5916488031E-01  7.4083511969E-01
                       2.5916488031E-01  7.3792594115E-01  2.6207405885E-01
                       7.5568548761E-01  2.4692156601E-01  2.4431451239E-01
                       7.0551690039E-03  7.0551690039E-03 -7.0551690039E-03
             xred5     2.5045257520E-01  2.5045257520E-01  2.4954742480E-01
                       7.5045257520E-01  7.5045257520E-01  7.4954742480E-01
                       2.4660482799E-01  2.4660482799E-01  7.5339517201E-01
                       7.4575925400E-01  7.4575925400E-01  2.5424074600E-01
                       2.4700780691E-01  7.5557709719E-01  7.5299219309E-01
                       7.3785140435E-01  2.5921613900E-01  7.4078386100E-01
                       2.5921613900E-01  7.3785140435E-01  2.6214859565E-01
                       7.5557709719E-01  2.4700780691E-01  2.4442290281E-01
                       7.0783201792E-03  7.0783201792E-03 -7.0783201792E-03
             xred6     2.5043673231E-01  2.5043673231E-01  2.4956326769E-01
                       7.5043673231E-01  7.5043673231E-01  7.4956326769E-01
                       2.4672615027E-01  2.4672615027E-01  7.5327384973E-01
                       7.4570157428E-01  7.4570157428E-01  2.5429842572E-01
                       2.4709914746E-01  7.5545339599E-01  7.5290085254E-01
                       7.3779326220E-01  2.5924942828E-01  7.4075057172E-01
                       2.5924942828E-01  7.3779326220E-01  2.6220673780E-01
                       7.5545339599E-01  2.4709914746E-01  2.4454660401E-01
                       7.1035769310E-03  7.1035769310E-03 -7.1035769310E-03
             xred7     2.5043454658E-01  2.5043454658E-01  2.4956545342E-01
                       7.5043454658E-01  7.5043454658E-01  7.4956545342E-01
                       2.4681307912E-01  2.4681307912E-01  7.5318692088E-01
                       7.4563036413E-01  7.4563036413E-01  2.5436963587E-01
                       2.4722262403E-01  7.5532307042E-01  7.5277737597E-01
                       7.3773776757E-01  2.5930390462E-01  7.4069609538E-01
                       2.5930390462E-01  7.3773776757E-01  2.6226223243E-01
                       7.5532307042E-01  2.4722262403E-01  2.4467692958E-01
                       7.1000969590E-03  7.1000969590E-03 -7.1000969590E-03
             xred8     2.5042157902E-01  2.5042157902E-01  2.4957842098E-01
                       7.5042157902E-01  7.5042157902E-01  7.4957842098E-01
                       2.4694241059E-01  2.4694241059E-01  7.5305758941E-01
                       7.4557801754E-01  7.4557801754E-01  2.5442198246E-01
                       2.4729912118E-01  7.5520123736E-01  7.5270087882E-01
                       7.3765083573E-01  2.5934607158E-01  7.4065392842E-01
                       2.5934607158E-01  7.3765083573E-01  2.6234916427E-01
                       7.5520123736E-01  2.4729912118E-01  2.4479876264E-01
                       7.1391479783E-03  7.1391479783E-03 -7.1391479783E-03
             xred9     2.5040867437E-01  2.5040867437E-01  2.4959132563E-01
                       7.5040867437E-01  7.5040867437E-01  7.4959132563E-01
                       2.4705649246E-01  2.4705649246E-01  7.5294350754E-01
                       7.4551554397E-01  7.4551554397E-01  2.5448445603E-01
                       2.4738332960E-01  7.5509306158E-01  7.5261667040E-01
                       7.3757171650E-01  2.5940362152E-01  7.4059637848E-01
                       2.5940362152E-01  7.3757171650E-01  2.6242828350E-01
                       7.5509306158E-01  2.4738332960E-01  2.4490693842E-01
                       7.1588856468E-03  7.1588856468E-03 -7.1588856468E-03
             xred10    2.5039828301E-01  2.5039828301E-01  2.4960171699E-01
                       7.5039828301E-01  7.5039828301E-01  7.4960171699E-01
                       2.4716289218E-01  2.4716289218E-01  7.5283710782E-01
                       7.4545893042E-01  7.4545893042E-01  2.5454106958E-01
                       2.4746941652E-01  7.5498367495E-01  7.5253058348E-01
                       7.3749614326E-01  2.5945592448E-01  7.4054407552E-01
                       2.5945592448E-01  7.3749614326E-01  2.6250385674E-01
                       7.5498367495E-01  2.4746941652E-01  2.4501632505E-01
                       7.1764521832E-03  7.1764521832E-03 -7.1764521832E-03
            znucl       55.00000   53.00000   40.00000   35.00000

- Timing analysis has been suppressed with timopt=0

 Suggested references for the acknowledgment of ABINIT usage.

 Calculation completed.
.Delivered   0 WARNINGs and   0 COMMENTs to log file.