.Version 9.2.2 of ABINIT

 ABINIT is a project of the Universite Catholique de Louvain,
 Corning Inc. and other collaborators, see ~abinit/doc/developers/contributors.txt .
 acknowledgments of the ABINIT effort.

.Starting date : Thu  8 Dec 2022.
- ( at 10h01 )

- The starting date is more than 2 years after the initial release
- of this version of ABINIT, namely Nov 2020.
- Note that the use beyond 3 years after the release will not be supported.
- Action: please, switch to a more recent version of ABINIT.

- input  file    -> Cs2TiI6.in
- output file    -> Cs2TiI6.out
- root for input  files -> Cs2TiI6i
- root for output files -> Cs2TiI6o

- inpspheads : Reading pseudopotential header in XML form from
-   ../../../Psps_for_tests/ATOMICDATA/Cs.GGA_PBE-JTH.xml
- inpspheads : Reading pseudopotential header in XML form from
-   ../../../Psps_for_tests/ATOMICDATA/I.GGA_PBE-JTH.xml
- inpspheads : Reading pseudopotential header in XML form from
-   ../../../Psps_for_tests/ATOMICDATA/Zr.GGA_PBE-JTH.xml
- inpspheads : Reading pseudopotential header in XML form from
-   ../../../Psps_for_tests/ATOMICDATA/Cl.GGA_PBE-JTH.xml

 DATASET    1 : space group Im m 2 (# 44); Bravais oI (body-center ortho.)
     intxc =       0    ionmov =       0      iscf =      17    lmnmax =      18
     lnmax =       6     mgfft =      60  mpssoang =       3    mqgrid =    3676
     natom =       9  nloc_mem =       2    nspden =       1   nspinor =       1
    nsppol =       1      nsym =       4    n1xccc =       1    ntypat =       4
    occopt =       1   xclevel =       2
-    mband =          42        mffmem =           1         mkmem =          47
       mpw =        8408          nfft =      216000          nkpt =         280
Pmy_natom=         2
 PAW method is used; the additional fine FFT grid is defined by:
   mgfftf=        90    nfftf =    729000
  Rough estimation (10% accuracy) of disk space for files :

[...]

 DATASET    3 : space group Im m 2 (# 44); Bravais oI (body-center ortho.)
     intxc =       0    ionmov =       0      iscf =      17    lmnmax =      18
     lnmax =       6     mgfft =      60  mpssoang =       3    mqgrid =    3676
     natom =       9  nloc_mem =       2    nspden =       1   nspinor =       1
    nsppol =       1      nsym =       4    n1xccc =       1    ntypat =       4
    occopt =       1   xclevel =       2
-    mband =          42        mffmem =           1         mkmem =          47
       mpw =        8408          nfft =      216000          nkpt =         280
Pmy_natom=         2
 PAW method is used; the additional fine FFT grid is defined by:
   mgfftf=        90    nfftf =    729000
  Rough estimation (10% accuracy) of disk space for files :

 DATASET    4 : space group I4/m m m (#139); Bravais tI (body-center tetrag.)
     intxc =       0    ionmov =       0      iscf =      17    lmnmax =      18
     lnmax =       6     mgfft =      60  mpssoang =       3    mqgrid =    3643
     natom =       9  nloc_mem =       2    nspden =       1   nspinor =       1
    nsppol =       1      nsym =      16    n1xccc =       1    ntypat =       4
    occopt =       1   xclevel =       2
-    mband =          42        mffmem =           1         mkmem =          28
       mpw =        8371          nfft =      216000          nkpt =         163
Pmy_natom=         2
 PAW method is used; the additional fine FFT grid is defined by:
   mgfftf=        96    nfftf =    884736
  Rough estimation (10% accuracy) of disk space for files :

------------- Echo of variables that govern the present computation ------------
-
- outvars: echo of selected default values
-   iomode0 =  0 , fftalg0 =112 , wfoptalg0 = 10
-
- outvars: echo of global parameters not present in the input file
-  max_nthreads =    0
-
 -outvars: echo values of preprocessed input variables --------
            acell1     1.5743583964E+01  1.5795554602E+01  1.5743583964E+01 Bohr
            acell2     1.5795554269E+01  1.5743584043E+01  1.5743584043E+01 Bohr
            acell3     1.5496161884E+01  1.5743530264E+01  1.5743530264E+01 Bohr
            acell4     1.5546725663E+01  1.5546725663E+01  1.5974160276E+01 Bohr
              amu      1.32905430E+02  1.26904470E+02  9.12240000E+01
                       3.54527000E+01
           diemac      1.20000000E+01
             ecut      1.60000000E+01 Hartree
-          fftalg         112
           istwfk1       2    0    0    0    0    0    3    0    0    0
                         0    0    0    0    0    0    0    0    0    0
                         0    0    0    0    0    0    0    0    0    0
                         0    0    0    0    0    0    0    0    0    0
                         0    0    0    0    0    0    0    0    0    0
           istwfk2       2    0    0    0    0    0    3    0    0    0
                         0    0    0    0    0    0    0    0    0    0
                         0    0    0    0    0    0    0    0    0    0
                         0    0    0    0    0    0    0    0    0    0
                         0    0    0    0    0    0    0    0    0    0
           istwfk3       2    0    0    0    0    0    3    0    0    0
                         0    0    0    0    0    0    0    0    0    0
                         0    0    0    0    0    0    0    0    0    0
                         0    0    0    0    0    0    0    0    0    0
                         0    0    0    0    0    0    0    0    0    0
           istwfk4       2    0    0    0    0    0    3    0    0    0
                         0    0    0    0    0    0    0    0    0    0
                         0    0    0    0    0    0    0    0    0    0
                         0    0    0    0    0    0    0    0    0    0
                         0    0    7    0    0    0    0    0    0    0
                       outvar_i_n : Printing only first  50 k-points.
              ixc     -101130
           jdtset        1    2    3    4
              kpt1     0.00000000E+00  0.00000000E+00  0.00000000E+00
                       8.33333333E-02  0.00000000E+00  0.00000000E+00
                       1.66666667E-01  0.00000000E+00  0.00000000E+00
                       2.50000000E-01  0.00000000E+00  0.00000000E+00
                       3.33333333E-01  0.00000000E+00  0.00000000E+00
                       4.16666667E-01  0.00000000E+00  0.00000000E+00
                       5.00000000E-01  0.00000000E+00  0.00000000E+00
                       0.00000000E+00  8.33333333E-02  0.00000000E+00
                       8.33333333E-02  8.33333333E-02  0.00000000E+00
                       1.66666667E-01  8.33333333E-02  0.00000000E+00
                       2.50000000E-01  8.33333333E-02  0.00000000E+00
                       3.33333333E-01  8.33333333E-02  0.00000000E+00
                       4.16666667E-01  8.33333333E-02  0.00000000E+00
                       5.00000000E-01  8.33333333E-02  0.00000000E+00
                      -4.16666667E-01  8.33333333E-02  0.00000000E+00
                      -3.33333333E-01  8.33333333E-02  0.00000000E+00
                      -2.50000000E-01  8.33333333E-02  0.00000000E+00
                      -1.66666667E-01  8.33333333E-02  0.00000000E+00
                      -8.33333333E-02  8.33333333E-02  0.00000000E+00
                       0.00000000E+00  1.66666667E-01  0.00000000E+00
                       8.33333333E-02  1.66666667E-01  0.00000000E+00
                       1.66666667E-01  1.66666667E-01  0.00000000E+00
                       2.50000000E-01  1.66666667E-01  0.00000000E+00
                       3.33333333E-01  1.66666667E-01  0.00000000E+00
                       4.16666667E-01  1.66666667E-01  0.00000000E+00
                       5.00000000E-01  1.66666667E-01  0.00000000E+00
                      -4.16666667E-01  1.66666667E-01  0.00000000E+00
                      -3.33333333E-01  1.66666667E-01  0.00000000E+00
                      -2.50000000E-01  1.66666667E-01  0.00000000E+00
                      -1.66666667E-01  1.66666667E-01  0.00000000E+00
                      -8.33333333E-02  1.66666667E-01  0.00000000E+00
                       0.00000000E+00  2.50000000E-01  0.00000000E+00
                       8.33333333E-02  2.50000000E-01  0.00000000E+00
                       1.66666667E-01  2.50000000E-01  0.00000000E+00
                       2.50000000E-01  2.50000000E-01  0.00000000E+00
                       3.33333333E-01  2.50000000E-01  0.00000000E+00
                       4.16666667E-01  2.50000000E-01  0.00000000E+00
                       5.00000000E-01  2.50000000E-01  0.00000000E+00
                      -4.16666667E-01  2.50000000E-01  0.00000000E+00
                      -3.33333333E-01  2.50000000E-01  0.00000000E+00
                      -2.50000000E-01  2.50000000E-01  0.00000000E+00
                      -1.66666667E-01  2.50000000E-01  0.00000000E+00
                      -8.33333333E-02  2.50000000E-01  0.00000000E+00
                       0.00000000E+00  3.33333333E-01  0.00000000E+00
                       8.33333333E-02  3.33333333E-01  0.00000000E+00
                       1.66666667E-01  3.33333333E-01  0.00000000E+00
                       2.50000000E-01  3.33333333E-01  0.00000000E+00
                       3.33333333E-01  3.33333333E-01  0.00000000E+00
                       4.16666667E-01  3.33333333E-01  0.00000000E+00
                       5.00000000E-01  3.33333333E-01  0.00000000E+00
              kpt2     0.00000000E+00  0.00000000E+00  0.00000000E+00
                       8.33333333E-02  0.00000000E+00  0.00000000E+00
                       1.66666667E-01  0.00000000E+00  0.00000000E+00
                       2.50000000E-01  0.00000000E+00  0.00000000E+00
                       3.33333333E-01  0.00000000E+00  0.00000000E+00
                       4.16666667E-01  0.00000000E+00  0.00000000E+00
                       5.00000000E-01  0.00000000E+00  0.00000000E+00
                       0.00000000E+00  8.33333333E-02  0.00000000E+00
                       8.33333333E-02  8.33333333E-02  0.00000000E+00
                       1.66666667E-01  8.33333333E-02  0.00000000E+00
                       2.50000000E-01  8.33333333E-02  0.00000000E+00
                       3.33333333E-01  8.33333333E-02  0.00000000E+00
                       4.16666667E-01  8.33333333E-02  0.00000000E+00
                       5.00000000E-01  8.33333333E-02  0.00000000E+00
                      -4.16666667E-01  8.33333333E-02  0.00000000E+00
                      -3.33333333E-01  8.33333333E-02  0.00000000E+00
                      -2.50000000E-01  8.33333333E-02  0.00000000E+00
                      -1.66666667E-01  8.33333333E-02  0.00000000E+00
                      -8.33333333E-02  8.33333333E-02  0.00000000E+00
                       0.00000000E+00  1.66666667E-01  0.00000000E+00
                       8.33333333E-02  1.66666667E-01  0.00000000E+00
                       1.66666667E-01  1.66666667E-01  0.00000000E+00
                       2.50000000E-01  1.66666667E-01  0.00000000E+00
                       3.33333333E-01  1.66666667E-01  0.00000000E+00
[...]
                       2.000000  2.000000  2.000000  2.000000  2.000000  2.000000
                       2.000000  2.000000  2.000000  2.000000  2.000000  2.000000
                       2.000000  2.000000  2.000000  2.000000  2.000000  2.000000
                       2.000000  2.000000  2.000000  2.000000  2.000000  2.000000
                       2.000000  2.000000  2.000000  2.000000  2.000000  2.000000
                       0.000000  0.000000  0.000000  0.000000  0.000000  0.000000
        pawecutdg      4.00000000E+01 Hartree
            prtwf           0
            rprim1     6.7427829732E-03  7.1145608901E-01  7.0269820570E-01
                       7.0710678119E-01  0.0000000000E+00  7.0710678119E-01
                       7.0269820570E-01  7.1145608901E-01  6.7427829732E-03
            rprim2     0.0000000000E+00  7.0710678119E-01  7.0710678119E-01
                       7.1145610699E-01  6.7427825722E-03  7.0269818750E-01
                       7.1145610699E-01  7.0269818750E-01  6.7427825722E-03
            rprim3     0.0000000000E+00  7.0710678119E-01  7.0710678119E-01
                       7.1143424933E-01 -6.7240479235E-03  7.0272049640E-01
                       7.1143424933E-01  7.0272049640E-01 -6.7240479235E-03
            rprim4     0.0000000000E+00  7.2654765382E-01  6.8711607952E-01
                       7.2654765382E-01  0.0000000000E+00  6.8711607952E-01
                       7.0710678119E-01  7.0710678119E-01  0.0000000000E+00
          spgroup1         44
          spgroup2         44
          spgroup3         44
          spgroup4        139
           strten1     3.2135085876E-06  3.0828636052E-06  3.2135085876E-06
                      -1.8717494669E-13 -6.9138574959E-09 -1.8717467942E-13
           strten2     3.0840952178E-06  3.2147923586E-06  3.2147923586E-06
                      -6.9394407045E-09  7.6052203667E-14  7.6051818125E-14
           strten3     3.0858514044E-06  3.2178976255E-06  3.2178976255E-06
                       2.6063510215E-08  7.2635106489E-14  7.2634964639E-14
           strten4     3.1365985073E-06  3.1365985073E-06  3.2094112425E-06
                      -1.2622151168E-14 -1.2620344909E-14  2.3871646413E-14
           symafm1       1    1    1    1
           symafm2       1    1    1    1
           symafm3       1    1    1    1
           symafm4       1    1    1    1    1    1    1    1    1    1
                         1    1    1    1    1    1
           symrel1     1  0  0   0  1  0   0  0  1       0  1 -1   0  1  0  -1  1  0
                       0  0 -1   0 -1  0  -1  0  0       1 -1  0   0 -1  0   0 -1  1
           symrel2     1  0  0   0  1  0   0  0  1       1  0  0   1  0 -1   1 -1  0
                      -1  0  0   0  0 -1   0 -1  0      -1  0  0  -1  1  0  -1  0  1
           symrel3     1  0  0   0  1  0   0  0  1       1  0  0   1  0 -1   1 -1  0
                       1  0  0   0  0  1   0  1  0       1  0  0   1 -1  0   1  0 -1
           symrel4     1  0  0   0  1  0   0  0  1      -1  0  0   0 -1  0   0  0 -1
                      -1  0  1   0 -1  1   0  0  1       1  0 -1   0  1 -1   0  0 -1
                       0  1 -1   1  0 -1   0  0 -1       0 -1  1  -1  0  1   0  0  1
                       0 -1  0  -1  0  0   0  0 -1       0  1  0   1  0  0   0  0  1
                       1  0  0   1  0 -1   1 -1  0      -1  0  0  -1  0  1  -1  1  0
                       0 -1  0   0 -1  1   1 -1  0       0  1  0   0  1 -1  -1  1  0
                       0  1 -1   0  1  0  -1  1  0       0 -1  1   0 -1  0   1 -1  0
                      -1  0  1  -1  0  0  -1  1  0       1  0 -1   1  0  0   1 -1  0
            tnons1     0.0000000  0.0000000  0.0000000     0.0000000  0.0000000  0.0000000
                       0.0000000  0.0000000  0.0000000     0.0000000  0.0000000  0.0000000
            tnons2     0.0000000  0.0000000  0.0000000    -0.0000000  0.0000000  0.0000000
                       0.0000000  0.0000000  0.0000000     0.0000000  0.0000000  0.0000000
            tnons3     0.0000000  0.0000000  0.0000000     0.0000000  0.0000000  0.0000000
                       0.0000000 -0.0000000  0.0000000     0.0000000 -0.0000000  0.0000000
            tnons4     0.0000000  0.0000000  0.0000000    -0.0000000  0.0000000  0.0000000
                      -0.0000000  0.0000000  0.0000000     0.0000000  0.0000000  0.0000000
                      -0.0000000  0.0000000  0.0000000    -0.0000000 -0.0000000  0.0000000
                      -0.0000000 -0.0000000  0.0000000    -0.0000000  0.0000000  0.0000000
                      -0.0000000  0.0000000  0.0000000    -0.0000000 -0.0000000  0.0000000
                      -0.0000000  0.0000000  0.0000000    -0.0000000  0.0000000  0.0000000
                      -0.0000000  0.0000000 -0.0000000    -0.0000000  0.0000000  0.0000000
                      -0.0000000 -0.0000000  0.0000000    -0.0000000  0.0000000 -0.0000000
           toldfe      1.00000000E-08 Hartree
            typat1     1  1  4  2  4  2  2  2  3
            typat2     1  1  4  2  2  4  2  2  3
            typat3     1  1  2  4  2  4  2  2  3
            typat4     1  1  4  4  2  2  2  2  3
           useylm           1
              wtk1       0.00058    0.00231    0.00231    0.00231    0.00231    0.00231
                         0.00116    0.00231    0.00231    0.00463    0.00463    0.00463
                         0.00463    0.00463    0.00463    0.00463    0.00463    0.00463
                         0.00463    0.00231    0.00463    0.00231    0.00463    0.00463
                         0.00463    0.00463    0.00463    0.00463    0.00463    0.00463
                         0.00463    0.00231    0.00463    0.00463    0.00231    0.00463
                         0.00463    0.00463    0.00463    0.00463    0.00463    0.00463
                         0.00463    0.00231    0.00463    0.00463    0.00463    0.00231
                         0.00463    0.00463
              wtk2       0.00058    0.00231    0.00231    0.00231    0.00231    0.00231
                         0.00116    0.00231    0.00231    0.00463    0.00463    0.00463
                         0.00463    0.00463    0.00463    0.00463    0.00463    0.00463
                         0.00463    0.00231    0.00463    0.00231    0.00463    0.00463
                         0.00463    0.00463    0.00463    0.00463    0.00463    0.00463
                         0.00463    0.00231    0.00463    0.00463    0.00231    0.00463
                         0.00463    0.00463    0.00463    0.00463    0.00463    0.00463
                         0.00463    0.00231    0.00463    0.00463    0.00463    0.00231
                         0.00463    0.00463
              wtk3       0.00058    0.00231    0.00231    0.00231    0.00231    0.00231
                         0.00116    0.00231    0.00231    0.00463    0.00463    0.00463
                         0.00463    0.00463    0.00463    0.00463    0.00463    0.00463
                         0.00463    0.00231    0.00463    0.00231    0.00463    0.00463
                         0.00463    0.00463    0.00463    0.00463    0.00463    0.00463
                         0.00463    0.00231    0.00463    0.00463    0.00231    0.00463
                         0.00463    0.00463    0.00463    0.00463    0.00463    0.00463
                         0.00463    0.00231    0.00463    0.00463    0.00463    0.00231
                         0.00463    0.00463
              wtk4       0.00058    0.00463    0.00463    0.00463    0.00463    0.00463
                         0.00231    0.00116    0.00463    0.00463    0.00463    0.00463
                         0.00463    0.00463    0.00463    0.00463    0.00463    0.00231
                         0.00116    0.00463    0.00463    0.00463    0.00463    0.00463
                         0.00463    0.00463    0.00231    0.00116    0.00463    0.00463
                         0.00463    0.00463    0.00463    0.00231    0.00116    0.00463
                         0.00463    0.00463    0.00231    0.00116    0.00463    0.00231
                         0.00058    0.00231    0.00926    0.00926    0.00926    0.00926
                         0.00926    0.00926
                       outvars : Printing only first  50 k-points.
           xangst1     2.9412132088E+00  2.9962744881E+00  2.9692431149E+00
                       8.8516695325E+00  8.8582143493E+00  8.8796994386E+00
                       5.7996977142E+00  5.9272444187E+00  2.5961772776E+00
                       5.9151227490E+00  5.9272444187E+00  8.9484199332E+00
                       9.2247353698E+00  5.9272444187E+00  6.0212149333E+00
                       5.8868669609E+00  8.9552780322E+00  5.9340456868E+00
                       5.8868669606E+00  2.8992108053E+00  5.9340456865E+00
                       2.8724927142E+00  5.9272444187E+00  5.9057898984E+00
                      -9.5014620187E-02 -1.1989186555E-18  9.5014620187E-02
           xangst2     2.9962741767E+00  2.9412127954E+00  2.9692434034E+00
                       8.8582150198E+00  8.8516689941E+00  8.8796996022E+00
                       5.9272445982E+00  5.7996977602E+00  2.5961771545E+00
                       5.9272445982E+00  5.9151227778E+00  8.9484195645E+00
                       8.9552783827E+00  5.8868668442E+00  5.9340455532E+00
                       5.9272445982E+00  9.2247352430E+00  6.0212146373E+00
                       5.9272445982E+00  2.8724928331E+00  5.9057896197E+00
                       2.8992108138E+00  5.8868668443E+00  5.9340455533E+00
                       2.8755325744E-18 -9.5014502155E-02  9.5014502155E-02
           xangst3     2.9301318090E+00  2.8855394416E+00  2.8855394416E+00
                       8.9239526959E+00  8.6839675629E+00  8.6839675629E+00
                       5.9270422525E+00  5.8027069879E+00  2.7602068983E+00
                       5.9270422525E+00  5.6874757071E+00  9.1127578310E+00
                       8.9548940797E+00  5.7749461688E+00  5.7749461688E+00
                       5.9270422525E+00  9.1127578310E+00  5.6874757071E+00
                       5.9270422525E+00  2.7602068983E+00  5.8027069879E+00
                       2.8991904252E+00  5.7749461689E+00  5.7749461689E+00
                      -2.3074152259E-34 -9.5121796276E-02 -9.5121796276E-02
           xangst4     2.9886439253E+00  2.9886439253E+00  2.8264426789E+00
                       8.9659317759E+00  8.9659317759E+00  8.4793280368E+00
                       5.9772878506E+00  5.9772878506E+00  2.4472216108E+00
                       5.9772878506E+00  5.9772878506E+00  8.8585491049E+00
                       9.0474230671E+00  5.9772878506E+00  5.6528853578E+00
                       5.9772878506E+00  9.0474230671E+00  5.6528853578E+00
                       5.9772878506E+00  2.9071526340E+00  5.6528853578E+00
                       2.9071526340E+00  5.9772878506E+00  5.6528853578E+00
                       3.7686820147E-20 -1.2069046187E-20 -1.4646878323E-20
            xcart1     5.5580874631E+00  5.6621382015E+00  5.6110563091E+00
                       1.6727231235E+01  1.6739599147E+01  1.6780200081E+01
                       1.0959840333E+01  1.1200868674E+01  4.9060640471E+00
                       1.1177962038E+01  1.1200868674E+01  1.6910062996E+01
                       1.7432223497E+01  1.1200868674E+01  1.1378447211E+01
                       1.1124566337E+01  1.6923022925E+01  1.1213721208E+01
                       1.1124566336E+01  5.4787144234E+00  1.1213721208E+01
                       5.4282245486E+00  1.1200868674E+01  1.1160325506E+01
                      -1.7955161077E-01 -2.2656279146E-18  1.7955161077E-01
            xcart2     5.6621376131E+00  5.5580866818E+00  5.6110568543E+00
                       1.6739600414E+01  1.6727230218E+01  1.6780200390E+01
                       1.1200869013E+01  1.0959840420E+01  4.9060638144E+00
                       1.1200869013E+01  1.1177962092E+01  1.6910062299E+01
                       1.6923023587E+01  1.1124566116E+01  1.1213720956E+01
                       1.1200869013E+01  1.7432223258E+01  1.1378446652E+01
                       1.1200869013E+01  5.4282247732E+00  1.1160324980E+01
                       5.4787144395E+00  1.1124566116E+01  1.1213720956E+01
                       5.4339690518E-18 -1.7955138773E-01  1.7955138773E-01
            xcart3     5.5371466523E+00  5.4528792903E+00  5.4528792903E+00
                       1.6863826618E+01  1.6410320441E+01  1.6410320441E+01
                       1.1200486635E+01  1.0965527037E+01  5.2160351078E+00
                       1.1200486635E+01  1.0747771474E+01  1.7220616616E+01
                       1.6922297360E+01  1.0913066691E+01  1.0913066691E+01
                       1.1200486635E+01  1.7220616616E+01  1.0747771474E+01
                       1.1200486635E+01  5.2160351078E+00  1.0965527037E+01
                       5.4786759108E+00  1.0913066691E+01  1.0913066691E+01
                      -4.3603828518E-34 -1.7975414423E-01 -1.7975414423E-01
            xcart4     5.6477185275E+00  5.6477185275E+00  5.3412025935E+00
                       1.6943155583E+01  1.6943155583E+01  1.6023607780E+01
                       1.1295437055E+01  1.1295437055E+01  4.6245786308E+00
                       1.1295437055E+01  1.1295437055E+01  1.6740231743E+01
                       1.7097151805E+01  1.1295437055E+01  1.0682405187E+01
                       1.1295437055E+01  1.7097151805E+01  1.0682405187E+01
                       1.1295437055E+01  5.4937223048E+00  1.0682405187E+01
                       5.4937223048E+00  1.1295437055E+01  1.0682405187E+01
                       7.1217768897E-20 -2.2807191978E-20 -2.7678588732E-20
             xred1     2.5517158367E-01  2.4724557683E-01  2.5033726268E-01
                       7.4966273732E-01  7.5275442317E-01  7.4482841633E-01
                       2.2374423846E-01  2.1025607261E-01  7.7625576154E-01
                       7.6157654999E-01  7.5739383461E-01  2.3842345001E-01
                       2.2374423846E-01  7.8974392739E-01  7.7625576154E-01
                       7.5950196332E-01  2.4456649671E-01  7.5136504326E-01
                       2.4863495674E-01  7.5543350329E-01  2.4049803668E-01
                       7.6157654999E-01  2.4260616539E-01  2.3842345001E-01
                       1.6387182025E-02  7.3416509469E-19 -1.6387182025E-02
             xred2     2.4724561075E-01  2.5517161033E-01  2.5033716817E-01
                       7.5275438925E-01  7.4966283183E-01  7.4482838967E-01
                       2.1025608112E-01  2.2374421819E-01  7.7625578181E-01
                       7.5739383242E-01  7.6157652108E-01  2.3842347892E-01
                       2.4456649002E-01  7.5950196864E-01  7.5136505132E-01
                       7.8974391888E-01  2.2374421819E-01  7.7625578181E-01
                       2.4260616758E-01  7.6157652108E-01  2.3842347892E-01
                       7.5543350998E-01  2.4863494868E-01  2.4049803136E-01
                       1.8446034080E-18  1.6387162005E-02 -1.6387162005E-02
             xred3     2.5045836096E-01  2.4718330697E-01  2.4718330697E-01
                       7.4482497490E-01  7.5281669303E-01  7.5281669303E-01
                       2.3838234321E-01  2.4261757029E-01  7.5738242971E-01
                       7.7622807669E-01  7.8976414446E-01  2.1023585554E-01
                       2.4052340941E-01  7.5542688058E-01  7.5542688058E-01
                       7.7622807669E-01  2.1023585554E-01  7.8976414446E-01
                       2.3838234321E-01  7.5738242971E-01  2.4261757029E-01
                       7.5137717057E-01  2.4457311942E-01  2.4457311942E-01
                      -1.6404755614E-02 -7.3202751594E-19  7.3202751594E-19
             xred4     2.5000000000E-01  2.5000000000E-01  2.5000000000E-01
                       7.5000000000E-01  7.5000000000E-01  7.5000000000E-01
                       2.1645774289E-01  2.1645774289E-01  7.8354225711E-01
                       7.8354225711E-01  7.8354225711E-01  2.1645774289E-01
                       2.4318325524E-01  7.5681674476E-01  7.5681674476E-01
                       7.5681674476E-01  2.4318325524E-01  7.5681674476E-01
                       2.4318325524E-01  7.5681674476E-01  2.4318325524E-01
                       7.5681674476E-01  2.4318325524E-01  2.4318325524E-01
                      -5.4575994689E-21  2.8665548261E-21  3.4384485616E-21
            znucl       55.00000   53.00000   40.00000   17.00000

- Timing analysis has been suppressed with timopt=0

 Suggested references for the acknowledgment of ABINIT usage.

 Calculation completed.
.Delivered   0 WARNINGs and   0 COMMENTs to log file.