.Version 9.2.2 of ABINIT

 ABINIT is a project of the Universite Catholique de Louvain,
 Corning Inc. and other collaborators, see ~abinit/doc/developers/contributors.txt .
 acknowledgments of the ABINIT effort.

.Starting date : Thu 20 Jul 2023.
- ( at 07h40 )

- The starting date is more than 2 years after the initial release
- of this version of ABINIT, namely Nov 2020.
- Note that the use beyond 3 years after the release will not be supported.
- Action: please, switch to a more recent version of ABINIT.

- input  file    -> Cs2TiI6.in
- output file    -> Cs2TiI6.out
- root for input  files -> Cs2TiI6i
- root for output files -> Cs2TiI6o

 Symmetries : space group I4/m m m (#139); Bravais tI (body-center tetrag.)
     intxc =       0    ionmov =       0      iscf =      17    lmnmax =       8
     lnmax =       8     mgfft =      72  mpssoang =       4    mqgrid =    3001
     natom =       9  nloc_mem =       1    nspden =       1   nspinor =       1
    nsppol =       1      nsym =      16    n1xccc =    2501    ntypat =       4
    occopt =       1   xclevel =       2
-    mband =          42        mffmem =           1         mkmem =           1
       mpw =       11706          nfft =      373248          nkpt =           4
  Rough estimation (10% accuracy) of disk space for files :

------------- Echo of variables that govern the present computation ------------
-
- outvars: echo of selected default values
-   iomode0 =  0 , fftalg0 =112 , wfoptalg0 =  0
-
- outvars: echo of global parameters not present in the input file
-  max_nthreads =    0
-
 -outvars: echo values of preprocessed input variables --------
            acell      1.5541600257E+01  1.5964936804E+01  1.5541600257E+01 Bohr
              amu      1.32905430E+02  1.26904470E+02  1.78490000E+02
                       3.54527000E+01
           diemac      1.20000000E+01
             ecut      2.00000000E+01 Hartree
-          fftalg         112
             iscf          17
           istwfk        1    1    1    1
              ixc        -428
              kpt      0.00000000E+00  0.00000000E+00  0.00000000E+00
                       5.00000000E-01  0.00000000E+00  0.00000000E+00
                       5.00000000E-01  5.00000000E-01  0.00000000E+00
                       5.00000000E-01  0.00000000E+00  5.00000000E-01
         kptns_hf      0.00000000E+00  0.00000000E+00  0.00000000E+00
                       5.00000000E-01  0.00000000E+00  0.00000000E+00
                       0.00000000E+00  5.00000000E-01  0.00000000E+00
                       5.00000000E-01  5.00000000E-01  0.00000000E+00
                       0.00000000E+00  0.00000000E+00  5.00000000E-01
                       5.00000000E-01  0.00000000E+00  5.00000000E-01
                       0.00000000E+00  5.00000000E-01  5.00000000E-01
                       5.00000000E-01  5.00000000E-01  5.00000000E-01
         kptrlatt        2    0    0      0    2    0      0    0    2
          kptrlen      3.10832005E+01
P           mkmem           1
            natom           9
            nband          42
          nbandhf          36
            ngfft          72      72      72
             nkpt           4
           nkpthf           8
-           npkpt           4
            nstep        2500
             nsym          16
           ntypat           4
              occ      2.000000  2.000000  2.000000  2.000000  2.000000  2.000000
                       2.000000  2.000000  2.000000  2.000000  2.000000  2.000000
                       2.000000  2.000000  2.000000  2.000000  2.000000  2.000000
                       2.000000  2.000000  2.000000  2.000000  2.000000  2.000000
                       2.000000  2.000000  2.000000  2.000000  2.000000  2.000000
                       2.000000  2.000000  2.000000  2.000000  2.000000  2.000000
                       0.000000  0.000000  0.000000  0.000000  0.000000  0.000000
            rprim      0.0000000000E+00  6.8730640280E-01  7.2636761262E-01
                       7.0710678119E-01  0.0000000000E+00  7.0710678119E-01
                       7.2636761262E-01  6.8730640280E-01  0.0000000000E+00
          spgroup         139
           symrel      1  0  0   0  1  0   0  0  1      -1  0  0   0 -1  0   0  0 -1
                       0  0 -1   0 -1  0  -1  0  0       0  0  1   0  1  0   1  0  0
                       0 -1  1   0 -1  0   1 -1  0       0  1 -1   0  1  0  -1  1  0
                      -1  1  0   0  1  0   0  1 -1       1 -1  0   0 -1  0   0 -1  1
                       0 -1  1  -1  0  1   0  0  1       0  1 -1   1  0 -1   0  0 -1
                       0  0 -1   1  0 -1   0  1 -1       0  0  1  -1  0  1   0 -1  1
                       1  0  0   1  0 -1   1 -1  0      -1  0  0  -1  0  1  -1  1  0
                      -1  1  0  -1  0  1  -1  0  0       1 -1  0   1  0 -1   1  0  0
           toldfe      1.00000000E-08 Hartree
            typat      1  1  4  2  2  4  2  2  3
          usefock           1
              wtk        0.12500    0.50000    0.25000    0.12500
           xangst      2.9869182837E+00  2.8262934984E+00  2.9869182837E+00
                       8.9607548512E+00  8.4788804953E+00  8.9607548512E+00
                       5.9738365674E+00  8.8774575837E+00  5.9738365674E+00
                       5.9738365674E+00  5.6525869969E+00  2.8880840300E+00
                       5.9738365675E+00  5.6525869969E+00  9.0595891050E+00
                       5.9738365676E+00  2.4277164101E+00  5.9738365676E+00
                       9.0595891050E+00  5.6525869969E+00  5.9738365675E+00
                       2.8880840300E+00  5.6525869969E+00  5.9738365674E+00
                      -2.4249030835E-19 -6.4554112567E-20 -8.2045720338E-20
            xcart      5.6444575376E+00  5.3409206832E+00  5.6444575376E+00
                       1.6933372613E+01  1.6022762050E+01  1.6933372613E+01
                       1.1288915075E+01  1.6775963589E+01  1.1288915075E+01
                       1.1288915075E+01  1.0681841366E+01  5.4576878654E+00
                       1.1288915075E+01  1.0681841366E+01  1.7120142285E+01
                       1.1288915075E+01  4.5877191433E+00  1.1288915075E+01
                       1.7120142285E+01  1.0681841366E+01  1.1288915075E+01
                       5.4576878654E+00  1.0681841366E+01  1.1288915075E+01
                      -4.5824027266E-19 -1.2198959350E-19 -1.5504394181E-19
             xred      2.5000000000E-01  2.5000000000E-01  2.5000000000E-01
                       7.5000000000E-01  7.5000000000E-01  7.5000000000E-01
                       7.8525616577E-01  2.1474383423E-01  7.8525616577E-01
                       2.4172774040E-01  2.4172774040E-01  7.5827225960E-01
                       7.5827225960E-01  7.5827225960E-01  2.4172774040E-01
                       2.1474383423E-01  7.8525616577E-01  2.1474383423E-01
                       2.4172774040E-01  7.5827225960E-01  7.5827225960E-01
                       7.5827225960E-01  2.4172774040E-01  2.4172774040E-01
                       7.7188014048E-21 -2.1452976990E-20 -1.9139078988E-20
            znucl       55.00000   53.00000   72.00000   17.00000

 chkinp: Checking input parameters for consistency.

== DATASET  1 ==================================================================
-   mpi_nproc: 4, omp_nthreads: -1 (-1 if OMP is not activated)

--- !DatasetInfo
iteration_state: {dtset: 1, }
dimensions: {natom: 9, nkpt: 4, mband: 42, nsppol: 1, nspinor: 1, nspden: 1, mpw: 11706, }
cutoff_energies: {ecut:  20.0, pawecutdg:  -1.0, }
electrons: {nelect:   7.20000000E+01, charge:   0.00000000E+00, occopt:   1.00000000E+00, tsmear:   1.00000000E-02, }
meta: {optdriver: 0, ionmov: 0, optcell: 0, iscf: 17, paral_kgb: 0, }
...

 Real(R)+Recip(G) space primitive vectors, cartesian coordinates (Bohr,Bohr^-1):
 R(1)=  0.0000000 10.6818414 11.2889151  G(1)= -0.0442912  0.0468084  0.0442912
 R(2)= 11.2889151  0.0000000 11.2889151  G(2)=  0.0442912 -0.0468084  0.0442912
 R(3)= 11.2889151 10.6818414  0.0000000  G(3)=  0.0442912  0.0468084 -0.0442912
 Unit cell volume ucvol=  2.7225793E+03 bohr^3
 Angles (23,13,12)=  5.90947774E+01  6.18104453E+01  5.90947774E+01 degrees

 getcut: wavevector=  0.0000  0.0000  0.0000  ngfft=  72  72  72
         ecut(hartree)=     20.000   => boxcut(ratio)=   2.24019

 getcut : COMMENT -
  Note that boxcut > 2.2 ; recall that boxcut=Gcut(box)/Gcut(sphere) = 2
  is sufficient for exact treatment of convolution.
  Such a large boxcut is a waste : you could raise ecut
  e.g. ecut=   25.092293 Hartrees makes boxcut=2

--- Pseudopotential description ------------------------------------------------
- pspini: atom type   1  psp file is ../../../Psps_for_tests/ONCVPSP-PBE-PDv0.4/Cs-sp.psp8
- pspatm: opening atomic psp file    ../../../Psps_for_tests/ONCVPSP-PBE-PDv0.4/Cs-sp.psp8
- Cs    ONCVPSP-3.2.3.1  r_core=   2.27353   1.85623   2.01788   1.90105
- 55.00000   9.00000    170703                znucl, zion, pspdat
    8   32    3    4       600   0.00000      pspcod,pspxc,lmax,lloc,mmax,r2well
    5.99000000000000    5.00000000000000    0.00000000000000   rchrg,fchrg,qchrg
     nproj     2     2     2     2
     extension_switch     1
  pspatm : epsatm=   22.81663475
         --- l  ekb(1:nproj) -->
             0    6.176104    0.756334
             1    6.263084    0.786397
             2    3.737592    0.906929
             3   -9.272327   -2.535859
 pspatm: atomic psp has been read  and splines computed

- pspini: atom type   2  psp file is ../../../Psps_for_tests/ONCVPSP-PBE-PDv0.4/I.psp8
- pspatm: opening atomic psp file    ../../../Psps_for_tests/ONCVPSP-PBE-PDv0.4/I.psp8
- I     ONCVPSP-3.2.3.1  r_core=   2.02042   2.17032   2.27639
- 53.00000   7.00000    170510                znucl, zion, pspdat
    8   32    2    4       600   0.00000      pspcod,pspxc,lmax,lloc,mmax,r2well
    5.99000000000000    4.00000000000000    0.00000000000000   rchrg,fchrg,qchrg
     nproj     2     2     2
     extension_switch     1
  pspatm : epsatm=   19.17050482
         --- l  ekb(1:nproj) -->
             0    5.955518    0.916455
             1    4.011347    0.742302
             2    4.134838    0.711910
 pspatm: atomic psp has been read  and splines computed

- pspini: atom type   3  psp file is ../../../Psps_for_tests/ONCVPSP-PBE-PDv0.4/Hf-sp.psp8
- pspatm: opening atomic psp file    ../../../Psps_for_tests/ONCVPSP-PBE-PDv0.4/Hf-sp.psp8
- Hf    ONCVPSP-3.2.3.1  r_core=   1.71613   1.71613   1.71613   2.42541
- 72.00000  12.00000    170501                znucl, zion, pspdat
    8   32    3    4       600   0.00000      pspcod,pspxc,lmax,lloc,mmax,r2well
    5.99000000000000    5.40000000000000    0.00000000000000   rchrg,fchrg,qchrg
     nproj     2     2     2     2
     extension_switch     1
  pspatm : epsatm=   21.94432712
         --- l  ekb(1:nproj) -->
             0    5.751490   -0.631383
             1   -2.986358    2.305386
             2    1.422276    0.146986
             3    8.827595    0.343102
 pspatm: atomic psp has been read  and splines computed

- pspini: atom type   4  psp file is ../../../Psps_for_tests/ONCVPSP-PBE-PDv0.4/Cl.psp8
[...]
     extension_switch     1
  pspatm : epsatm=    9.12776994
         --- l  ekb(1:nproj) -->
             0    8.139296    0.698720
             1    3.821713    1.107519
             2   -2.938609   -0.805455
 pspatm: atomic psp has been read  and splines computed

   1.17010912E+04                                ecore*ucvol(ha*bohr**3)

_setup2: Arith. and geom. avg. npw (full set) are   11633.375   11633.291

--- !BeginCycle
iteration_state: {dtset: 1, }
solver: {iscf: 17, nstep: 2500, nline: 4, wfoptalg: 0, }
tolerances: {toldfe: 1.00E-08, }
...

     iter   Etot(hartree)      deltaE(h)  residm     nres2
 ETOT  1  -182.99206685847    -1.830E+02 1.296E-02 4.227E+00
 ETOT  2  -188.22699490797    -5.235E+00 6.615E-03 2.894E+00
 ETOT  3  -188.23119507416    -4.200E-03 2.645E-03 9.826E-01
 ETOT  4  -188.21567290577     1.552E-02 3.605E-03 7.352E-02
 ETOT  5  -188.21668750406    -1.015E-03 1.463E-03 3.209E-02
 ETOT  6  -188.21675053741    -6.303E-05 1.452E-03 3.890E-03
 ETOT  7  -188.21673579363     1.474E-05 1.262E-03 2.250E-04
 ETOT  8  -188.21674872863    -1.293E-05 9.255E-04 1.181E-04
 ETOT  9  -188.21674851352     2.151E-07 7.917E-04 5.619E-06
 ETOT 10  -188.21674885529    -3.418E-07 4.967E-04 5.763E-06
 ETOT 11  -188.21674877917     7.612E-08 3.117E-04 4.111E-07
 ETOT 12  -188.21674880332    -2.414E-08 2.188E-04 2.587E-08
 ETOT 13  -188.21674880523    -1.914E-09 1.232E-04 9.519E-09
 ETOT 14  -188.21674880797    -2.740E-09 6.584E-05 1.259E-09

 At SCF step   14, etot is converged :
  for the second time, diff in etot=  2.740E-09 < toldfe=  1.000E-08

 Cartesian components of stress tensor (hartree/bohr^3)
  sigma(1 1)=  2.58791565E-05  sigma(3 2)=  3.05465180E-14
  sigma(2 2)=  3.12814159E-05  sigma(3 1)= -5.78083979E-14
  sigma(3 3)=  2.58791565E-05  sigma(2 1)=  3.05465495E-14

--- !ResultsGS
iteration_state: {dtset: 1, }
comment   : Summary of ground state results
lattice_vectors:
- [  0.0000000,  10.6818414,  11.2889151, ]
- [ 11.2889151,   0.0000000,  11.2889151, ]
- [ 11.2889151,  10.6818414,   0.0000000, ]
lattice_lengths: [  15.54160,   15.96494,   15.54160, ]
lattice_angles: [ 59.095,  61.810,  59.095, ] # degrees, (23, 13, 12)
lattice_volume:   2.7225793E+03
convergence: {deltae: -2.740E-09, res2:  1.259E-09, residm:  6.584E-05, diffor: null, }
etotal    :  -1.88216749E+02
entropy   :   0.00000000E+00
fermie    :   6.64192853E-03
cartesian_stress_tensor: # hartree/bohr^3
- [  2.58791565E-05,   3.05465495E-14,  -5.78083979E-14, ]
- [  3.05465495E-14,   3.12814159E-05,   3.05465180E-14, ]
- [ -5.78083979E-14,   3.05465180E-14,   2.58791565E-05, ]
pressure_GPa:  -8.1437E-01
xred      :
- [  2.5000E-01,   2.5000E-01,   2.5000E-01, Cs]
- [  7.5000E-01,   7.5000E-01,   7.5000E-01, Cs]
- [  7.8526E-01,   2.1474E-01,   7.8526E-01, Cl]
- [  2.4173E-01,   2.4173E-01,   7.5827E-01,  I]
- [  7.5827E-01,   7.5827E-01,   2.4173E-01,  I]
- [  2.1474E-01,   7.8526E-01,   2.1474E-01, Cl]
- [  2.4173E-01,   7.5827E-01,   7.5827E-01,  I]
- [  7.5827E-01,   2.4173E-01,   2.4173E-01,  I]
- [  7.7188E-21,  -2.1453E-20,  -1.9139E-20, Hf]
cartesian_forces: # hartree/bohr
- [  4.81867618E-20,   1.14417892E-19,  -8.69109786E-20, ]
- [  4.81867635E-20,   1.14417893E-19,  -8.69109792E-20, ]
- [  1.52546857E-19,   3.22570180E-03,  -1.91271072E-19, ]
- [  3.24851697E-14,  -3.43312362E-14,  -1.80323510E-03, ]
- [ -3.24849649E-14,   3.43312482E-14,   1.80323510E-03, ]
- [ -3.63505517E-19,  -3.22570180E-03,   3.24781301E-19, ]
- [  1.80323510E-03,   3.43310858E-14,  -3.24849463E-14, ]
- [ -1.80323510E-03,  -3.43310193E-14,   3.24849261E-14, ]
- [  4.81867632E-20,   1.14417892E-19,  -8.69109786E-20, ]
force_length_stats: {min:   1.51548462E-19, max:   3.22570180E-03, mean:   1.51826044E-03, }
...

 Integrated electronic density in atomic spheres:
 Atom  Sphere_radius  Integrated_density
    1        2.00000          4.48772862
    2        2.00000          4.48772862
    3        2.00000          5.09126510
    4        2.00000          2.88585035
    5        2.00000          2.88585035
    6        2.00000          5.09126510
    7        2.00000          2.88585035
    8        2.00000          2.88585035
    9        2.00000          8.23083251

 ----iterations are completed or convergence reached----

 Mean square residual over all n,k,spin=   95.213E-08; max=  65.844E-06
 reduced coordinates (array xred) for    9 atoms
       0.250000000000      0.250000000000      0.250000000000
       0.750000000000      0.750000000000      0.750000000000
       0.785256165770      0.214743834230      0.785256165770
       0.241727740400      0.241727740400      0.758272259600
       0.758272259600      0.758272259600      0.241727740400
       0.214743834230      0.785256165770      0.214743834230
       0.241727740400      0.758272259600      0.758272259600
       0.758272259600      0.241727740400      0.241727740400
       0.000000000000     -0.000000000000     -0.000000000000
 rms dE/dt=  1.7282E-02; max dE/dt=  3.4456E-02; dE/dt below (all hartree)
    1       0.000000000000      0.000000000000      0.000000000000
    2       0.000000000000      0.000000000000     -0.000000000000
    3      -0.034456434892      0.000000000000     -0.034456434892
    4       0.020356567917      0.020356567917      0.000000000000
    5      -0.020356567917     -0.020356567917      0.000000000000
    6       0.034456434892      0.000000000000      0.034456434892
    7      -0.000000000000     -0.020356567917     -0.020356567917
    8       0.000000000000      0.020356567917      0.020356567917
    9       0.000000000000      0.000000000000      0.000000000000

 cartesian coordinates (angstrom) at end:
    1      2.98691828374529     2.82629349843484     2.98691828374529
    2      8.96075485123588     8.47888049530453     8.96075485123588
    3      5.97383656742919     8.87745758368650     5.97383656742919
    4      5.97383656743500     5.65258699686969     2.88808402995678
    5      5.97383656754618     5.65258699686969     9.05958910502440
    6      5.97383656755199     2.42771641005287     5.97383656755199
    7      9.05958910502440     5.65258699686969     5.97383656754618
    8      2.88808402995678     5.65258699686969     5.97383656743500
    9     -0.00000000000000    -0.00000000000000    -0.00000000000000

 cartesian forces (hartree/bohr) at end:
    1      0.00000000000000     0.00000000000000    -0.00000000000000
    2      0.00000000000000     0.00000000000000    -0.00000000000000
    3      0.00000000000000     0.00322570179713    -0.00000000000000
    4      0.00000000000003    -0.00000000000003    -0.00180323510108
    5     -0.00000000000003     0.00000000000003     0.00180323510108
    6     -0.00000000000000    -0.00322570179713     0.00000000000000
    7      0.00180323510108     0.00000000000003    -0.00000000000003
    8     -0.00180323510108    -0.00000000000003     0.00000000000003
    9      0.00000000000000     0.00000000000000    -0.00000000000000
 frms,max,avg= 1.1191421E-03 3.2257018E-03   0.000E+00  0.000E+00  0.000E+00 h/b

 cartesian forces (eV/Angstrom) at end:
    1      0.00000000000000     0.00000000000000    -0.00000000000000
    2      0.00000000000000     0.00000000000000    -0.00000000000000
    3      0.00000000000000     0.16587224165147    -0.00000000000000
    4      0.00000000000167    -0.00000000000177    -0.09272606931820
    5     -0.00000000000167     0.00000000000177     0.09272606931820
    6     -0.00000000000000    -0.16587224165147     0.00000000000000
    7      0.09272606931820     0.00000000000177    -0.00000000000167
    8     -0.09272606931820    -0.00000000000177     0.00000000000167
    9      0.00000000000000     0.00000000000000    -0.00000000000000
 frms,max,avg= 5.7548594E-02 1.6587224E-01   0.000E+00  0.000E+00  0.000E+00 e/A
 length scales= 15.541600257000 15.964936804000 15.541600257000 bohr
              =  8.224260641021  8.448280693256  8.224260641021 angstroms
 prteigrs : about to open file Cs2TiI6o_EIG
 Fermi (or HOMO) energy (hartree) =   0.00664   Average Vxc (hartree)=  -0.23431
 Eigenvalues (hartree) for nkpt=   4  k points:
 kpt#   1, nband= 42, wtk=  0.12500, kpt=  0.0000  0.0000  0.0000 (reduced coord)
  -2.41970   -1.20654   -1.20532   -1.20532   -0.79900   -0.79885   -0.57209   -0.55960
  -0.44804   -0.43507   -0.43507   -0.43163   -0.28109   -0.27930   -0.27930   -0.27804
  -0.27804   -0.27800   -0.16281   -0.11089   -0.11089   -0.10481   -0.10350   -0.10038
  -0.10038   -0.07548   -0.06227   -0.04957   -0.04957   -0.02595   -0.02056   -0.01668
  -0.01668   -0.00635   -0.00635    0.00664    0.12472    0.14236    0.14236    0.18855
   0.19644    0.21058
 prteigrs : prtvol=0 or 1, do not print more k-points.

--- !EnergyTerms
iteration_state     : {dtset: 1, }
comment             : Components of total free energy in Hartree
kinetic             :  4.81773734476377E+01
hartree             :  4.33059368800142E+01
xc                  : -4.78012769482684E+01
Ewald energy        : -1.11935402402956E+02
psp_core            :  4.29779635608357E+00
local_psp           : -1.40681410696188E+02
non_local_psp+x     :  1.64202121352922E+01
total_energy        : -1.88216771228385E+02
...

--- !EnergyTermsDC
iteration_state     : {dtset: 1, }
comment             : '"Double-counting" decomposition of free energy'
band_energy         : -2.67183618651243E+01
Ewald energy        : -1.11935402402956E+02
psp_core            :  4.29779635608357E+00
xc_dc               : -5.38607808959755E+01
total_energy_dc     : -1.88216748807973E+02
...

 Cartesian components of stress tensor (hartree/bohr^3)
  sigma(1 1)=  2.58791565E-05  sigma(3 2)=  3.05465180E-14
  sigma(2 2)=  3.12814159E-05  sigma(3 1)= -5.78083979E-14
  sigma(3 3)=  2.58791565E-05  sigma(2 1)=  3.05465495E-14

-Cartesian components of stress tensor (GPa)         [Pressure= -8.1437E-01 GPa]
- sigma(1 1)=  7.61390942E-01  sigma(3 2)=  8.98709436E-10
- sigma(2 2)=  9.20330877E-01  sigma(3 1)= -1.70078150E-09
- sigma(3 3)=  7.61390942E-01  sigma(2 1)=  8.98710362E-10

== END DATASET(S) ==============================================================

 -outvars: echo values of variables after computation  --------
            acell      1.5541600257E+01  1.5964936804E+01  1.5541600257E+01 Bohr
              amu      1.32905430E+02  1.26904470E+02  1.78490000E+02
                       3.54527000E+01
           diemac      1.20000000E+01
             ecut      2.00000000E+01 Hartree
           etotal     -1.8821674881E+02
            fcart      4.8186761790E-20  1.1441789223E-19 -8.6910978612E-20
                       4.8186763508E-20  1.1441789283E-19 -8.6910979184E-20
                       1.5254685665E-19  3.2257017971E-03 -1.9127107204E-19
                       3.2485169652E-14 -3.4331236167E-14 -1.8032351011E-03
                      -3.2484964858E-14  3.4331248163E-14  1.8032351011E-03
                      -3.6350551659E-19 -3.2257017971E-03  3.2478130120E-19
                       1.8032351011E-03  3.4331085764E-14 -3.2484946290E-14
                      -1.8032351011E-03 -3.4331019327E-14  3.2484926134E-14
                       4.8186763222E-20  1.1441789223E-19 -8.6910978612E-20
-          fftalg         112
             iscf          17
           istwfk        1    1    1    1
              ixc        -428
              kpt      0.00000000E+00  0.00000000E+00  0.00000000E+00
                       5.00000000E-01  0.00000000E+00  0.00000000E+00
                       5.00000000E-01  5.00000000E-01  0.00000000E+00
                       5.00000000E-01  0.00000000E+00  5.00000000E-01
         kptns_hf      0.00000000E+00  0.00000000E+00  0.00000000E+00
                       5.00000000E-01  0.00000000E+00  0.00000000E+00
                       0.00000000E+00  5.00000000E-01  0.00000000E+00
                       5.00000000E-01  5.00000000E-01  0.00000000E+00
                       0.00000000E+00  0.00000000E+00  5.00000000E-01
                       5.00000000E-01  0.00000000E+00  5.00000000E-01
                       0.00000000E+00  5.00000000E-01  5.00000000E-01
                       5.00000000E-01  5.00000000E-01  5.00000000E-01
         kptrlatt        2    0    0      0    2    0      0    0    2
          kptrlen      3.10832005E+01
P           mkmem           1
            natom           9
            nband          42
          nbandhf          36
            ngfft          72      72      72
             nkpt           4
           nkpthf           8
-           npkpt           4
            nstep        2500
             nsym          16
           ntypat           4
              occ      2.000000  2.000000  2.000000  2.000000  2.000000  2.000000
                       2.000000  2.000000  2.000000  2.000000  2.000000  2.000000
                       2.000000  2.000000  2.000000  2.000000  2.000000  2.000000
                       2.000000  2.000000  2.000000  2.000000  2.000000  2.000000
                       2.000000  2.000000  2.000000  2.000000  2.000000  2.000000
                       2.000000  2.000000  2.000000  2.000000  2.000000  2.000000
                       0.000000  0.000000  0.000000  0.000000  0.000000  0.000000
            rprim      0.0000000000E+00  6.8730640280E-01  7.2636761262E-01
                       7.0710678119E-01  0.0000000000E+00  7.0710678119E-01
                       7.2636761262E-01  6.8730640280E-01  0.0000000000E+00
          spgroup         139
           strten      2.5879156472E-05  3.1281415947E-05  2.5879156472E-05
                       3.0546517990E-14 -5.7808397855E-14  3.0546549462E-14
           symrel      1  0  0   0  1  0   0  0  1      -1  0  0   0 -1  0   0  0 -1
                       0  0 -1   0 -1  0  -1  0  0       0  0  1   0  1  0   1  0  0
                       0 -1  1   0 -1  0   1 -1  0       0  1 -1   0  1  0  -1  1  0
                      -1  1  0   0  1  0   0  1 -1       1 -1  0   0 -1  0   0 -1  1
                       0 -1  1  -1  0  1   0  0  1       0  1 -1   1  0 -1   0  0 -1
                       0  0 -1   1  0 -1   0  1 -1       0  0  1  -1  0  1   0 -1  1
                       1  0  0   1  0 -1   1 -1  0      -1  0  0  -1  0  1  -1  1  0
                      -1  1  0  -1  0  1  -1  0  0       1 -1  0   1  0 -1   1  0  0
           toldfe      1.00000000E-08 Hartree
            typat      1  1  4  2  2  4  2  2  3
          usefock           1
              wtk        0.12500    0.50000    0.25000    0.12500
           xangst      2.9869182837E+00  2.8262934984E+00  2.9869182837E+00
                       8.9607548512E+00  8.4788804953E+00  8.9607548512E+00
                       5.9738365674E+00  8.8774575837E+00  5.9738365674E+00
                       5.9738365674E+00  5.6525869969E+00  2.8880840300E+00
                       5.9738365675E+00  5.6525869969E+00  9.0595891050E+00
                       5.9738365676E+00  2.4277164101E+00  5.9738365676E+00
                       9.0595891050E+00  5.6525869969E+00  5.9738365675E+00
                       2.8880840300E+00  5.6525869969E+00  5.9738365674E+00
                      -2.4249030835E-19 -6.4554112567E-20 -8.2045720338E-20
            xcart      5.6444575376E+00  5.3409206832E+00  5.6444575376E+00
                       1.6933372613E+01  1.6022762050E+01  1.6933372613E+01
                       1.1288915075E+01  1.6775963589E+01  1.1288915075E+01
                       1.1288915075E+01  1.0681841366E+01  5.4576878654E+00
                       1.1288915075E+01  1.0681841366E+01  1.7120142285E+01
                       1.1288915075E+01  4.5877191433E+00  1.1288915075E+01
                       1.7120142285E+01  1.0681841366E+01  1.1288915075E+01
                       5.4576878654E+00  1.0681841366E+01  1.1288915075E+01
                      -4.5824027266E-19 -1.2198959350E-19 -1.5504394181E-19
             xred      2.5000000000E-01  2.5000000000E-01  2.5000000000E-01
                       7.5000000000E-01  7.5000000000E-01  7.5000000000E-01
                       7.8525616577E-01  2.1474383423E-01  7.8525616577E-01
                       2.4172774040E-01  2.4172774040E-01  7.5827225960E-01
                       7.5827225960E-01  7.5827225960E-01  2.4172774040E-01
                       2.1474383423E-01  7.8525616577E-01  2.1474383423E-01
                       2.4172774040E-01  7.5827225960E-01  7.5827225960E-01
                       7.5827225960E-01  2.4172774040E-01  2.4172774040E-01
                       7.7188014048E-21 -2.1452976990E-20 -1.9139078988E-20
            znucl       55.00000   53.00000   72.00000   17.00000

- Timing analysis has been suppressed with timopt=0

 Suggested references for the acknowledgment of ABINIT usage.

 Calculation completed.
.Delivered   0 WARNINGs and   2 COMMENTs to log file.