.Version 9.2.2 of ABINIT

 ABINIT is a project of the Universite Catholique de Louvain,
 Corning Inc. and other collaborators, see ~abinit/doc/developers/contributors.txt .
 acknowledgments of the ABINIT effort.

.Starting date : Sat 12 Nov 2022.
- ( at 23h48 )

- input  file    -> Cs2TiI6.in
- output file    -> Cs2TiI6.out
- root for input  files -> Cs2TiI6i
- root for output files -> Cs2TiI6o

- inpspheads : Reading pseudopotential header in XML form from
-   ../../../Psps_for_tests/ATOMICDATA/Cs.GGA_PBE-JTH.xml
- inpspheads : Reading pseudopotential header in XML form from
-   ../../../Psps_for_tests/ATOMICDATA/I.GGA_PBE-JTH.xml
- inpspheads : Reading pseudopotential header in XML form from
-   ../../../Psps_for_tests/ATOMICDATA/Hf.GGA_PBE-JTH.xml
- inpspheads : Reading pseudopotential header in XML form from
-   ../../../Psps_for_tests/ATOMICDATA/Br.GGA_PBE-JTH.xml

 DATASET    1 : space group I4 m m (#107); Bravais tI (body-center tetrag.)
     intxc =       0    ionmov =       2      iscf =      17    lmnmax =      18
     lnmax =       6     mgfft =      64  mpssoang =       3    mqgrid =    3950
     natom =       9  nloc_mem =       2    nspden =       1   nspinor =       1
    nsppol =       1      nsym =       8    n1xccc =       1    ntypat =       4
    occopt =       1   xclevel =       2
-    mband =          42        mffmem =           1         mkmem =           4
       mpw =       10638          nfft =      262144          nkpt =          20
Pmy_natom=         2
 PAW method is used; the additional fine FFT grid is defined by:
   mgfftf=       100    nfftf =   1000000
  Rough estimation (10% accuracy) of disk space for files :

[...]

 DATASET   10 : space group I4 m m (#107); Bravais tI (body-center tetrag.)
     intxc =       0    ionmov =       2      iscf =      17    lmnmax =      18
     lnmax =       6     mgfft =      64  mpssoang =       3    mqgrid =    3915
     natom =       9  nloc_mem =       2    nspden =       1   nspinor =       1
    nsppol =       1      nsym =       8    n1xccc =       1    ntypat =       4
    occopt =       1   xclevel =       2
-    mband =          42        mffmem =           1         mkmem =           4
       mpw =       10341          nfft =      262144          nkpt =          20
Pmy_natom=         2
 PAW method is used; the additional fine FFT grid is defined by:
   mgfftf=       100    nfftf =   1000000
  Rough estimation (10% accuracy) of disk space for files :

------------- Echo of variables that govern the present computation ------------
-
- outvars: echo of selected default values
-   iomode0 =  0 , fftalg0 =112 , wfoptalg0 = 10
-
- outvars: echo of global parameters not present in the input file
-  max_nthreads =    0
-
 -outvars: echo values of preprocessed input variables --------
            acell1     1.4756645788E+01  1.4812882053E+01  1.4756645788E+01 Bohr
            acell2     1.4741874371E+01  1.4798054343E+01  1.4741874371E+01 Bohr
            acell3     1.4727102953E+01  1.4783226634E+01  1.4727102953E+01 Bohr
            acell4     1.4712331536E+01  1.4768398924E+01  1.4712331536E+01 Bohr
            acell5     1.4697560119E+01  1.4753571214E+01  1.4697560119E+01 Bohr
            acell6     1.4682788702E+01  1.4738743504E+01  1.4682788702E+01 Bohr
            acell7     1.4668017285E+01  1.4723915795E+01  1.4668017285E+01 Bohr
            acell8     1.4653245867E+01  1.4709088085E+01  1.4653245867E+01 Bohr
            acell9     1.4638474450E+01  1.4694260375E+01  1.4638474450E+01 Bohr
            acell10    1.4623703033E+01  1.4679432665E+01  1.4623703033E+01 Bohr
              amu      1.32905430E+02  1.26904470E+02  1.78490000E+02
                       7.99040000E+01
           diemac      1.20000000E+01
          dilatmx      1.15000000E+00
             ecut      1.60000000E+01 Hartree
           ecutsm      5.00000000E-01 Hartree
-          fftalg         112
          getxred1          0
          getxred2         -1
          getxred3         -1
          getxred4         -1
          getxred5         -1
          getxred6         -1
          getxred7         -1
          getxred8         -1
          getxred9         -1
          getxred10        -1
           ionmov           2
              ixc     -101130
           jdtset        1    2    3    4    5    6    7    8    9   10
              kpt      0.00000000E+00 -1.25000000E-01  0.00000000E+00
                       0.00000000E+00 -3.75000000E-01  0.00000000E+00
                       1.25000000E-01 -2.50000000E-01  0.00000000E+00
                       1.25000000E-01 -1.25000000E-01  1.25000000E-01
                       1.25000000E-01  5.00000000E-01  0.00000000E+00
                       2.50000000E-01 -3.75000000E-01  0.00000000E+00
                       1.25000000E-01 -3.75000000E-01  1.25000000E-01
                       2.50000000E-01 -2.50000000E-01  1.25000000E-01
                       2.50000000E-01 -1.25000000E-01  2.50000000E-01
                       1.25000000E-01  2.50000000E-01  0.00000000E+00
                       2.50000000E-01  3.75000000E-01  0.00000000E+00
                       3.75000000E-01  5.00000000E-01  0.00000000E+00
                       1.25000000E-01  3.75000000E-01  1.25000000E-01
                       2.50000000E-01  5.00000000E-01  1.25000000E-01
                       3.75000000E-01 -3.75000000E-01  1.25000000E-01
                       2.50000000E-01 -3.75000000E-01  2.50000000E-01
                       3.75000000E-01 -2.50000000E-01  2.50000000E-01
                       3.75000000E-01 -1.25000000E-01  3.75000000E-01
                       5.00000000E-01  2.50000000E-01  1.25000000E-01
                      -3.75000000E-01  3.75000000E-01  1.25000000E-01
         kptrlatt        4    4   -4     -4    4    4      4   -4    4
          kptrlen1     8.31568571E+01
          kptrlen2     8.30736170E+01
          kptrlen3     8.29903769E+01
          kptrlen4     8.29071368E+01
          kptrlen5     8.28238967E+01
          kptrlen6     8.27406566E+01
          kptrlen7     8.26574165E+01
          kptrlen8     8.25741764E+01
          kptrlen9     8.24909363E+01
          kptrlen10    8.24076962E+01
P           mkmem           4
            natom           9
            nband          42
           ndtset          10
            ngfft          64      64      64
          ngfftdg         100     100     100
             nkpt          20
            nstep        2500
             nsym           8
            ntime        1000
           ntypat           4
              occ      2.000000  2.000000  2.000000  2.000000  2.000000  2.000000
                       2.000000  2.000000  2.000000  2.000000  2.000000  2.000000
                       2.000000  2.000000  2.000000  2.000000  2.000000  2.000000
                       2.000000  2.000000  2.000000  2.000000  2.000000  2.000000
                       2.000000  2.000000  2.000000  2.000000  2.000000  2.000000
                       2.000000  2.000000  2.000000  2.000000  2.000000  2.000000
                       0.000000  0.000000  0.000000  0.000000  0.000000  0.000000
          optcell           3
        optforces           1
        pawecutdg      4.00000000E+01 Hartree
            prtwf           0
            rprim      0.0000000000E+00  7.0440175136E-01  7.0980150231E-01
                       7.0710678119E-01  0.0000000000E+00  7.0710678119E-01
                       7.0980150231E-01  7.0440175136E-01  0.0000000000E+00
           shiftk     -5.00000000E-01  5.00000000E-01  5.00000000E-01
          spgroup         107
           symrel      1  0  0   0  1  0   0  0  1       0  0  1   0  1  0   1  0  0
                       0 -1  1   0 -1  0   1 -1  0       1 -1  0   0 -1  0   0 -1  1
                       0 -1  1  -1  0  1   0  0  1       0  0  1  -1  0  1   0 -1  1
                       1  0  0   1  0 -1   1 -1  0       1 -1  0   1  0 -1   1  0  0
           toldff      1.00000000E-08
           tolmxf      1.00000000E-05
            typat      1  1  2  4  4  4  4  4  3
           useylm           1
              wtk        0.03125    0.03125    0.06250    0.03125    0.06250    0.06250
                         0.03125    0.06250    0.03125    0.06250    0.06250    0.06250
                         0.03125    0.06250    0.06250    0.03125    0.06250    0.03125
                         0.06250    0.06250
           xangst1     2.7713775998E+00  2.7502945946E+00  2.7713775998E+00
                       8.3141327995E+00  8.2508837838E+00  8.3141327995E+00
                       5.5427551997E+00  8.1456036252E+00  5.5427551997E+00
                       5.5427551997E+00  5.5005891892E+00  2.6070291249E+00
                       5.5427551996E+00  5.5005891892E+00  8.4784812745E+00
                       5.5427551996E+00  2.8555747532E+00  5.5427551996E+00
                       8.4784812745E+00  5.5005891892E+00  5.5427551996E+00
                       2.6070291249E+00  5.5005891892E+00  5.5427551997E+00
                       3.2269008200E-21 -3.8885797502E-23  4.6847733666E-22
           xangst2     2.7686034481E+00  2.7475415470E+00  2.7686034481E+00
                       8.3058103443E+00  8.2426246409E+00  8.3058103443E+00
                       5.5372068962E+00  8.1374498678E+00  5.5372068962E+00
                       5.5372068962E+00  5.4950830939E+00  2.6044194861E+00
                       5.5372068961E+00  5.4950830939E+00  8.4699943063E+00
                       5.5372068961E+00  2.8527163200E+00  5.5372068961E+00
                       8.4699943063E+00  5.4950830939E+00  5.5372068961E+00
                       2.6044194861E+00  5.4950830939E+00  5.5372068962E+00
                       3.2236706890E-21 -3.8846872780E-23  4.6800839038E-22
           xangst3     2.7658292963E+00  2.7447884993E+00  2.7658292963E+00
                       8.2974878890E+00  8.2343654980E+00  8.2974878890E+00
                       5.5316585927E+00  8.1292961105E+00  5.5316585927E+00
                       5.5316585927E+00  5.4895769986E+00  2.6018098473E+00
                       5.5316585926E+00  5.4895769986E+00  8.4615073380E+00
                       5.5316585926E+00  2.8498578868E+00  5.5316585926E+00
                       8.4615073380E+00  5.4895769986E+00  5.5316585926E+00
                       2.6018098473E+00  5.4895769986E+00  5.5316585927E+00
                       3.2204405581E-21 -3.8807948058E-23  4.6753944410E-22
           xangst4     2.7630551446E+00  2.7420354517E+00  2.7630551446E+00
                       8.2891654338E+00  8.2261063550E+00  8.2891654338E+00
                       5.5261102892E+00  8.1211423531E+00  5.5261102892E+00
                       5.5261102892E+00  5.4840709034E+00  2.5992002086E+00
                       5.5261102891E+00  5.4840709034E+00  8.4530203698E+00
                       5.5261102891E+00  2.8469994536E+00  5.5261102891E+00
                       8.4530203698E+00  5.4840709034E+00  5.5261102891E+00
                       2.5992002086E+00  5.4840709034E+00  5.5261102892E+00
                       3.2172104271E-21 -3.8769023335E-23  4.6707049782E-22
[...]
                       1.1376354137E-12  5.6107536594E-02  1.1367134857E-12
           xangst7     2.7509169515E+00  2.7676542195E+00  2.7509169515E+00
                       8.2527508545E+00  8.2503852061E+00  8.2527508545E+00
                       5.5018339031E+00  8.1518507333E+00  5.5018339031E+00
                       5.5018339031E+00  5.4923476590E+00  2.6144513140E+00
                       5.5018339030E+00  5.4923476590E+00  8.3892164920E+00
                       5.5018339030E+00  2.6663869119E+00  5.5018339030E+00
                       8.3892164920E+00  5.4923476590E+00  5.5018339030E+00
                       2.6144513140E+00  5.4923476590E+00  5.5018339031E+00
                       1.1386494856E-12  5.6180185972E-02  1.1386591177E-12
           xangst8     2.7478800887E+00  2.7659706405E+00  2.7478800887E+00
                       8.2436402661E+00  8.2442429138E+00  8.2436402661E+00
                       5.4957601775E+00  8.1436710766E+00  5.4957601775E+00
                       5.4957601775E+00  5.4875601209E+00  2.6140969743E+00
                       5.4957601773E+00  5.4875601209E+00  8.3774233805E+00
                       5.4957601773E+00  2.6659956145E+00  5.4957601773E+00
                       8.3774233805E+00  5.4875601209E+00  5.4957601773E+00
                       2.6140969743E+00  5.4875601209E+00  5.4957601775E+00
                       1.1352356999E-12  5.6057457489E-02  1.1352405093E-12
           xangst9     2.7451780283E+00  2.7626341768E+00  2.7451780283E+00
                       8.2355340849E+00  8.2351129535E+00  8.2355340849E+00
                       5.4903560566E+00  8.1331873698E+00  5.4903560566E+00
                       5.4903560566E+00  5.4817016402E+00  2.6137253914E+00
                       5.4903560565E+00  5.4817016402E+00  8.3669867218E+00
                       5.4903560565E+00  2.6659048121E+00  5.4903560565E+00
                       8.3669867218E+00  5.4817016402E+00  5.4903560565E+00
                       2.6137253914E+00  5.4817016402E+00  5.4903560566E+00
                       1.1364777183E-12  5.6184341390E-02  1.1364873058E-12
           xangst10    2.7423197356E+00  2.7600901124E+00  2.7423197356E+00
                       8.2269592069E+00  8.2273983138E+00  8.2269592069E+00
                       5.4846394713E+00  8.1238146485E+00  5.4846394713E+00
                       5.4846394713E+00  5.4763772489E+00  2.6134059664E+00
                       5.4846394712E+00  5.4763772489E+00  8.3558729762E+00
                       5.4846394712E+00  2.6655120369E+00  5.4846394712E+00
                       8.3558729762E+00  5.4763772489E+00  5.4846394712E+00
                       2.6134059664E+00  5.4763772489E+00  5.4846394713E+00
                       1.1360113517E-12  5.6141503731E-02  1.1354119488E-12
            xcart1     5.2294233681E+00  5.2644225406E+00  5.2294233681E+00
                       1.5688270104E+01  1.5689747863E+01  1.5688270104E+01
                       1.0458846736E+01  1.5522615326E+01  1.0458846736E+01
                       1.0458846736E+01  1.0445002687E+01  4.9444060235E+00
                       1.0458846736E+01  1.0445002687E+01  1.5973287449E+01
                       1.0458846736E+01  5.0406485750E+00  1.0458846736E+01
                       1.5973287449E+01  1.0445002687E+01  1.0458846736E+01
                       4.9444060235E+00  1.0445002687E+01  1.0458846736E+01
                       2.1264315579E-12  1.0515752900E-01  2.1272933603E-12
            xcart2     5.2244103132E+00  5.2583419222E+00  5.2244103132E+00
                       1.5673230940E+01  1.5672347969E+01  1.5673230940E+01
                       1.0448820626E+01  1.5501738382E+01  1.0448820626E+01
                       1.0448820626E+01  1.0433493764E+01  4.9436592160E+00
                       1.0448820626E+01  1.0433493764E+01  1.5953982037E+01
                       1.0448820626E+01  5.0403444442E+00  1.0448820626E+01
                       1.5953982037E+01  1.0433493764E+01  1.0448820626E+01
                       4.9436592160E+00  1.0433493764E+01  1.0448820626E+01
                       2.1338321382E-12  1.0530059806E-01  2.1326720861E-12
            xcart3     5.2190546195E+00  5.2532480933E+00  5.2190546195E+00
                       1.5657163858E+01  1.5657300925E+01  1.5657163858E+01
                       1.0438109239E+01  1.5483579633E+01  1.0438109239E+01
                       1.0438109239E+01  1.0423203198E+01  4.9430795254E+00
                       1.0438109239E+01  1.0423203198E+01  1.5933138953E+01
                       1.0438109239E+01  5.0400351938E+00  1.0438109239E+01
                       1.5933138953E+01  1.0423203198E+01  1.0438109239E+01
                       4.9430795254E+00  1.0423203198E+01  1.0438109239E+01
                       2.1345861803E-12  1.0544601723E-01  2.1360257572E-12
            xcart4     5.2138835527E+00  5.2473117289E+00  5.2138835527E+00
                       1.5641650658E+01  1.5640675269E+01  1.5641650658E+01
                       1.0427767105E+01  1.5464120097E+01  1.0427767105E+01
                       1.0427767106E+01  1.0412314869E+01  4.9424389916E+00
                       1.0427767105E+01  1.0412314869E+01  1.5913095219E+01
                       1.0427767105E+01  5.0398656503E+00  1.0427767105E+01
                       1.5913095219E+01  1.0412314869E+01  1.0427767105E+01
                       4.9424389916E+00  1.0412314869E+01  1.0427767106E+01
                       2.1399193779E-12  1.0567610284E-01  2.1399193779E-12
            xcart5     5.2085232534E+00  5.2429744228E+00  5.2085232534E+00
                       1.5625569760E+01  1.5626403127E+01  1.5625569760E+01
                       1.0417046507E+01  1.5445707994E+01  1.0417046507E+01
                       1.0417046507E+01  1.0401974649E+01  4.9418801193E+00
                       1.0417046507E+01  1.0401974649E+01  1.5892212894E+01
                       1.0417046507E+01  5.0390167395E+00  1.0417046507E+01
                       1.5892212894E+01  1.0401974649E+01  1.0417046507E+01
                       4.9418801193E+00  1.0401974649E+01  1.0417046507E+01
                       2.1344934060E-12  1.0542875496E-01  2.1344663172E-12
            xcart6     5.2036528160E+00  5.2353976375E+00  5.2036528160E+00
                       1.5610958448E+01  1.5606938552E+01  1.5610958448E+01
                       1.0407305632E+01  1.5424298970E+01  1.0407305632E+01
                       1.0407305632E+01  1.0390147917E+01  4.9412451439E+00
                       1.0407305632E+01  1.0390147917E+01  1.5873366120E+01
                       1.0407305632E+01  5.0390726136E+00  1.0407305632E+01
                       1.5873366120E+01  1.0390147917E+01  1.0407305632E+01
                       4.9412451439E+00  1.0390147917E+01  1.0407305632E+01
                       2.1498193710E-12  1.0602787815E-01  2.1480771795E-12
            xcart7     5.1984796527E+00  5.2301085054E+00  5.1984796527E+00
                       1.5595438958E+01  1.5590968530E+01  1.5595438958E+01
                       1.0396959305E+01  1.5404765362E+01  1.0396959305E+01
                       1.0396959305E+01  1.0379032902E+01  4.9405969713E+00
                       1.0396959305E+01  1.0379032902E+01  1.5853321639E+01
                       1.0396959305E+01  5.0387410278E+00  1.0396959305E+01
                       1.5853321639E+01  1.0379032902E+01  1.0396959305E+01
                       4.9405969713E+00  1.0379032902E+01  1.0396959305E+01
                       2.1517356892E-12  1.0616516558E-01  2.1517538911E-12
            xcart8     5.1927408137E+00  5.2269270021E+00  5.1927408137E+00
                       1.5578222441E+01  1.5579361280E+01  1.5578222441E+01
                       1.0385481627E+01  1.5389308051E+01  1.0385481627E+01
                       1.0385481627E+01  1.0369985766E+01  4.9399273663E+00
                       1.0385481627E+01  1.0369985766E+01  1.5831035888E+01
                       1.0385481627E+01  5.0380015830E+00  1.0385481627E+01
                       1.5831035888E+01  1.0369985766E+01  1.0385481627E+01
                       4.9399273663E+00  1.0369985766E+01  1.0385481627E+01
                       2.1452845690E-12  1.0593324236E-01  2.1452936575E-12
            xcart9     5.1876346595E+00  5.2206219994E+00  5.1876346595E+00
                       1.5562903978E+01  1.5562108156E+01  1.5562903978E+01
                       1.0375269319E+01  1.5369496716E+01  1.0375269319E+01
                       1.0375269319E+01  1.0358914842E+01  4.9392251763E+00
                       1.0375269319E+01  1.0358914842E+01  1.5811313462E+01
                       1.0375269319E+01  5.0378299912E+00  1.0375269319E+01
                       1.5811313462E+01  1.0358914842E+01  1.0375269319E+01
                       4.9392251763E+00  1.0358914842E+01  1.0375269319E+01
                       2.1476316437E-12  1.0617301818E-01  2.1476497615E-12
            xcart10    5.1822332692E+00  5.2158144146E+00  5.1822332692E+00
                       1.5546699808E+01  1.5547529599E+01  1.5546699808E+01
                       1.0364466538E+01  1.5351784840E+01  1.0364466538E+01
                       1.0364466538E+01  1.0348853201E+01  4.9386215505E+00
                       1.0364466538E+01  1.0348853201E+01  1.5790311526E+01
                       1.0364466538E+01  5.0370877537E+00  1.0364466538E+01
                       1.5790311526E+01  1.0348853201E+01  1.0364466538E+01
                       4.9386215505E+00  1.0348853201E+01  1.0364466538E+01
                       2.1467503386E-12  1.0609206674E-01  2.1456176312E-12
             xred1     2.5248241074E-01  2.4751758926E-01  2.5248241074E-01
                       7.5248241074E-01  7.4751758926E-01  7.5248241074E-01
                       7.4446671184E-01  2.5553328816E-01  7.4446671184E-01
                       2.3731807068E-01  2.3543061262E-01  7.6456938738E-01
                       7.6456938738E-01  7.6268192932E-01  2.3731807068E-01
                       2.4175018136E-01  7.5824981864E-01  2.4175018136E-01
                       2.3731807068E-01  7.6268192932E-01  7.6456938738E-01
                       7.6456938738E-01  2.3543061262E-01  2.3731807068E-01
                       5.0433691873E-03 -5.0433691873E-03  5.0433691873E-03
             xred2     2.5246489673E-01  2.4753510327E-01  2.5246489673E-01
                       7.5246489673E-01  7.4753510327E-01  7.5246489673E-01
                       7.4427354433E-01  2.5572645567E-01  7.4427354433E-01
                       2.3750106638E-01  2.3562976750E-01  7.6437023250E-01
                       7.6437023250E-01  7.6249893362E-01  2.3750106638E-01
                       2.4199834442E-01  7.5800165558E-01  2.4199834442E-01
                       2.3750106638E-01  7.6249893362E-01  7.6437023250E-01
                       7.6437023250E-01  2.3562976750E-01  2.3750106638E-01
                       5.0557200365E-03 -5.0557200365E-03  5.0557200365E-03
             xred3     2.5246162136E-01  2.4753837864E-01  2.5246162136E-01
                       7.5246162136E-01  7.4753837864E-01  7.5246162136E-01
                       7.4411288960E-01  2.5588711040E-01  7.4411288960E-01
                       2.3770073988E-01  2.3586007580E-01  7.6413992420E-01
                       7.6413992420E-01  7.6229926012E-01  2.3770073988E-01
                       2.4221499426E-01  7.5778500574E-01  2.4221499426E-01
                       2.3770073988E-01  7.6229926012E-01  7.6413992420E-01
                       7.6413992420E-01  2.3586007580E-01  2.3770073988E-01
                       5.0675452602E-03 -5.0675452602E-03  5.0675452602E-03
             xred4     2.5243568689E-01  2.4756431311E-01  2.5243568689E-01
                       7.5243568689E-01  7.4756431311E-01  7.5243568689E-01
                       7.4394203749E-01  2.5605796251E-01  7.4394203749E-01
                       2.3789623423E-01  2.3607282757E-01  7.6392717243E-01
                       7.6392717243E-01  7.6210376577E-01  2.3789623423E-01
                       2.4245594945E-01  7.5754405055E-01  2.4245594945E-01
                       2.3789623423E-01  7.6210376577E-01  7.6392717243E-01
                       7.6392717243E-01  2.3607282757E-01  2.3789623423E-01
                       5.0838259642E-03 -5.0838259642E-03  5.0838259642E-03
             xred5     2.5246835955E-01  2.4753164045E-01  2.5246835955E-01
                       7.5246835955E-01  7.4753164045E-01  7.5246835955E-01
                       7.4376722922E-01  2.5623277078E-01  7.4376722922E-01
                       2.3809465119E-01  2.3630854131E-01  7.6369145869E-01
                       7.6369145869E-01  7.6190534881E-01  2.3809465119E-01
                       2.4264705248E-01  7.5735294752E-01  2.4264705248E-01
                       2.3809465119E-01  7.6190534881E-01  7.6369145869E-01
                       7.6369145869E-01  2.3630854131E-01  2.3809465119E-01
                       5.0767794515E-03 -5.0767794515E-03  5.0767794515E-03
             xred6     2.5239246899E-01  2.4760753101E-01  2.5239246899E-01
                       7.5239246899E-01  7.4760753101E-01  7.5239246899E-01
                       7.4358762582E-01  2.5641237418E-01  7.4358762582E-01
                       2.3829012449E-01  2.3649608037E-01  7.6350391963E-01
                       7.6350391963E-01  7.6170987551E-01  2.3829012449E-01
                       2.4292786650E-01  7.5707213350E-01  2.4292786650E-01
                       2.3829012449E-01  7.6170987551E-01  7.6350391963E-01
                       7.6350391963E-01  2.3649608037E-01  2.3829012449E-01
                       5.1114814579E-03 -5.1114814579E-03  5.1114814579E-03
             xred7     2.5239741164E-01  2.4760258836E-01  2.5239741164E-01
                       7.5239741164E-01  7.4760258836E-01  7.5239741164E-01
                       7.4341151820E-01  2.5658848180E-01  7.4341151820E-01
                       2.3847516474E-01  2.3672117163E-01  7.6327882837E-01
                       7.6327882837E-01  7.6152483526E-01  2.3847516474E-01
                       2.4316229616E-01  7.5683770384E-01  2.4316229616E-01
                       2.3847516474E-01  7.6152483526E-01  7.6327882837E-01
                       7.6327882837E-01  2.3672117163E-01  2.3847516474E-01
                       5.1233761158E-03 -5.1233761158E-03  5.1233761158E-03
             xred8     2.5244917581E-01  2.4755082419E-01  2.5244917581E-01
                       7.5244917581E-01  7.4755082419E-01  7.5244917581E-01
                       7.4327001930E-01  2.5672998070E-01  7.4327001930E-01
                       2.3867621459E-01  2.3698081737E-01  7.6301918263E-01
                       7.6301918263E-01  7.6132378541E-01  2.3867621459E-01
                       2.4332449005E-01  7.5667550995E-01  2.4332449005E-01
                       2.3867621459E-01  7.6132378541E-01  7.6301918263E-01
                       7.6301918263E-01  2.3698081737E-01  2.3867621459E-01
                       5.1163445966E-03 -5.1163445966E-03  5.1163445966E-03
             xred9     2.5241159349E-01  2.4758840651E-01  2.5241159349E-01
                       7.5241159349E-01  7.4758840651E-01  7.5241159349E-01
                       7.4309903259E-01  2.5690096741E-01  7.4309903259E-01
                       2.3887142807E-01  2.3718611073E-01  7.6281388927E-01
                       7.6281388927E-01  7.6112857193E-01  2.3887142807E-01
                       2.4357379177E-01  7.5642620823E-01  2.4357379177E-01
                       2.3887142807E-01  7.6112857193E-01  7.6281388927E-01
                       7.6281388927E-01  2.3718611073E-01  2.3887142807E-01
                       5.1333539774E-03 -5.1333539774E-03  5.1333539774E-03
             xred10    2.5241764418E-01  2.4758235582E-01  2.5241764418E-01
                       7.5241764418E-01  7.4758235582E-01  7.5241764418E-01
                       7.4294464015E-01  2.5705535985E-01  7.4294464015E-01
                       2.3907713318E-01  2.3741835574E-01  7.6258164426E-01
                       7.6258164426E-01  7.6092286682E-01  2.3907713318E-01
                       2.4376822549E-01  7.5623177451E-01  2.4376822549E-01
                       2.3907713318E-01  7.6092286682E-01  7.6258164426E-01
                       7.6258164426E-01  2.3741835574E-01  2.3907713318E-01
                       5.1342911048E-03 -5.1342911048E-03  5.1342911048E-03
            znucl       55.00000   53.00000   72.00000   35.00000

- Timing analysis has been suppressed with timopt=0

 Suggested references for the acknowledgment of ABINIT usage.

 Calculation completed.
.Delivered   0 WARNINGs and 248 COMMENTs to log file.