.Version 9.2.2 of ABINIT

 ABINIT is a project of the Universite Catholique de Louvain,
 Corning Inc. and other collaborators, see ~abinit/doc/developers/contributors.txt .
 acknowledgments of the ABINIT effort.

.Starting date : Wed  9 Nov 2022.
- ( at 20h26 )

- input  file    -> Cs2TiI6.in
- output file    -> Cs2TiI6.out
- root for input  files -> Cs2TiI6i
- root for output files -> Cs2TiI6o

- inpspheads : Reading pseudopotential header in XML form from
-   ../../../Psps_for_tests/ATOMICDATA/Cs.GGA_PBE-JTH.xml
- inpspheads : Reading pseudopotential header in XML form from
-   ../../../Psps_for_tests/ATOMICDATA/I.GGA_PBE-JTH.xml
- inpspheads : Reading pseudopotential header in XML form from
-   ../../../Psps_for_tests/ATOMICDATA/Hf.GGA_PBE-JTH.xml
- inpspheads : Reading pseudopotential header in XML form from
-   ../../../Psps_for_tests/ATOMICDATA/Br.GGA_PBE-JTH.xml

 DATASET    1 : space group I4/m m m (#139); Bravais tI (body-center tetrag.)
     intxc =       0    ionmov =       0      iscf =      17    lmnmax =      18
     lnmax =       6     mgfft =      60  mpssoang =       3    mqgrid =    3440
     natom =       9  nloc_mem =       2    nspden =       1   nspinor =       1
    nsppol =       1      nsym =      16    n1xccc =       1    ntypat =       4
    occopt =       1   xclevel =       2
-    mband =          42        mffmem =           1         mkmem =          28
       mpw =        7051          nfft =      216000          nkpt =         163
Pmy_natom=         2
 PAW method is used; the additional fine FFT grid is defined by:
   mgfftf=        90    nfftf =    729000
  Rough estimation (10% accuracy) of disk space for files :

[...]

 DATASET   10 : space group I4/m m m (#139); Bravais tI (body-center tetrag.)
     intxc =       0    ionmov =       0      iscf =      17    lmnmax =      18
     lnmax =       6     mgfft =      54  mpssoang =       3    mqgrid =    3409
     natom =       9  nloc_mem =       2    nspden =       1   nspinor =       1
    nsppol =       1      nsym =      16    n1xccc =       1    ntypat =       4
    occopt =       1   xclevel =       2
-    mband =          42        mffmem =           1         mkmem =          28
       mpw =        6866          nfft =      157464          nkpt =         163
Pmy_natom=         2
 PAW method is used; the additional fine FFT grid is defined by:
   mgfftf=        90    nfftf =    729000
  Rough estimation (10% accuracy) of disk space for files :

------------- Echo of variables that govern the present computation ------------
-
- outvars: echo of selected default values
-   iomode0 =  0 , fftalg0 =112 , wfoptalg0 = 10
-
- outvars: echo of global parameters not present in the input file
-  max_nthreads =    0
-
 -outvars: echo values of preprocessed input variables --------
            acell1     1.4700963320E+01  1.5027062253E+01  1.4700963320E+01 Bohr
            acell2     1.4685315777E+01  1.5014223354E+01  1.4685315777E+01 Bohr
            acell3     1.4669823934E+01  1.5001019263E+01  1.4669823934E+01 Bohr
            acell4     1.4654568614E+01  1.4987256650E+01  1.4654568614E+01 Bohr
            acell5     1.4638899916E+01  1.4974477336E+01  1.4638899916E+01 Bohr
            acell6     1.4623893151E+01  1.4960127201E+01  1.4623893151E+01 Bohr
            acell7     1.4608420214E+01  1.4946887016E+01  1.4608420214E+01 Bohr
            acell8     1.4593696681E+01  1.4931863654E+01  1.4593696681E+01 Bohr
            acell9     1.4578384713E+01  1.4918242320E+01  1.4578384713E+01 Bohr
            acell10    1.4563578593E+01  1.4903415900E+01  1.4563578593E+01 Bohr
              amu      1.32905430E+02  1.26904470E+02  1.78490000E+02
                       7.99040000E+01
           diemac      1.20000000E+01
             ecut      1.60000000E+01 Hartree
-          fftalg         112
           istwfk        2    0    0    0    0    0    3    0    0    0
                         0    0    0    0    0    0    0    0    0    0
                         0    0    0    0    0    0    0    0    0    0
                         0    0    0    0    0    0    0    0    0    0
                         0    0    7    0    0    0    0    0    0    0
                       outvar_i_n : Printing only first  50 k-points.
              ixc     -101130
           jdtset        1    2    3    4    5    6    7    8    9   10
              kpt      0.00000000E+00  0.00000000E+00  0.00000000E+00
                       8.33333333E-02  0.00000000E+00  0.00000000E+00
                       1.66666667E-01  0.00000000E+00  0.00000000E+00
                       2.50000000E-01  0.00000000E+00  0.00000000E+00
                       3.33333333E-01  0.00000000E+00  0.00000000E+00
                       4.16666667E-01  0.00000000E+00  0.00000000E+00
                       5.00000000E-01  0.00000000E+00  0.00000000E+00
                       8.33333333E-02  8.33333333E-02  0.00000000E+00
                       1.66666667E-01  8.33333333E-02  0.00000000E+00
                       2.50000000E-01  8.33333333E-02  0.00000000E+00
                       3.33333333E-01  8.33333333E-02  0.00000000E+00
                       4.16666667E-01  8.33333333E-02  0.00000000E+00
                       5.00000000E-01  8.33333333E-02  0.00000000E+00
                      -4.16666667E-01  8.33333333E-02  0.00000000E+00
                      -3.33333333E-01  8.33333333E-02  0.00000000E+00
                      -2.50000000E-01  8.33333333E-02  0.00000000E+00
                      -1.66666667E-01  8.33333333E-02  0.00000000E+00
                      -8.33333333E-02  8.33333333E-02  0.00000000E+00
                       1.66666667E-01  1.66666667E-01  0.00000000E+00
                       2.50000000E-01  1.66666667E-01  0.00000000E+00
                       3.33333333E-01  1.66666667E-01  0.00000000E+00
                       4.16666667E-01  1.66666667E-01  0.00000000E+00
                       5.00000000E-01  1.66666667E-01  0.00000000E+00
                      -4.16666667E-01  1.66666667E-01  0.00000000E+00
                      -3.33333333E-01  1.66666667E-01  0.00000000E+00
                      -2.50000000E-01  1.66666667E-01  0.00000000E+00
                      -1.66666667E-01  1.66666667E-01  0.00000000E+00
                       2.50000000E-01  2.50000000E-01  0.00000000E+00
                       3.33333333E-01  2.50000000E-01  0.00000000E+00
                       4.16666667E-01  2.50000000E-01  0.00000000E+00
                       5.00000000E-01  2.50000000E-01  0.00000000E+00
                      -4.16666667E-01  2.50000000E-01  0.00000000E+00
                      -3.33333333E-01  2.50000000E-01  0.00000000E+00
                      -2.50000000E-01  2.50000000E-01  0.00000000E+00
                       3.33333333E-01  3.33333333E-01  0.00000000E+00
                       4.16666667E-01  3.33333333E-01  0.00000000E+00
                       5.00000000E-01  3.33333333E-01  0.00000000E+00
                      -4.16666667E-01  3.33333333E-01  0.00000000E+00
                      -3.33333333E-01  3.33333333E-01  0.00000000E+00
                       4.16666667E-01  4.16666667E-01  0.00000000E+00
                       5.00000000E-01  4.16666667E-01  0.00000000E+00
                      -4.16666667E-01  4.16666667E-01  0.00000000E+00
                       5.00000000E-01  5.00000000E-01  0.00000000E+00
                       8.33333333E-02  0.00000000E+00  8.33333333E-02
                       1.66666667E-01  0.00000000E+00  8.33333333E-02
                       2.50000000E-01  0.00000000E+00  8.33333333E-02
                       3.33333333E-01  0.00000000E+00  8.33333333E-02
                       4.16666667E-01  0.00000000E+00  8.33333333E-02
                       5.00000000E-01  0.00000000E+00  8.33333333E-02
                      -4.16666667E-01  0.00000000E+00  8.33333333E-02
                       outvar_i_n : Printing only first  50 k-points.
         kptrlatt       12    0    0      0   12    0      0    0   12
          kptrlen1     1.76411560E+02
          kptrlen2     1.76223789E+02
          kptrlen3     1.76037887E+02
          kptrlen4     1.75854823E+02
          kptrlen5     1.75666799E+02
          kptrlen6     1.75486718E+02
          kptrlen7     1.75301043E+02
          kptrlen8     1.75124360E+02
          kptrlen9     1.74940617E+02
          kptrlen10    1.74762943E+02
P           mkmem          28
            natom           9
            nband          42
           ndtset          10
            ngfft1         60      60      60
            ngfft2         60      60      60
            ngfft3         60      60      60
            ngfft4         54      54      54
            ngfft5         54      54      54
            ngfft6         54      54      54
            ngfft7         54      54      54
            ngfft8         54      54      54
            ngfft9         54      54      54
            ngfft10        54      54      54
          ngfftdg          90      90      90
             nkpt         163
            nstep        2500
             nsym          16
           ntypat           4
              occ      2.000000  2.000000  2.000000  2.000000  2.000000  2.000000
                       2.000000  2.000000  2.000000  2.000000  2.000000  2.000000
                       2.000000  2.000000  2.000000  2.000000  2.000000  2.000000
                       2.000000  2.000000  2.000000  2.000000  2.000000  2.000000
                       2.000000  2.000000  2.000000  2.000000  2.000000  2.000000
                       2.000000  2.000000  2.000000  2.000000  2.000000  2.000000
                       0.000000  0.000000  0.000000  0.000000  0.000000  0.000000
        pawecutdg      4.00000000E+01 Hartree
            prtwf           0
            rprim1     0.0000000000E+00  6.9106571967E-01  7.2279192795E-01
                       7.0710678119E-01  0.0000000000E+00  7.0710678119E-01
                       7.2279192795E-01  6.9106571967E-01  0.0000000000E+00
            rprim2     0.0000000000E+00  6.9090675797E-01  7.2294387873E-01
                       7.0710678119E-01  0.0000000000E+00  7.0710678119E-01
                       7.2294387873E-01  6.9090675797E-01  0.0000000000E+00
            rprim3     0.0000000000E+00  6.9077384721E-01  7.2307087621E-01
                       7.0710678119E-01  0.0000000000E+00  7.0710678119E-01
                       7.2307087621E-01  6.9077384721E-01  0.0000000000E+00
            rprim4     0.0000000000E+00  6.9068104672E-01  7.2315952023E-01
                       7.0710678119E-01  0.0000000000E+00  7.0710678119E-01
                       7.2315952023E-01  6.9068104672E-01  0.0000000000E+00
            rprim5     0.0000000000E+00  6.9051688981E-01  7.2331626892E-01
                       7.0710678119E-01  0.0000000000E+00  7.0710678119E-01
                       7.2331626892E-01  6.9051688981E-01  0.0000000000E+00
            rprim6     0.0000000000E+00  6.9046620421E-01  7.2336465275E-01
                       7.0710678119E-01  0.0000000000E+00  7.0710678119E-01
                       7.2336465275E-01  6.9046620421E-01  0.0000000000E+00
[...]
                      -1.1391077842E-21 -8.2114376468E-22  8.6906609721E-22
           xangst7     2.7964489094E+00  2.6682973709E+00  2.7964489094E+00
                       8.3893467283E+00  8.0048921126E+00  8.3893467283E+00
                       5.5928978189E+00  8.0884242910E+00  5.5928978189E+00
                       5.5928978189E+00  5.3365947417E+00  2.8352120617E+00
                       5.5928978188E+00  5.3365947417E+00  8.3505835760E+00
                       5.5928978188E+00  2.5847651925E+00  5.5928978188E+00
                       8.3505835760E+00  5.3365947417E+00  5.5928978188E+00
                       2.8352120617E+00  5.3365947417E+00  5.5928978189E+00
                       1.2696293796E-21 -6.1172220673E-22 -2.2127777271E-22
           xangst8     2.7936381526E+00  2.6655999487E+00  2.7936381526E+00
                       8.3809144578E+00  7.9967998461E+00  8.3809144578E+00
                       5.5872763052E+00  8.0781149849E+00  5.5872763052E+00
                       5.5872763052E+00  5.3311998974E+00  2.8342029253E+00
                       5.5872763052E+00  5.3311998974E+00  8.3403496851E+00
                       5.5872763052E+00  2.5842848099E+00  5.5872763052E+00
                       8.3403496851E+00  5.3311998974E+00  5.5872763052E+00
                       2.8342029253E+00  5.3311998974E+00  5.5872763052E+00
                       6.2498684637E-21 -6.7195644520E-22 -6.1154386387E-21
           xangst9     2.7910897045E+00  2.6624020270E+00  2.7910897045E+00
                       8.3732691135E+00  7.9872060810E+00  8.3732691135E+00
                       5.5821794089E+00  8.0657839593E+00  5.5821794089E+00
                       5.5821794089E+00  5.3248040540E+00  2.8332472054E+00
                       5.5821794091E+00  5.3248040540E+00  8.3311116126E+00
                       5.5821794091E+00  2.5838241486E+00  5.5821794091E+00
                       8.3311116126E+00  5.3248040540E+00  5.5821794091E+00
                       2.8332472054E+00  5.3248040540E+00  5.5821794089E+00
                       7.5184642657E-22 -9.5597284336E-22 -2.4902752799E-21
           xangst10    2.7883157941E+00  2.6596343149E+00  2.7883157941E+00
                       8.3649473823E+00  7.9789029448E+00  8.3649473823E+00
                       5.5766315882E+00  8.0552152394E+00  5.5766315882E+00
                       5.5766315882E+00  5.3192686299E+00  2.8322358378E+00
                       5.5766315882E+00  5.3192686299E+00  8.3210273386E+00
                       5.5766315882E+00  2.5833220203E+00  5.5766315882E+00
                       8.3210273386E+00  5.3192686299E+00  5.5766315882E+00
                       2.8322358378E+00  5.3192686299E+00  5.5766315882E+00
                       1.8201961975E-21 -5.3343350845E-21 -1.2906164215E-21
            xcart1     5.3128688103E+00  5.0796658983E+00  5.3128688103E+00
                       1.5938606431E+01  1.5238997695E+01  1.5938606431E+01
                       1.0625737621E+01  1.5429029842E+01  1.0625737621E+01
                       1.0625737621E+01  1.0159331797E+01  5.3681208370E+00
                       1.0625737621E+01  1.0159331797E+01  1.5883354404E+01
                       1.0625737621E+01  4.8896337515E+00  1.0625737621E+01
                       1.5883354404E+01  1.0159331797E+01  1.0625737621E+01
                       5.3681208370E+00  1.0159331797E+01  1.0625737621E+01
                       0.0000000000E+00  0.0000000000E+00  0.0000000000E+00
            xcart2     5.3083295740E+00  5.0730919566E+00  5.3083295740E+00
                       1.5924988722E+01  1.5219275870E+01  1.5924988722E+01
                       1.0616659148E+01  1.5403694773E+01  1.0616659148E+01
                       1.0616659148E+01  1.0146183913E+01  5.3664632338E+00
                       1.0616659148E+01  1.0146183913E+01  1.5866855062E+01
                       1.0616659148E+01  4.8886730532E+00  1.0616659148E+01
                       1.5866855062E+01  1.0146183913E+01  1.0616659148E+01
                       5.3664632338E+00  1.0146183913E+01  1.0616659148E+01
                       2.7145782055E-21  1.2842565435E-21  3.5226352607E-23
            xcart3     5.3036612229E+00  5.0667653584E+00  5.3036612229E+00
                       1.5910983669E+01  1.5200296075E+01  1.5910983669E+01
                       1.0607322446E+01  1.5379267295E+01  1.0607322446E+01
                       1.0607322446E+01  1.0133530717E+01  5.3647945195E+00
                       1.0607322446E+01  1.0133530717E+01  1.5849850372E+01
                       1.0607322446E+01  4.8877941385E+00  1.0607322446E+01
                       1.5849850372E+01  1.0133530717E+01  1.0607322446E+01
                       5.3647945195E+00  1.0133530717E+01  1.0607322446E+01
                       0.0000000000E+00  0.0000000000E+00  0.0000000000E+00
            xcart4     5.2987954042E+00  5.0608163948E+00  5.2987954042E+00
                       1.5896386213E+01  1.5182449184E+01  1.5896386213E+01
                       1.0597590808E+01  1.5356316427E+01  1.0597590808E+01
                       1.0597590808E+01  1.0121632790E+01  5.3630180908E+00
                       1.0597590809E+01  1.0121632790E+01  1.5832163526E+01
                       1.0597590809E+01  4.8869491519E+00  1.0597590809E+01
                       1.5832163526E+01  1.0121632790E+01  1.0597590809E+01
                       5.3630180908E+00  1.0121632790E+01  1.0597590808E+01
                       4.0595864706E-22 -4.1769454633E-21  3.9787561424E-22
            xcart5     5.2942772343E+00  5.0542038201E+00  5.2942772343E+00
                       1.5882831703E+01  1.5162611460E+01  1.5882831703E+01
                       1.0588554469E+01  1.5330762781E+01  1.0588554469E+01
                       1.0588554469E+01  1.0108407640E+01  5.3613819058E+00
                       1.0588554469E+01  1.0108407640E+01  1.5815727032E+01
                       1.0588554469E+01  4.8860524993E+00  1.0588554469E+01
                       1.5815727032E+01  1.0108407640E+01  1.0588554469E+01
                       5.3613819058E+00  1.0108407640E+01  1.0588554469E+01
                      -2.0846126864E-21  4.6671129220E-21  3.3975297689E-22
            xcart6     5.2892036956E+00  5.0486519974E+00  5.2892036956E+00
                       1.5867611087E+01  1.5145955992E+01  1.5867611087E+01
                       1.0578407391E+01  1.5309288589E+01  1.0578407391E+01
                       1.0578407391E+01  1.0097303995E+01  5.3595408531E+00
                       1.0578407391E+01  1.0097303995E+01  1.5797273929E+01
                       1.0578407391E+01  4.8853194002E+00  1.0578407391E+01
                       1.5797273929E+01  1.0097303995E+01  1.0578407391E+01
                       5.3595408531E+00  1.0097303995E+01  1.0578407391E+01
                      -2.1526017481E-21 -1.5517368310E-21  1.6422969151E-21
            xcart7     5.2845225835E+00  5.0423512720E+00  5.2845225835E+00
                       1.5853567750E+01  1.5127053816E+01  1.5853567750E+01
                       1.0569045167E+01  1.5284906757E+01  1.0569045167E+01
                       1.0569045167E+01  1.0084702544E+01  5.3577743253E+00
                       1.0569045167E+01  1.0084702544E+01  1.5780316008E+01
                       1.0569045167E+01  4.8844983316E+00  1.0569045167E+01
                       1.5780316008E+01  1.0084702544E+01  1.0569045167E+01
                       5.3577743253E+00  1.0084702544E+01  1.0569045167E+01
                       2.3992518178E-21 -1.1559874401E-21 -4.1815438973E-22
            xcart8     5.2792110228E+00  5.0372538829E+00  5.2792110228E+00
                       1.5837633068E+01  1.5111761649E+01  1.5837633068E+01
                       1.0558422046E+01  1.5265424992E+01  1.0558422046E+01
                       1.0558422046E+01  1.0074507766E+01  5.3558673339E+00
                       1.0558422046E+01  1.0074507766E+01  1.5760976757E+01
                       1.0558422046E+01  4.8835905400E+00  1.0558422046E+01
                       1.5760976757E+01  1.0074507766E+01  1.0558422046E+01
                       5.3558673339E+00  1.0074507766E+01  1.0558422046E+01
                       1.1810539763E-20 -1.2698136546E-21 -1.1556504210E-20
            xcart9     5.2743951538E+00  5.0312106867E+00  5.2743951538E+00
                       1.5823185461E+01  1.5093632060E+01  1.5823185461E+01
                       1.0548790307E+01  1.5242122730E+01  1.0548790307E+01
                       1.0548790307E+01  1.0062421373E+01  5.3540612849E+00
                       1.0548790308E+01  1.0062421373E+01  1.5743519330E+01
                       1.0548790308E+01  4.8827200164E+00  1.0548790308E+01
                       1.5743519330E+01  1.0062421373E+01  1.0548790308E+01
                       5.3540612849E+00  1.0062421373E+01  1.0548790307E+01
                       1.4207838402E-21 -1.8065268644E-21 -4.7059382745E-21
            xcart10    5.2691532228E+00  5.0259804688E+00  5.2691532228E+00
                       1.5807459669E+01  1.5077941407E+01  1.5807459669E+01
                       1.0538306446E+01  1.5222150744E+01  1.0538306446E+01
                       1.0538306446E+01  1.0051960938E+01  5.3521500772E+00
                       1.0538306446E+01  1.0051960938E+01  1.5724462814E+01
                       1.0538306446E+01  4.8817711314E+00  1.0538306446E+01
                       1.5724462814E+01  1.0051960938E+01  1.0538306446E+01
                       5.3521500772E+00  1.0051960938E+01  1.0538306446E+01
                       3.4396723214E-21 -1.0080432411E-20 -2.4389115793E-21
             xred1     2.5000000000E-01  2.5000000000E-01  2.5000000000E-01
                       7.5000000000E-01  7.5000000000E-01  7.5000000000E-01
                       7.5935259083E-01  2.4064740917E-01  7.5935259083E-01
                       2.5259991488E-01  2.5259991488E-01  7.4740008512E-01
                       7.4740008512E-01  7.4740008512E-01  2.5259991488E-01
                       2.4064740917E-01  7.5935259083E-01  2.4064740917E-01
                       2.5259991488E-01  7.4740008512E-01  7.4740008512E-01
                       7.4740008512E-01  2.5259991488E-01  2.5259991488E-01
                       0.0000000000E+00  0.0000000000E+00  0.0000000000E+00
             xred2     2.5000000000E-01  2.5000000000E-01  2.5000000000E-01
                       7.5000000000E-01  7.5000000000E-01  7.5000000000E-01
                       7.5908809189E-01  2.4091190811E-01  7.5908809189E-01
                       2.5273785091E-01  2.5273785091E-01  7.4726214909E-01
                       7.4726214909E-01  7.4726214909E-01  2.5273785091E-01
                       2.4091190811E-01  7.5908809189E-01  2.4091190811E-01
                       2.5273785091E-01  7.4726214909E-01  7.4726214909E-01
                       7.4726214909E-01  2.5273785091E-01  2.5273785091E-01
                      -6.2898541537E-23  6.6216567682E-23  1.8947386823E-22
             xred3     2.5000000000E-01  2.5000000000E-01  2.5000000000E-01
                       7.5000000000E-01  7.5000000000E-01  7.5000000000E-01
                       7.5883064476E-01  2.4116935524E-01  7.5883064476E-01
                       2.5288165543E-01  2.5288165543E-01  7.4711834457E-01
                       7.4711834457E-01  7.4711834457E-01  2.5288165543E-01
                       2.4116935524E-01  7.5883064476E-01  2.4116935524E-01
                       2.5288165543E-01  7.4711834457E-01  7.4711834457E-01
                       7.4711834457E-01  2.5288165543E-01  2.5288165543E-01
                       0.0000000000E+00  0.0000000000E+00  0.0000000000E+00
             xred4     2.5000000000E-01  2.5000000000E-01  2.5000000000E-01
                       7.5000000000E-01  7.5000000000E-01  7.5000000000E-01
                       7.5858889304E-01  2.4141110696E-01  7.5858889304E-01
                       2.5303006069E-01  2.5303006069E-01  7.4696993931E-01
                       7.4696993931E-01  7.4696993931E-01  2.5303006069E-01
                       2.4141110696E-01  7.5858889304E-01  2.4141110696E-01
                       2.5303006069E-01  7.4696993931E-01  7.4696993931E-01
                       7.4696993931E-01  2.5303006069E-01  2.5303006069E-01
                      -2.0671889401E-22  2.4426286238E-22 -2.0595617039E-22
             xred5     2.5000000000E-01  2.5000000000E-01  2.5000000000E-01
                       7.5000000000E-01  7.5000000000E-01  7.5000000000E-01
                       7.5831739908E-01  2.4168260092E-01  7.5831739908E-01
                       2.5316873619E-01  2.5316873619E-01  7.4683126381E-01
                       7.4683126381E-01  7.4683126381E-01  2.5316873619E-01
                       2.4168260092E-01  7.5831739908E-01  2.4168260092E-01
                       2.5316873619E-01  7.4683126381E-01  7.4683126381E-01
                       7.4683126381E-01  2.5316873619E-01  2.5316873619E-01
                       3.4533350613E-22 -3.1324669219E-22  1.1637253978E-22
             xred6     2.5000000000E-01  2.5000000000E-01  2.5000000000E-01
                       7.5000000000E-01  7.5000000000E-01  7.5000000000E-01
                       7.5808793106E-01  2.4191206894E-01  7.5808793106E-01
                       2.5332456271E-01  2.5332456271E-01  7.4667543729E-01
                       7.4667543729E-01  7.4667543729E-01  2.5332456271E-01
                       2.4191206894E-01  7.5808793106E-01  2.4191206894E-01
                       2.5332456271E-01  7.4667543729E-01  7.4667543729E-01
                       7.4667543729E-01  2.5332456271E-01  2.5332456271E-01
                       1.0253087184E-22  5.2719049475E-23 -2.5620920338E-22
             xred7     2.5000000000E-01  2.5000000000E-01  2.5000000000E-01
                       7.5000000000E-01  7.5000000000E-01  7.5000000000E-01
                       7.5782635580E-01  2.4217364420E-01  7.5782635580E-01
                       2.5346539071E-01  2.5346539071E-01  7.4653460929E-01
                       7.4653460929E-01  7.4653460929E-01  2.5346539071E-01
                       2.4217364420E-01  7.5782635580E-01  2.4217364420E-01
                       2.5346539071E-01  7.4653460929E-01  7.4653460929E-01
                       7.4653460929E-01  2.5346539071E-01  2.5346539071E-01
                      -1.9059965785E-22  1.5103559288E-22  7.5971840612E-23
             xred8     2.5000000000E-01  2.5000000000E-01  2.5000000000E-01
                       7.5000000000E-01  7.5000000000E-01  7.5000000000E-01
                       7.5762634495E-01  2.4237365505E-01  7.5762634495E-01
                       2.5363010262E-01  2.5363010262E-01  7.4636989738E-01
                       7.4636989738E-01  7.4636989738E-01  2.5363010262E-01
                       2.4237365505E-01  7.5762634495E-01  2.4237365505E-01
                       2.5363010262E-01  7.4636989738E-01  7.4636989738E-01
                       7.4636989738E-01  2.5363010262E-01  2.5363010262E-01
                      -1.1695806043E-21  7.5051122569E-23  1.0435383515E-21
             xred9     2.5000000000E-01  2.5000000000E-01  2.5000000000E-01
                       7.5000000000E-01  7.5000000000E-01  7.5000000000E-01
                       7.5737847605E-01  2.4262152395E-01  7.5737847605E-01
                       2.5377607900E-01  2.5377607900E-01  7.4622392100E-01
                       7.4622392100E-01  7.4622392100E-01  2.5377607900E-01
                       2.4262152395E-01  7.5737847605E-01  2.4262152395E-01
                       2.5377607900E-01  7.4622392100E-01  7.4622392100E-01
                       7.4622392100E-01  2.5377607900E-01  2.5377607900E-01
                      -3.8016528645E-22 -6.5946365920E-23  2.0063326355E-22
             xred10    2.5000000000E-01  2.5000000000E-01  2.5000000000E-01
                       7.5000000000E-01  7.5000000000E-01  7.5000000000E-01
                       7.5717319428E-01  2.4282680572E-01  7.5717319428E-01
                       2.5393786491E-01  2.5393786491E-01  7.4606213509E-01
                       7.4606213509E-01  7.4606213509E-01  2.5393786491E-01
                       2.4282680572E-01  7.5717319428E-01  2.4282680572E-01
                       2.5393786491E-01  7.4606213509E-01  7.4606213509E-01
                       7.4606213509E-01  2.5393786491E-01  2.5393786491E-01
                      -7.8033123461E-22  5.4889826272E-22 -2.2250119512E-22
            znucl       55.00000   53.00000   72.00000   35.00000

- Timing analysis has been suppressed with timopt=0

 Suggested references for the acknowledgment of ABINIT usage.

 Calculation completed.
.Delivered   0 WARNINGs and   3 COMMENTs to log file.