.Version 9.2.2 of ABINIT

 ABINIT is a project of the Universite Catholique de Louvain,
 Corning Inc. and other collaborators, see ~abinit/doc/developers/contributors.txt .
 acknowledgments of the ABINIT effort.

.Starting date : Tue 22 Nov 2022.
- ( at 20h19 )

- input  file    -> Cs2TiI6.in
- output file    -> Cs2TiI6.out
- root for input  files -> Cs2TiI6i
- root for output files -> Cs2TiI6o

- inpspheads : Reading pseudopotential header in XML form from
-   ../../../Psps_for_tests/ATOMICDATA/Cs.GGA_PBE-JTH.xml
- inpspheads : Reading pseudopotential header in XML form from
-   ../../../Psps_for_tests/ATOMICDATA/I.GGA_PBE-JTH.xml
- inpspheads : Reading pseudopotential header in XML form from
-   ../../../Psps_for_tests/ATOMICDATA/Hf.GGA_PBE-JTH.xml
- inpspheads : Reading pseudopotential header in XML form from
-   ../../../Psps_for_tests/ATOMICDATA/Br.GGA_PBE-JTH.xml

 DATASET    1 : space group I4 m m (#107); Bravais tI (body-center tetrag.)
     intxc =       0    ionmov =       0      iscf =      17    lmnmax =      18
     lnmax =       6     mgfft =      60  mpssoang =       3    mqgrid =    3863
     natom =       9  nloc_mem =       2    nspden =       1   nspinor =       1
    nsppol =       1      nsym =       8    n1xccc =       1    ntypat =       4
    occopt =       1   xclevel =       2
-    mband =          42        mffmem =           1         mkmem =          28
       mpw =        9964          nfft =      216000          nkpt =         163
Pmy_natom=         2
 PAW method is used; the additional fine FFT grid is defined by:
   mgfftf=        96    nfftf =    884736
  Rough estimation (10% accuracy) of disk space for files :

[...]

 DATASET   10 : space group I4 m m (#107); Bravais tI (body-center tetrag.)
     intxc =       0    ionmov =       0      iscf =      17    lmnmax =      18
     lnmax =       6     mgfft =      60  mpssoang =       3    mqgrid =    3828
     natom =       9  nloc_mem =       2    nspden =       1   nspinor =       1
    nsppol =       1      nsym =       8    n1xccc =       1    ntypat =       4
    occopt =       1   xclevel =       2
-    mband =          42        mffmem =           1         mkmem =          28
       mpw =        9674          nfft =      216000          nkpt =         163
Pmy_natom=         2
 PAW method is used; the additional fine FFT grid is defined by:
   mgfftf=        96    nfftf =    884736
  Rough estimation (10% accuracy) of disk space for files :

------------- Echo of variables that govern the present computation ------------
-
- outvars: echo of selected default values
-   iomode0 =  0 , fftalg0 =112 , wfoptalg0 = 10
-
- outvars: echo of global parameters not present in the input file
-  max_nthreads =    0
-
 -outvars: echo values of preprocessed input variables --------
            acell1     1.4441618785E+01  1.4462664188E+01  1.4441618785E+01 Bohr
            acell2     1.4427503813E+01  1.4447497990E+01  1.4427503813E+01 Bohr
            acell3     1.4414311140E+01  1.4430471694E+01  1.4414311140E+01 Bohr
            acell4     1.4399195353E+01  1.4417325056E+01  1.4399195353E+01 Bohr
            acell5     1.4385546743E+01  1.4401219611E+01  1.4385546743E+01 Bohr
            acell6     1.4371138857E+01  1.4386645360E+01  1.4371138857E+01 Bohr
            acell7     1.4357151825E+01  1.4371223333E+01  1.4357151825E+01 Bohr
            acell8     1.4342674033E+01  1.4356789936E+01  1.4342674033E+01 Bohr
            acell9     1.4328041084E+01  1.4342669048E+01  1.4328041084E+01 Bohr
            acell10    1.4313892095E+01  1.4327573465E+01  1.4313892095E+01 Bohr
              amu      1.32905430E+02  1.26904470E+02  1.78490000E+02
                       7.99040000E+01
           diemac      1.20000000E+01
          dilatmx      1.15000000E+00
             ecut      1.60000000E+01 Hartree
           ecutsm      5.00000000E-01 Hartree
-          fftalg         112
           istwfk        2    0    0    0    0    0    3    0    0    0
                         0    0    0    0    0    0    0    0    0    0
                         0    0    0    0    0    0    0    0    0    0
                         0    0    0    0    0    0    0    0    0    0
                         0    0    7    0    0    0    0    0    0    0
                       outvar_i_n : Printing only first  50 k-points.
              ixc     -101130
           jdtset        1    2    3    4    5    6    7    8    9   10
              kpt      0.00000000E+00  0.00000000E+00  0.00000000E+00
                       8.33333333E-02  0.00000000E+00  0.00000000E+00
                       1.66666667E-01  0.00000000E+00  0.00000000E+00
                       2.50000000E-01  0.00000000E+00  0.00000000E+00
                       3.33333333E-01  0.00000000E+00  0.00000000E+00
                       4.16666667E-01  0.00000000E+00  0.00000000E+00
                       5.00000000E-01  0.00000000E+00  0.00000000E+00
                       8.33333333E-02  8.33333333E-02  0.00000000E+00
                       1.66666667E-01  8.33333333E-02  0.00000000E+00
                       2.50000000E-01  8.33333333E-02  0.00000000E+00
                       3.33333333E-01  8.33333333E-02  0.00000000E+00
                       4.16666667E-01  8.33333333E-02  0.00000000E+00
                       5.00000000E-01  8.33333333E-02  0.00000000E+00
                      -4.16666667E-01  8.33333333E-02  0.00000000E+00
                      -3.33333333E-01  8.33333333E-02  0.00000000E+00
                      -2.50000000E-01  8.33333333E-02  0.00000000E+00
                      -1.66666667E-01  8.33333333E-02  0.00000000E+00
                      -8.33333333E-02  8.33333333E-02  0.00000000E+00
                       1.66666667E-01  1.66666667E-01  0.00000000E+00
                       2.50000000E-01  1.66666667E-01  0.00000000E+00
                       3.33333333E-01  1.66666667E-01  0.00000000E+00
                       4.16666667E-01  1.66666667E-01  0.00000000E+00
                       5.00000000E-01  1.66666667E-01  0.00000000E+00
                      -4.16666667E-01  1.66666667E-01  0.00000000E+00
                      -3.33333333E-01  1.66666667E-01  0.00000000E+00
                      -2.50000000E-01  1.66666667E-01  0.00000000E+00
                      -1.66666667E-01  1.66666667E-01  0.00000000E+00
                       2.50000000E-01  2.50000000E-01  0.00000000E+00
                       3.33333333E-01  2.50000000E-01  0.00000000E+00
                       4.16666667E-01  2.50000000E-01  0.00000000E+00
                       5.00000000E-01  2.50000000E-01  0.00000000E+00
                      -4.16666667E-01  2.50000000E-01  0.00000000E+00
                      -3.33333333E-01  2.50000000E-01  0.00000000E+00
                      -2.50000000E-01  2.50000000E-01  0.00000000E+00
                       3.33333333E-01  3.33333333E-01  0.00000000E+00
                       4.16666667E-01  3.33333333E-01  0.00000000E+00
                       5.00000000E-01  3.33333333E-01  0.00000000E+00
                      -4.16666667E-01  3.33333333E-01  0.00000000E+00
                      -3.33333333E-01  3.33333333E-01  0.00000000E+00
                       4.16666667E-01  4.16666667E-01  0.00000000E+00
                       5.00000000E-01  4.16666667E-01  0.00000000E+00
                      -4.16666667E-01  4.16666667E-01  0.00000000E+00
                       5.00000000E-01  5.00000000E-01  0.00000000E+00
                       8.33333333E-02  0.00000000E+00  8.33333333E-02
                       1.66666667E-01  0.00000000E+00  8.33333333E-02
                       2.50000000E-01  0.00000000E+00  8.33333333E-02
                       3.33333333E-01  0.00000000E+00  8.33333333E-02
                       4.16666667E-01  0.00000000E+00  8.33333333E-02
                       5.00000000E-01  0.00000000E+00  8.33333333E-02
                      -4.16666667E-01  0.00000000E+00  8.33333333E-02
                       outvar_i_n : Printing only first  50 k-points.
         kptrlatt       12    0    0      0   12    0      0    0   12
          kptrlen1     1.73299425E+02
          kptrlen2     1.73130046E+02
          kptrlen3     1.72971734E+02
          kptrlen4     1.72790344E+02
          kptrlen5     1.72626561E+02
          kptrlen6     1.72453666E+02
          kptrlen7     1.72285822E+02
          kptrlen8     1.72112088E+02
          kptrlen9     1.71936493E+02
          kptrlen10    1.71766705E+02
P           mkmem          28
            natom           9
            nband          42
           ndtset          10
            ngfft          60      60      60
          ngfftdg          96      96      96
             nkpt         163
            nstep        2500
             nsym           8
           ntypat           4
              occ      2.000000  2.000000  2.000000  2.000000  2.000000  2.000000
                       2.000000  2.000000  2.000000  2.000000  2.000000  2.000000
                       2.000000  2.000000  2.000000  2.000000  2.000000  2.000000
                       2.000000  2.000000  2.000000  2.000000  2.000000  2.000000
                       2.000000  2.000000  2.000000  2.000000  2.000000  2.000000
                       2.000000  2.000000  2.000000  2.000000  2.000000  2.000000
                       0.000000  0.000000  0.000000  0.000000  0.000000  0.000000
        pawecutdg      4.00000000E+01 Hartree
            prtwf           0
            rprim1     0.0000000000E+00  7.0607482866E-01  7.0813722988E-01
                       7.0710678119E-01  0.0000000000E+00  7.0710678119E-01
                       7.0813722988E-01  7.0607482866E-01  0.0000000000E+00
            rprim2     0.0000000000E+00  7.0612548613E-01  7.0808671633E-01
                       7.0710678119E-01  0.0000000000E+00  7.0710678119E-01
                       7.0808671633E-01  7.0612548613E-01  0.0000000000E+00
            rprim3     0.0000000000E+00  7.0631312116E-01  7.0789955141E-01
                       7.0710678119E-01  0.0000000000E+00  7.0710678119E-01
                       7.0789955141E-01  7.0631312116E-01  0.0000000000E+00
            rprim4     0.0000000000E+00  7.0621535655E-01  7.0799708345E-01
                       7.0710678119E-01  0.0000000000E+00  7.0710678119E-01
                       7.0799708345E-01  7.0621535655E-01  0.0000000000E+00
            rprim5     0.0000000000E+00  7.0633555723E-01  7.0787716490E-01
                       7.0710678119E-01  0.0000000000E+00  7.0710678119E-01
                       7.0787716490E-01  7.0633555723E-01  0.0000000000E+00
            rprim6     0.0000000000E+00  7.0634298668E-01  7.0786975156E-01
                       7.0710678119E-01  0.0000000000E+00  7.0710678119E-01
                       7.0786975156E-01  7.0634298668E-01  0.0000000000E+00
            rprim7     0.0000000000E+00  7.0641306280E-01  7.0779981966E-01
                       7.0710678119E-01  0.0000000000E+00  7.0710678119E-01
                       7.0779981966E-01  7.0641306280E-01  0.0000000000E+00
            rprim8     0.0000000000E+00  7.0641016880E-01  7.0780270797E-01
[...]
                      -8.4799118325E-13  5.8797901065E-02 -8.4799118325E-13
           xangst7     2.6887466114E+00  2.7069613441E+00  2.6887466114E+00
                       8.0662398343E+00  8.0739187129E+00  8.0662398343E+00
                       5.3774932228E+00  7.9451842743E+00  5.3774932228E+00
                       5.3774932228E+00  5.3723923097E+00  2.6052272956E+00
                       5.3774932229E+00  5.3723923097E+00  8.1497591501E+00
                       5.3774932229E+00  2.6612197760E+00  5.3774932229E+00
                       8.1497591501E+00  5.3723923097E+00  5.3774932229E+00
                       2.6052272956E+00  5.3723923097E+00  5.3774932228E+00
                      -5.6246329384E-13  5.8805603968E-02 -5.6246329384E-13
           xangst8     2.6860462327E+00  2.7042464761E+00  2.6860462327E+00
                       8.0581386980E+00  8.0657698251E+00  8.0581386980E+00
                       5.3720924653E+00  7.9354617115E+00  5.3720924653E+00
                       5.3720924653E+00  5.3667491684E+00  2.6046401970E+00
                       5.3720924653E+00  5.3667491684E+00  8.1395447336E+00
                       5.3720924653E+00  2.6608425219E+00  5.3720924653E+00
                       8.1395447336E+00  5.3667491684E+00  5.3720924653E+00
                       2.6046401970E+00  5.3667491684E+00  5.3720924653E+00
                       6.4627313516E-13  5.8869583640E-02  6.4627313516E-13
           xangst9     2.6834043219E+00  2.7010673594E+00  2.6834043219E+00
                       8.0502129656E+00  8.0569232858E+00  8.0502129656E+00
                       5.3668086437E+00  7.9254989606E+00  5.3668086437E+00
                       5.3668086437E+00  5.3608783959E+00  2.6041046984E+00
                       5.3668086437E+00  5.3608783959E+00  8.1295125891E+00
                       5.3668086437E+00  2.6606801247E+00  5.3668086437E+00
                       8.1295125891E+00  5.3608783959E+00  5.3668086437E+00
                       2.6041046984E+00  5.3608783959E+00  5.3668086437E+00
                       2.9684096345E-13  5.9164096896E-02  2.9684096345E-13
           xangst10    2.6805800530E+00  2.6982009472E+00  2.6805800530E+00
                       8.0417401591E+00  8.0491174343E+00  8.0417401591E+00
                       5.3611601061E+00  7.9169583447E+00  5.3611601061E+00
                       5.3611601061E+00  5.3557762720E+00  2.6036294830E+00
                       5.3611601061E+00  5.3557762720E+00  8.1186907292E+00
                       5.3611601061E+00  2.6605403377E+00  5.3611601061E+00
                       8.1186907292E+00  5.3557762720E+00  5.3611601061E+00
                       2.6036294830E+00  5.3557762720E+00  5.3611601061E+00
                      -2.9793963061E-13  5.9409745773E-02 -2.9793963061E-13
            xcart1     5.1133239607E+00  5.1447482180E+00  5.1133239607E+00
                       1.5339971882E+01  1.5341611727E+01  1.5339971882E+01
                       1.0226647921E+01  1.5110110026E+01  1.0226647921E+01
                       1.0226647921E+01  1.0209220524E+01  4.9283690200E+00
                       1.0226647921E+01  1.0209220524E+01  1.5524926823E+01
                       1.0226647921E+01  5.0321197529E+00  1.0226647921E+01
                       1.5524926823E+01  1.0209220524E+01  1.0226647921E+01
                       4.9283690200E+00  1.0209220524E+01  1.0226647921E+01
                      -8.4215985438E-14  1.0943625167E-01 -8.4215985438E-14
            xcart2     5.1079618999E+00  5.1394492711E+00  5.1079618999E+00
                       1.5323885700E+01  1.5327077415E+01  1.5323885700E+01
                       1.0215923800E+01  1.5094211618E+01  1.0215923800E+01
                       1.0215923800E+01  1.0199618662E+01  4.9277294221E+00
                       1.0215923800E+01  1.0199618662E+01  1.5504118178E+01
                       1.0215923800E+01  5.0318899637E+00  1.0215923800E+01
                       1.5504118178E+01  1.0199618662E+01  1.0215923800E+01
                       4.9277294221E+00  1.0199618662E+01  1.0215923800E+01
                      -9.2883673184E-13  1.0992223503E-01 -9.2883673184E-13
            xcart3     5.1019421951E+00  5.1359315770E+00  5.1019421951E+00
                       1.5305826585E+01  1.5316948668E+01  1.5305826585E+01
                       1.0203884390E+01  1.5082842032E+01  1.0203884390E+01
                       1.0203884390E+01  1.0192867437E+01  4.9268834153E+00
                       1.0203884390E+01  1.0192867437E+01  1.5480885365E+01
                       1.0203884390E+01  5.0310528832E+00  1.0203884390E+01
                       1.5480885365E+01  1.0192867437E+01  1.0203884390E+01
                       4.9268834153E+00  1.0192867437E+01  1.0203884390E+01
                      -3.8187449682E-12  1.0989181943E-01 -3.8187449682E-12
            xcart4     5.0972941569E+00  5.1298952165E+00  5.0972941569E+00
                       1.5291882471E+01  1.5298828097E+01  1.5291882471E+01
                       1.0194588314E+01  1.5061142281E+01  1.0194588314E+01
                       1.0194588314E+01  1.0180195205E+01  4.9259389198E+00
                       1.0194588314E+01  1.0180195205E+01  1.5463237708E+01
                       1.0194588314E+01  5.0305411402E+00  1.0194588314E+01
                       1.5463237708E+01  1.0180195205E+01  1.0194588314E+01
                       4.9259389198E+00  1.0180195205E+01  1.0194588314E+01
                       1.2617150129E-12  1.1027548767E-01  1.2617150129E-12
            xcart5     5.0916000221E+00  5.1252197414E+00  5.0916000221E+00
                       1.5274800066E+01  1.5286242916E+01  1.5274800066E+01
                       1.0183200044E+01  1.5047574240E+01  1.0183200044E+01
                       1.0183200044E+01  1.0172066030E+01  4.9250638315E+00
                       1.0183200044E+01  1.0172066030E+01  1.5441336257E+01
                       1.0183200044E+01  5.0303002594E+00  1.0183200044E+01
                       1.5441336257E+01  1.0172066030E+01  1.0183200044E+01
                       4.9250638315E+00  1.0172066030E+01  1.0183200044E+01
                      -2.0310526452E-12  1.1058412099E-01 -2.0310526452E-12
            xcart6     5.0864472462E+00  5.1193726100E+00  5.0864472462E+00
                       1.5259341739E+01  1.5270325752E+01  1.5259341739E+01
                       1.0172894492E+01  1.5029961021E+01  1.0172894492E+01
                       1.0172894492E+01  1.0161742281E+01  4.9240911261E+00
                       1.0172894493E+01  1.0161742281E+01  1.5421697859E+01
                       1.0172894493E+01  5.0298847018E+00  1.0172894493E+01
                       1.5421697859E+01  1.0161742281E+01  1.0172894493E+01
                       4.9240911261E+00  1.0161742281E+01  1.0172894492E+01
                      -1.6024710994E-12  1.1111193020E-01 -1.6024710994E-12
            xcart7     5.0809947363E+00  5.1154155927E+00  5.0809947363E+00
                       1.5242984209E+01  1.5257495187E+01  1.5242984209E+01
                       1.0161989473E+01  1.5014222354E+01  1.0161989473E+01
                       1.0161989473E+01  1.0152350144E+01  4.9231661026E+00
                       1.0161989473E+01  1.0152350144E+01  1.5400812843E+01
                       1.0161989473E+01  5.0289765561E+00  1.0161989473E+01
                       1.5400812843E+01  1.0152350144E+01  1.0161989473E+01
                       4.9231661026E+00  1.0152350144E+01  1.0161989473E+01
                      -1.0629015852E-12  1.1112648658E-01 -1.0629015852E-12
            xcart8     5.0758917600E+00  5.1102852357E+00  5.0758917600E+00
                       1.5227675280E+01  1.5242096020E+01  1.5227675280E+01
                       1.0151783520E+01  1.4995849373E+01  1.0151783520E+01
                       1.0151783520E+01  1.0141686152E+01  4.9220566471E+00
                       1.0151783520E+01  1.0141686152E+01  1.5381510393E+01
                       1.0151783520E+01  5.0282636492E+00  1.0151783520E+01
                       1.5381510393E+01  1.0141686152E+01  1.0151783520E+01
                       4.9220566471E+00  1.0141686152E+01  1.0151783520E+01
                       1.2212792325E-12  1.1124739064E-01  1.2212792325E-12
            xcart9     5.0708992721E+00  5.1042775758E+00  5.0708992721E+00
                       1.5212697816E+01  1.5225378484E+01  1.5212697816E+01
                       1.0141798544E+01  1.4977022502E+01  1.0141798544E+01
                       1.0141798544E+01  1.0130592000E+01  4.9210447012E+00
                       1.0141798544E+01  1.0130592000E+01  1.5362552387E+01
                       1.0141798544E+01  5.0279567629E+00  1.0141798544E+01
                       1.5362552387E+01  1.0130592000E+01  1.0141798544E+01
                       4.9210447012E+00  1.0130592000E+01  1.0141798544E+01
                       5.6094812594E-13  1.1180394003E-01  5.6094812594E-13
            xcart10    5.0655621775E+00  5.0988608416E+00  5.0655621775E+00
                       1.5196686533E+01  1.5210627562E+01  1.5196686533E+01
                       1.0131124355E+01  1.4960883077E+01  1.0131124355E+01
                       1.0131124355E+01  1.0120950383E+01  4.9201466744E+00
                       1.0131124355E+01  1.0120950383E+01  1.5342102036E+01
                       1.0131124355E+01  5.0276926037E+00  1.0131124355E+01
                       1.5342102036E+01  1.0120950383E+01  1.0131124355E+01
                       4.9201466744E+00  1.0120950383E+01  1.0131124355E+01
                      -5.6302430599E-13  1.1226814913E-01 -5.6302430599E-13
             xred1     2.5227111324E-01  2.4772888676E-01  2.5227111324E-01
                       7.5227111324E-01  7.4772888676E-01  7.5227111324E-01
                       7.4091950003E-01  2.5908049997E-01  7.4091950003E-01
                       2.4156312837E-01  2.4035128365E-01  7.5964871635E-01
                       7.5964871635E-01  7.5843687163E-01  2.4156312837E-01
                       2.4674841182E-01  7.5325158818E-01  2.4674841182E-01
                       2.4156312837E-01  7.5843687163E-01  7.5964871635E-01
                       7.5964871635E-01  2.4035128365E-01  2.4156312837E-01
                       5.3661722336E-03 -5.3661722336E-03  5.3661722336E-03
             xred2     2.5223973621E-01  2.4776026379E-01  2.5223973621E-01
                       7.5223973621E-01  7.4776026379E-01  7.5223973621E-01
                       7.4081088382E-01  2.5918911618E-01  7.4081088382E-01
                       2.4176733010E-01  2.4059036154E-01  7.5940963846E-01
                       7.5940963846E-01  7.5823266990E-01  2.4176733010E-01
                       2.4696081820E-01  7.5303918180E-01  2.4696081820E-01
                       2.4176733010E-01  7.5823266990E-01  7.5940963846E-01
                       7.5940963846E-01  2.4059036154E-01  2.4176733010E-01
                       5.3948884610E-03 -5.3948884610E-03  5.3948884610E-03
             xred3     2.5223077082E-01  2.4776922918E-01  2.5223077082E-01
                       7.5223077082E-01  7.4776922918E-01  7.5223077082E-01
                       7.4073355821E-01  2.5926644179E-01  7.4073355821E-01
                       2.4200393640E-01  2.4083997155E-01  7.5916002845E-01
                       7.5916002845E-01  7.5799606360E-01  2.4200393640E-01
                       2.4708007257E-01  7.5291992743E-01  2.4708007257E-01
                       2.4200393640E-01  7.5799606360E-01  7.5916002845E-01
                       7.5916002845E-01  2.4083997155E-01  2.4200393640E-01
                       5.3968978959E-03 -5.3968978959E-03  5.3968978959E-03
             xred4     2.5223370421E-01  2.4776629579E-01  2.5223370421E-01
                       7.5223370421E-01  7.4776629579E-01  7.5223370421E-01
                       7.4054684294E-01  2.5945315706E-01  7.4054684294E-01
                       2.4214953594E-01  2.4104201316E-01  7.5895798684E-01
                       7.5895798684E-01  7.5785046406E-01  2.4214953594E-01
                       2.4734852710E-01  7.5265147290E-01  2.4734852710E-01
                       2.4214953594E-01  7.5785046406E-01  7.5895798684E-01
                       7.5895798684E-01  2.4104201316E-01  2.4214953594E-01
                       5.4221760026E-03 -5.4221760026E-03  5.4221760026E-03
             xred5     2.5219998288E-01  2.4780001712E-01  2.5219998288E-01
                       7.5219998288E-01  7.4780001712E-01  7.5219998288E-01
                       7.4045565989E-01  2.5954434011E-01  7.4045565989E-01
                       2.4236638615E-01  2.4127960039E-01  7.5872039961E-01
                       7.5872039961E-01  7.5763361385E-01  2.4236638615E-01
                       2.4752921890E-01  7.5247078110E-01  2.4752921890E-01
                       2.4236638615E-01  7.5763361385E-01  7.5872039961E-01
                       7.5872039961E-01  2.4127960039E-01  2.4236638615E-01
                       5.4415839374E-03 -5.4415839374E-03  5.4415839374E-03
             xred6     2.5216216341E-01  2.4783783659E-01  2.5216216341E-01
                       7.5216216341E-01  7.4783783659E-01  7.5216216341E-01
                       7.4032264807E-01  2.5967735193E-01  7.4032264807E-01
                       2.4255159576E-01  2.4148872627E-01  7.5851127373E-01
                       7.5851127373E-01  7.5744840424E-01  2.4255159576E-01
                       2.4775430599E-01  7.5224569401E-01  2.4775430599E-01
                       2.4255159576E-01  7.5744840424E-01  7.5851127373E-01
                       7.5851127373E-01  2.4148872627E-01  2.4255159576E-01
                       5.4729801549E-03 -5.4729801549E-03  5.4729801549E-03
             xred7     2.5218770694E-01  2.4781229306E-01  2.5218770694E-01
                       7.5218770694E-01  7.4781229306E-01  7.5218770694E-01
                       7.4019446480E-01  2.5980553520E-01  7.4019446480E-01
                       2.4274069698E-01  2.4172802992E-01  7.5827197008E-01
                       7.5827197008E-01  7.5725930302E-01  2.4274069698E-01
                       2.4792630099E-01  7.5207369901E-01  2.4792630099E-01
                       2.4274069698E-01  7.5725930302E-01  7.5827197008E-01
                       7.5827197008E-01  2.4172802992E-01  2.4274069698E-01
                       5.4784862193E-03 -5.4784862193E-03  5.4784862193E-03
             xred8     2.5219012397E-01  2.4780987603E-01  2.5219012397E-01
                       7.5219012397E-01  7.4780987603E-01  7.5219012397E-01
                       7.4003797008E-01  2.5996202992E-01  7.4003797008E-01
                       2.4291059163E-01  2.4193590233E-01  7.5806409767E-01
                       7.5806409767E-01  7.5708940837E-01  2.4291059163E-01
                       2.4814239804E-01  7.5185760196E-01  2.4814239804E-01
                       2.4291059163E-01  7.5708940837E-01  7.5806409767E-01
                       7.5806409767E-01  2.4193590233E-01  2.4291059163E-01
                       5.4900053406E-03 -5.4900053406E-03  5.4900053406E-03
             xred9     2.5216019592E-01  2.4783980408E-01  2.5216019592E-01
                       7.5216019592E-01  7.4783980408E-01  7.5216019592E-01
                       7.3989097817E-01  2.6010902183E-01  7.3989097817E-01
                       2.4308090823E-01  2.4214315531E-01  7.5785684469E-01
                       7.5785684469E-01  7.5691909177E-01  2.4308090823E-01
                       2.4838981493E-01  7.5161018507E-01  2.4838981493E-01
                       2.4308090823E-01  7.5691909177E-01  7.5785684469E-01
                       7.5785684469E-01  2.4214315531E-01  2.4308090823E-01
                       5.5233092254E-03 -5.5233092254E-03  5.5233092254E-03
             xred10    2.5212512227E-01  2.4787487773E-01  2.5212512227E-01
                       7.5212512227E-01  7.4787487773E-01  7.5212512227E-01
                       7.3977592097E-01  2.6022407903E-01  7.3977592097E-01
                       2.4327743619E-01  2.4236922078E-01  7.5763077922E-01
                       7.5763077922E-01  7.5672256381E-01  2.4327743619E-01
                       2.4860604198E-01  7.5139395802E-01  2.4860604198E-01
                       2.4327743619E-01  7.5672256381E-01  7.5763077922E-01
                       7.5763077922E-01  2.4236922078E-01  2.4327743619E-01
                       5.5513617074E-03 -5.5513617074E-03  5.5513617074E-03
            znucl       55.00000   53.00000   72.00000   35.00000

- Timing analysis has been suppressed with timopt=0

 Suggested references for the acknowledgment of ABINIT usage.

 Calculation completed.
.Delivered   0 WARNINGs and  10 COMMENTs to log file.