.Version 9.2.2 of ABINIT

 ABINIT is a project of the Universite Catholique de Louvain,
 Corning Inc. and other collaborators, see ~abinit/doc/developers/contributors.txt .
 acknowledgments of the ABINIT effort.

.Starting date : Sat 19 Nov 2022.
- ( at 20h53 )

- input  file    -> Cs2TiI6.in
- output file    -> Cs2TiI6.out
- root for input  files -> Cs2TiI6i
- root for output files -> Cs2TiI6o

- inpspheads : Reading pseudopotential header in XML form from
-   ../../../Psps_for_tests/ATOMICDATA/Cs.GGA_PBE-JTH.xml
- inpspheads : Reading pseudopotential header in XML form from
-   ../../../Psps_for_tests/ATOMICDATA/I.GGA_PBE-JTH.xml
- inpspheads : Reading pseudopotential header in XML form from
-   ../../../Psps_for_tests/ATOMICDATA/Hf.GGA_PBE-JTH.xml

 DATASET    1 : space group Fm -3 m (#225); Bravais cF (face-center cubic)
     intxc =       0    ionmov =       2      iscf =      17    lmnmax =      18
     lnmax =       6     mgfft =      64  mpssoang =       3    mqgrid =    4028
     natom =       9  nloc_mem =       2    nspden =       1   nspinor =       1
    nsppol =       1      nsym =      48    n1xccc =       1    ntypat =       3
    occopt =       1   xclevel =       2
-    mband =          42        mffmem =           1         mkmem =           2
       mpw =       11268          nfft =      262144          nkpt =          10
Pmy_natom=         2
 PAW method is used; the additional fine FFT grid is defined by:
   mgfftf=       100    nfftf =   1000000
  Rough estimation (10% accuracy) of disk space for files :

[...]

 DATASET    9 : space group Fm -3 m (#225); Bravais cF (face-center cubic)
     intxc =       0    ionmov =       2      iscf =      17    lmnmax =      18
     lnmax =       6     mgfft =      64  mpssoang =       3    mqgrid =    3994
     natom =       9  nloc_mem =       2    nspden =       1   nspinor =       1
    nsppol =       1      nsym =      48    n1xccc =       1    ntypat =       3
    occopt =       1   xclevel =       2
-    mband =          42        mffmem =           1         mkmem =           2
       mpw =       10981          nfft =      262144          nkpt =          10
Pmy_natom=         2
 PAW method is used; the additional fine FFT grid is defined by:
   mgfftf=       100    nfftf =   1000000
  Rough estimation (10% accuracy) of disk space for files :

------------- Echo of variables that govern the present computation ------------
-
- outvars: echo of selected default values
-   iomode0 =  0 , fftalg0 =112 , wfoptalg0 = 10
-
- outvars: echo of global parameters not present in the input file
-  max_nthreads =    0
-
 -outvars: echo values of preprocessed input variables --------
            acell1     1.5066878342E+01  1.5066878342E+01  1.5066878342E+01 Bohr
            acell2     1.5050832678E+01  1.5050832678E+01  1.5050832678E+01 Bohr
            acell3     1.5034787014E+01  1.5034787014E+01  1.5034787014E+01 Bohr
            acell4     1.5018741350E+01  1.5018741350E+01  1.5018741350E+01 Bohr
            acell5     1.5002695687E+01  1.5002695687E+01  1.5002695687E+01 Bohr
            acell6     1.4986650023E+01  1.4986650023E+01  1.4986650023E+01 Bohr
            acell7     1.4970604359E+01  1.4970604359E+01  1.4970604359E+01 Bohr
            acell8     1.4954558695E+01  1.4954558695E+01  1.4954558695E+01 Bohr
            acell9     1.4938513031E+01  1.4938513031E+01  1.4938513031E+01 Bohr
              amu      1.32905430E+02  1.26904470E+02  1.78490000E+02
           diemac      1.20000000E+01
          dilatmx      1.15000000E+00
             ecut      1.60000000E+01 Hartree
           ecutsm      5.00000000E-01 Hartree
-          fftalg         112
           ionmov           2
              ixc     -101130
           jdtset        1    2    3    4    5    6    7    8    9
              kpt     -1.25000000E-01 -2.50000000E-01  0.00000000E+00
                      -1.25000000E-01  5.00000000E-01  0.00000000E+00
                      -2.50000000E-01 -3.75000000E-01  0.00000000E+00
                      -1.25000000E-01 -3.75000000E-01  1.25000000E-01
                      -1.25000000E-01  2.50000000E-01  0.00000000E+00
                      -2.50000000E-01  3.75000000E-01  0.00000000E+00
                      -3.75000000E-01  5.00000000E-01  0.00000000E+00
                      -2.50000000E-01  5.00000000E-01  1.25000000E-01
                      -1.25000000E-01  0.00000000E+00  0.00000000E+00
                      -3.75000000E-01  0.00000000E+00  0.00000000E+00
         kptrlatt        4   -4    4     -4    4    4     -4   -4    4
          kptrlen1     8.52311348E+01
          kptrlen2     8.51403668E+01
          kptrlen3     8.50495988E+01
          kptrlen4     8.49588308E+01
          kptrlen5     8.48680628E+01
          kptrlen6     8.47772949E+01
          kptrlen7     8.46865269E+01
          kptrlen8     8.45957589E+01
          kptrlen9     8.45049909E+01
P           mkmem           2
            natom           9
            nband          42
           ndtset           9
            ngfft          64      64      64
          ngfftdg         100     100     100
             nkpt          10
            nstep        2500
             nsym          48
            ntime        1000
           ntypat           3
              occ      2.000000  2.000000  2.000000  2.000000  2.000000  2.000000
                       2.000000  2.000000  2.000000  2.000000  2.000000  2.000000
                       2.000000  2.000000  2.000000  2.000000  2.000000  2.000000
                       2.000000  2.000000  2.000000  2.000000  2.000000  2.000000
                       2.000000  2.000000  2.000000  2.000000  2.000000  2.000000
                       2.000000  2.000000  2.000000  2.000000  2.000000  2.000000
                       0.000000  0.000000  0.000000  0.000000  0.000000  0.000000
        optforces           1
        pawecutdg      4.00000000E+01 Hartree
            prtwf           0
            rprim      0.0000000000E+00  7.0710678119E-01  7.0710678119E-01
                       7.0710678119E-01  0.0000000000E+00  7.0710678119E-01
                       7.0710678119E-01  7.0710678119E-01  0.0000000000E+00
           shiftk      5.00000000E-01  5.00000000E-01  5.00000000E-01
          spgroup         225
           symrel      1  0  0   0  1  0   0  0  1      -1  0  0   0 -1  0   0  0 -1
                       0 -1  1   0 -1  0   1 -1  0       0  1 -1   0  1  0  -1  1  0
                      -1  0  0  -1  0  1  -1  1  0       1  0  0   1  0 -1   1 -1  0
                       0  1 -1   1  0 -1   0  0 -1       0 -1  1  -1  0  1   0  0  1
                      -1  0  0  -1  1  0  -1  0  1       1  0  0   1 -1  0   1  0 -1
                       0 -1  1   1 -1  0   0 -1  0       0  1 -1  -1  1  0   0  1  0
                       1  0  0   0  0  1   0  1  0      -1  0  0   0  0 -1   0 -1  0
                       0  1 -1   0  0 -1   1  0 -1       0 -1  1   0  0  1  -1  0  1
                      -1  0  1  -1  1  0  -1  0  0       1  0 -1   1 -1  0   1  0  0
                       0 -1  0   1 -1  0   0 -1  1       0  1  0  -1  1  0   0  1 -1
                       1  0 -1   0  0 -1   0  1 -1      -1  0  1   0  0  1   0 -1  1
                       0  1  0   0  0  1   1  0  0       0 -1  0   0  0 -1  -1  0  0
                       1  0 -1   0  1 -1   0  0 -1      -1  0  1   0 -1  1   0  0  1
                       0 -1  0   0 -1  1   1 -1  0       0  1  0   0  1 -1  -1  1  0
                      -1  0  1  -1  0  0  -1  1  0       1  0 -1   1  0  0   1 -1  0
                       0  1  0   1  0  0   0  0  1       0 -1  0  -1  0  0   0  0 -1
                       0  0 -1   0  1 -1   1  0 -1       0  0  1   0 -1  1  -1  0  1
                       1 -1  0   0 -1  1   0 -1  0      -1  1  0   0  1 -1   0  1  0
                       0  0  1   1  0  0   0  1  0       0  0 -1  -1  0  0   0 -1  0
                      -1  1  0  -1  0  0  -1  0  1       1 -1  0   1  0  0   1  0 -1
                       0  0  1   0  1  0   1  0  0       0  0 -1   0 -1  0  -1  0  0
                       1 -1  0   0 -1  0   0 -1  1      -1  1  0   0  1  0   0  1 -1
                       0  0 -1   1  0 -1   0  1 -1       0  0  1  -1  0  1   0 -1  1
                      -1  1  0  -1  0  1  -1  0  0       1 -1  0   1  0 -1   1  0  0
           toldff      1.00000000E-08
           tolmxf      1.00000000E-05
            typat      1  1  2  2  2  2  2  2  3
           useylm           1
              wtk        0.09375    0.09375    0.09375    0.18750    0.09375    0.09375
                         0.09375    0.18750    0.03125    0.03125
           xangst1     2.8188983741E+00  2.8188983741E+00  2.8188983741E+00
                       8.4566951223E+00  8.4566951223E+00  8.4566951223E+00
                       5.6377967482E+00  8.4507679924E+00  5.6377967482E+00
                       5.6377967482E+00  5.6377967482E+00  2.8248255040E+00
                       5.6377967482E+00  5.6377967482E+00  8.4507679924E+00
                       5.6377967482E+00  2.8248255040E+00  5.6377967482E+00
                       8.4507679924E+00  5.6377967482E+00  5.6377967482E+00
                       2.8248255040E+00  5.6377967482E+00  5.6377967482E+00
                       0.0000000000E+00  0.0000000000E+00  0.0000000000E+00
           xangst2     2.8158963524E+00  2.8158963524E+00  2.8158963524E+00
                       8.4476890572E+00  8.4476890572E+00  8.4476890572E+00
                       5.6317927048E+00  8.4417682395E+00  5.6317927048E+00
                       5.6317927048E+00  5.6317927048E+00  2.8218171702E+00
                       5.6317927048E+00  5.6317927048E+00  8.4417682395E+00
                       5.6317927048E+00  2.8218171702E+00  5.6317927048E+00
                       8.4417682395E+00  5.6317927048E+00  5.6317927048E+00
                       2.8218171702E+00  5.6317927048E+00  5.6317927048E+00
                       0.0000000000E+00  0.0000000000E+00  0.0000000000E+00
           xangst3     2.8128943307E+00  2.8128943307E+00  2.8128943307E+00
                       8.4386829921E+00  8.4386829921E+00  8.4386829921E+00
                       5.6257886614E+00  8.4327684865E+00  5.6257886614E+00
                       5.6257886614E+00  5.6257886614E+00  2.8188088363E+00
                       5.6257886614E+00  5.6257886614E+00  8.4327684865E+00
                       5.6257886614E+00  2.8188088363E+00  5.6257886614E+00
                       8.4327684865E+00  5.6257886614E+00  5.6257886614E+00
                       2.8188088363E+00  5.6257886614E+00  5.6257886614E+00
                       0.0000000000E+00  0.0000000000E+00  0.0000000000E+00
           xangst4     2.8098923090E+00  2.8098923090E+00  2.8098923090E+00
                       8.4296769270E+00  8.4296769270E+00  8.4296769270E+00
                       5.6197846180E+00  8.4237687336E+00  5.6197846180E+00
                       5.6197846180E+00  5.6197846180E+00  2.8158005024E+00
                       5.6197846180E+00  5.6197846180E+00  8.4237687336E+00
                       5.6197846180E+00  2.8158005024E+00  5.6197846180E+00
[...]
                      -1.4558597549E-20 -9.1838727198E-20  1.2781622979E-19
           xangst4     2.8098923090E+00  2.8098923090E+00  2.8098923090E+00
                       8.4296769270E+00  8.4296769270E+00  8.4296769270E+00
                       5.6197846180E+00  8.4155725429E+00  5.6197846180E+00
                       5.6197846180E+00  5.6197846180E+00  2.8239966932E+00
                       5.6197846180E+00  5.6197846180E+00  8.4155725429E+00
                       5.6197846180E+00  2.8239966932E+00  5.6197846180E+00
                       8.4155725429E+00  5.6197846180E+00  5.6197846180E+00
                       2.8239966932E+00  5.6197846180E+00  5.6197846180E+00
                      -1.9288322405E-19 -1.8144310160E-19  8.0933586616E-20
           xangst5     2.8068902873E+00  2.8068902873E+00  2.8068902873E+00
                       8.4206708619E+00  8.4206708619E+00  8.4206708619E+00
                       5.6137805746E+00  8.4045721364E+00  5.6137805746E+00
                       5.6137805746E+00  5.6137805746E+00  2.8229890129E+00
                       5.6137805746E+00  5.6137805746E+00  8.4045721364E+00
                       5.6137805746E+00  2.8229890129E+00  5.6137805746E+00
                       8.4045721364E+00  5.6137805746E+00  5.6137805746E+00
                       2.8229890129E+00  5.6137805746E+00  5.6137805746E+00
                       4.3980279605E-19  1.2844076240E-19 -1.3366967805E-19
           xangst6     2.8038882656E+00  2.8038882656E+00  2.8038882656E+00
                       8.4116647969E+00  8.4116647969E+00  8.4116647969E+00
                       5.6077765312E+00  8.3935933403E+00  5.6077765312E+00
                       5.6077765312E+00  5.6077765312E+00  2.8219597222E+00
                       5.6077765312E+00  5.6077765312E+00  8.3935933403E+00
                       5.6077765312E+00  2.8219597222E+00  5.6077765312E+00
                       8.3935933403E+00  5.6077765312E+00  5.6077765312E+00
                       2.8219597222E+00  5.6077765312E+00  5.6077765312E+00
                       2.2067474921E-19  3.5960309380E-19  2.5322569554E-19
           xangst7     2.8008862439E+00  2.8008862439E+00  2.8008862439E+00
                       8.4026587318E+00  8.4026587318E+00  8.4026587318E+00
                       5.6017724878E+00  8.3826388763E+00  5.6017724878E+00
                       5.6017724878E+00  5.6017724878E+00  2.8209060994E+00
                       5.6017724878E+00  5.6017724878E+00  8.3826388763E+00
                       5.6017724878E+00  2.8209060994E+00  5.6017724878E+00
                       8.3826388763E+00  5.6017724878E+00  5.6017724878E+00
                       2.8209060994E+00  5.6017724878E+00  5.6017724878E+00
                       8.2498396650E-20  1.1575802511E-21 -8.1872582398E-21
           xangst8     2.7978842222E+00  2.7978842222E+00  2.7978842222E+00
                       8.3936526667E+00  8.3936526667E+00  8.3936526667E+00
                       5.5957684444E+00  8.3716863178E+00  5.5957684444E+00
                       5.5957684444E+00  5.5957684444E+00  2.8198505711E+00
                       5.5957684444E+00  5.5957684444E+00  8.3716863178E+00
                       5.5957684444E+00  2.8198505711E+00  5.5957684444E+00
                       8.3716863178E+00  5.5957684444E+00  5.5957684444E+00
                       2.8198505711E+00  5.5957684444E+00  5.5957684444E+00
                       6.5902054114E-21 -1.5703624515E-20  9.4440606760E-20
           xangst9     2.7948822005E+00  2.7948822005E+00  2.7948822005E+00
                       8.3846466016E+00  8.3846466016E+00  8.3846466016E+00
                       5.5897644011E+00  8.3607490407E+00  5.5897644011E+00
                       5.5897644011E+00  5.5897644011E+00  2.8187797614E+00
                       5.5897644011E+00  5.5897644011E+00  8.3607490407E+00
                       5.5897644011E+00  2.8187797614E+00  5.5897644011E+00
                       8.3607490407E+00  5.5897644011E+00  5.5897644011E+00
                       2.8187797614E+00  5.5897644011E+00  5.5897644011E+00
                      -3.7618236704E-20  6.1620327705E-20 -2.3749034702E-20
            xcart1     5.3269459235E+00  5.3269459235E+00  5.3269459235E+00
                       1.5980837770E+01  1.5980837770E+01  1.5980837770E+01
                       1.0653891847E+01  1.5965724907E+01  1.0653891847E+01
                       1.0653891847E+01  1.0653891847E+01  5.3420587871E+00
                       1.0653891847E+01  1.0653891847E+01  1.5965724907E+01
                       1.0653891847E+01  5.3420587871E+00  1.0653891847E+01
                       1.5965724907E+01  1.0653891847E+01  1.0653891847E+01
                       5.3420587871E+00  1.0653891847E+01  1.0653891847E+01
                       5.8792571251E-20 -1.3346320979E-19  2.0816183282E-19
            xcart2     5.3212729246E+00  5.3212729246E+00  5.3212729246E+00
                       1.5963818774E+01  1.5963818774E+01  1.5963818774E+01
                       1.0642545849E+01  1.5944843516E+01  1.0642545849E+01
                       1.0642545849E+01  1.0642545849E+01  5.3402481829E+00
                       1.0642545849E+01  1.0642545849E+01  1.5944843516E+01
                       1.0642545849E+01  5.3402481829E+00  1.0642545849E+01
                       1.5944843516E+01  1.0642545849E+01  1.0642545849E+01
                       5.3402481829E+00  1.0642545849E+01  1.0642545849E+01
                      -9.6237006262E-20 -2.8876187883E-19  1.0639438437E-19
            xcart3     5.3155999258E+00  5.3155999258E+00  5.3155999258E+00
                       1.5946799777E+01  1.5946799777E+01  1.5946799777E+01
                       1.0631199852E+01  1.5923997386E+01  1.0631199852E+01
                       1.0631199852E+01  1.0631199852E+01  5.3384023169E+00
                       1.0631199852E+01  1.0631199852E+01  1.5923997386E+01
                       1.0631199852E+01  5.3384023169E+00  1.0631199852E+01
                       1.5923997386E+01  1.0631199852E+01  1.0631199852E+01
                       5.3384023169E+00  1.0631199852E+01  1.0631199852E+01
                      -2.7511762247E-20 -1.7355004280E-19  2.4153766964E-19
            xcart4     5.3099269269E+00  5.3099269269E+00  5.3099269269E+00
                       1.5929780781E+01  1.5929780781E+01  1.5929780781E+01
                       1.0619853854E+01  1.5903127358E+01  1.0619853854E+01
                       1.0619853854E+01  1.0619853854E+01  5.3365803502E+00
                       1.0619853854E+01  1.0619853854E+01  1.5903127358E+01
                       1.0619853854E+01  5.3365803502E+00  1.0619853854E+01
                       1.5903127358E+01  1.0619853854E+01  1.0619853854E+01
                       5.3365803502E+00  1.0619853854E+01  1.0619853854E+01
                      -3.6449646909E-19 -3.4287777073E-19  1.5294231366E-19
            xcart5     5.3042539281E+00  5.3042539281E+00  5.3042539281E+00
                       1.5912761784E+01  1.5912761784E+01  1.5912761784E+01
                       1.0608507856E+01  1.5882339602E+01  1.0608507856E+01
                       1.0608507856E+01  1.0608507856E+01  5.3346761105E+00
                       1.0608507856E+01  1.0608507856E+01  1.5882339602E+01
                       1.0608507856E+01  5.3346761105E+00  1.0608507856E+01
                       1.5882339602E+01  1.0608507856E+01  1.0608507856E+01
                       5.3346761105E+00  1.0608507856E+01  1.0608507856E+01
                       8.3110683702E-19  2.4271786524E-19 -2.5259908379E-19
            xcart6     5.2985809292E+00  5.2985809292E+00  5.2985809292E+00
                       1.5895742788E+01  1.5895742788E+01  1.5895742788E+01
                       1.0597161858E+01  1.5861592684E+01  1.0597161858E+01
                       1.0597161858E+01  1.0597161858E+01  5.3327310329E+00
                       1.0597161858E+01  1.0597161858E+01  1.5861592684E+01
                       1.0597161858E+01  5.3327310329E+00  1.0597161858E+01
                       1.5861592684E+01  1.0597161858E+01  1.0597161858E+01
                       5.3327310329E+00  1.0597161858E+01  1.0597161858E+01
                       4.1701484045E-19  6.7955136382E-19  4.7852721438E-19
            xcart7     5.2929079304E+00  5.2929079304E+00  5.2929079304E+00
                       1.5878723791E+01  1.5878723791E+01  1.5878723791E+01
                       1.0585815861E+01  1.5840891747E+01  1.0585815861E+01
                       1.0585815861E+01  1.0585815861E+01  5.3307399744E+00
                       1.0585815861E+01  1.0585815861E+01  1.5840891747E+01
                       1.0585815861E+01  5.3307399744E+00  1.0585815861E+01
                       1.5840891747E+01  1.0585815861E+01  1.0585815861E+01
                       5.3307399744E+00  1.0585815861E+01  1.0585815861E+01
                       1.5589937607E-19  2.1875096514E-21 -1.5471675852E-20
            xcart8     5.2872349315E+00  5.2872349315E+00  5.2872349315E+00
                       1.5861704795E+01  1.5861704795E+01  1.5861704795E+01
                       1.0574469863E+01  1.5820194411E+01  1.0574469863E+01
                       1.0574469863E+01  1.0574469863E+01  5.3287453150E+00
                       1.0574469863E+01  1.0574469863E+01  1.5820194411E+01
                       1.0574469863E+01  5.3287453150E+00  1.0574469863E+01
                       1.5820194411E+01  1.0574469863E+01  1.0574469863E+01
                       5.3287453150E+00  1.0574469863E+01  1.0574469863E+01
                       1.2453683387E-20 -2.9675549626E-20  1.7846688260E-19
            xcart9     5.2815619327E+00  5.2815619327E+00  5.2815619327E+00
                       1.5844685798E+01  1.5844685798E+01  1.5844685798E+01
                       1.0563123865E+01  1.5799525953E+01  1.0563123865E+01
                       1.0563123865E+01  1.0563123865E+01  5.3267217779E+00
                       1.0563123865E+01  1.0563123865E+01  1.5799525953E+01
                       1.0563123865E+01  5.3267217779E+00  1.0563123865E+01
                       1.5799525953E+01  1.0563123865E+01  1.0563123865E+01
                       5.3267217779E+00  1.0563123865E+01  1.0563123865E+01
                      -7.1088164973E-20  1.1644554358E-19 -4.4879171507E-20
             xred1     2.5000000000E-01  2.5000000000E-01  2.5000000000E-01
                       7.5000000000E-01  7.5000000000E-01  7.5000000000E-01
                       7.4929073508E-01  2.5070926492E-01  7.4929073508E-01
                       2.5070926492E-01  2.5070926492E-01  7.4929073508E-01
                       7.4929073508E-01  7.4929073508E-01  2.5070926492E-01
                       2.5070926492E-01  7.4929073508E-01  2.5070926492E-01
                       2.5070926492E-01  7.4929073508E-01  7.4929073508E-01
                       7.4929073508E-01  2.5070926492E-01  2.5070926492E-01
                       7.4649020348E-22  1.8792081786E-20 -1.3273669163E-20
             xred2     2.5000000000E-01  2.5000000000E-01  2.5000000000E-01
                       7.5000000000E-01  7.5000000000E-01  7.5000000000E-01
                       7.4910851884E-01  2.5089148116E-01  7.4910851884E-01
                       2.5089148116E-01  2.5089148116E-01  7.4910851884E-01
                       7.4910851884E-01  7.4910851884E-01  2.5089148116E-01
                       2.5089148116E-01  7.4910851884E-01  2.5089148116E-01
                       2.5089148116E-01  7.4910851884E-01  7.4910851884E-01
                       7.4910851884E-01  2.5089148116E-01  2.5089148116E-01
                      -4.0465171311E-21  1.4043597330E-20 -2.3086265092E-20
             xred3     2.5000000000E-01  2.5000000000E-01  2.5000000000E-01
                       7.5000000000E-01  7.5000000000E-01  7.5000000000E-01
                       7.4892757208E-01  2.5107242792E-01  7.4892757208E-01
                       2.5107242792E-01  2.5107242792E-01  7.4892757208E-01
                       7.4892757208E-01  7.4892757208E-01  2.5107242792E-01
                       2.5107242792E-01  7.4892757208E-01  2.5107242792E-01
                       2.5107242792E-01  7.4892757208E-01  7.4892757208E-01
                       7.4892757208E-01  2.5107242792E-01  2.5107242792E-01
                       4.4914680573E-21  1.8228231789E-20 -2.0816064078E-20
             xred4     2.5000000000E-01  2.5000000000E-01  2.5000000000E-01
                       7.5000000000E-01  7.5000000000E-01  7.5000000000E-01
                       7.4874511346E-01  2.5125488654E-01  7.4874511346E-01
                       2.5125488654E-01  2.5125488654E-01  7.4874511346E-01
                       7.4874511346E-01  7.4874511346E-01  2.5125488654E-01
                       2.5125488654E-01  7.4874511346E-01  2.5125488654E-01
                       2.5125488654E-01  7.4874511346E-01  7.4874511346E-01
                       7.4874511346E-01  2.5125488654E-01  2.5125488654E-01
                       8.2186164905E-21  6.1829294968E-21 -4.0505103239E-20
             xred5     2.5000000000E-01  2.5000000000E-01  2.5000000000E-01
                       7.5000000000E-01  7.5000000000E-01  7.5000000000E-01
                       7.4856614225E-01  2.5143385775E-01  7.4856614225E-01
                       2.5143385775E-01  2.5143385775E-01  7.4856614225E-01
                       7.4856614225E-01  7.4856614225E-01  2.5143385775E-01
                       2.5143385775E-01  7.4856614225E-01  2.5143385775E-01
                       2.5143385775E-01  7.4856614225E-01  7.4856614225E-01
                       7.4856614225E-01  2.5143385775E-01  2.5143385775E-01
                      -3.9637433793E-20  1.5826442915E-20  6.2516981843E-20
             xred6     2.5000000000E-01  2.5000000000E-01  2.5000000000E-01
                       7.5000000000E-01  7.5000000000E-01  7.5000000000E-01
                       7.4838871463E-01  2.5161128537E-01  7.4838871463E-01
                       2.5161128537E-01  2.5161128537E-01  7.4838871463E-01
                       7.4838871463E-01  7.4838871463E-01  2.5161128537E-01
                       2.5161128537E-01  7.4838871463E-01  2.5161128537E-01
                       2.5161128537E-01  7.4838871463E-01  7.4838871463E-01
                       7.4838871463E-01  2.5161128537E-01  2.5161128537E-01
                       3.4965198591E-20  1.0190968766E-20  2.9160590266E-20
             xred7     2.5000000000E-01  2.5000000000E-01  2.5000000000E-01
                       7.5000000000E-01  7.5000000000E-01  7.5000000000E-01
                       7.4821307849E-01  2.5178692151E-01  7.4821307849E-01
                       2.5178692151E-01  2.5178692151E-01  7.4821307849E-01
                       7.4821307849E-01  7.4821307849E-01  2.5178692151E-01
                       2.5178692151E-01  7.4821307849E-01  2.5178692151E-01
                       2.5178692151E-01  7.4821307849E-01  7.4821307849E-01
                       7.4821307849E-01  2.5178692151E-01  2.5178692151E-01
                      -7.9910488005E-21  6.5295010033E-21  8.1976941531E-21
             xred8     2.5000000000E-01  2.5000000000E-01  2.5000000000E-01
                       7.5000000000E-01  7.5000000000E-01  7.5000000000E-01
                       7.4803723572E-01  2.5196276428E-01  7.4803723572E-01
                       2.5196276428E-01  2.5196276428E-01  7.4803723572E-01
                       7.4803723572E-01  7.4803723572E-01  2.5196276428E-01
                       2.5196276428E-01  7.4803723572E-01  2.5196276428E-01
                       2.5196276428E-01  7.4803723572E-01  7.4803723572E-01
                       7.4803723572E-01  2.5196276428E-01  2.5196276428E-01
                       6.4465477396E-21  1.0430599286E-20 -9.2528869709E-21
             xred9     2.5000000000E-01  2.5000000000E-01  2.5000000000E-01
                       7.5000000000E-01  7.5000000000E-01  7.5000000000E-01
                       7.4786238210E-01  2.5213761790E-01  7.4786238210E-01
                       2.5213761790E-01  2.5213761790E-01  7.4786238210E-01
                       7.4786238210E-01  7.4786238210E-01  2.5213761790E-01
                       2.5213761790E-01  7.4786238210E-01  2.5213761790E-01
                       2.5213761790E-01  7.4786238210E-01  7.4786238210E-01
                       7.4786238210E-01  2.5213761790E-01  2.5213761790E-01
                       6.7524786638E-21 -1.1001143366E-20  4.2713003874E-21
            znucl       55.00000   53.00000   72.00000

- Timing analysis has been suppressed with timopt=0

 Suggested references for the acknowledgment of ABINIT usage.

 Calculation completed.
.Delivered   0 WARNINGs and  33 COMMENTs to log file.