.Version 9.2.2 of ABINIT

 ABINIT is a project of the Universite Catholique de Louvain,
 Corning Inc. and other collaborators, see ~abinit/doc/developers/contributors.txt .
 acknowledgments of the ABINIT effort.

.Starting date : Sat 12 Nov 2022.
- ( at 22h43 )

- input  file    -> Cs2TiI6.in
- output file    -> Cs2TiI6.out
- root for input  files -> Cs2TiI6i
- root for output files -> Cs2TiI6o

- inpspheads : Reading pseudopotential header in XML form from
-   ../../../Psps_for_tests/ATOMICDATA/Cs.GGA_PBE-JTH.xml
- inpspheads : Reading pseudopotential header in XML form from
-   ../../../Psps_for_tests/ATOMICDATA/Br.GGA_PBE-JTH.xml
- inpspheads : Reading pseudopotential header in XML form from
-   ../../../Psps_for_tests/ATOMICDATA/Hf.GGA_PBE-JTH.xml

 DATASET    1 : space group Fm -3 m (#225); Bravais cF (face-center cubic)
     intxc =       0    ionmov =       0      iscf =      17    lmnmax =      18
     lnmax =       6     mgfft =      60  mpssoang =       3    mqgrid =    3765
     natom =       9  nloc_mem =       2    nspden =       1   nspinor =       1
    nsppol =       1      nsym =      48    n1xccc =       1    ntypat =       3
    occopt =       1   xclevel =       2
-    mband =          42        mffmem =           1         mkmem =          12
       mpw =        9257          nfft =      216000          nkpt =          72
Pmy_natom=         2
 PAW method is used; the additional fine FFT grid is defined by:
   mgfftf=        96    nfftf =    884736
  Rough estimation (10% accuracy) of disk space for files :

[...]

 DATASET   10 : space group Fm -3 m (#225); Bravais cF (face-center cubic)
     intxc =       0    ionmov =       0      iscf =      17    lmnmax =      18
     lnmax =       6     mgfft =      60  mpssoang =       3    mqgrid =    3731
     natom =       9  nloc_mem =       2    nspden =       1   nspinor =       1
    nsppol =       1      nsym =      48    n1xccc =       1    ntypat =       3
    occopt =       1   xclevel =       2
-    mband =          42        mffmem =           1         mkmem =          12
       mpw =        8977          nfft =      216000          nkpt =          72
Pmy_natom=         2
 PAW method is used; the additional fine FFT grid is defined by:
   mgfftf=        96    nfftf =    884736
  Rough estimation (10% accuracy) of disk space for files :

------------- Echo of variables that govern the present computation ------------
-
- outvars: echo of selected default values
-   iomode0 =  0 , fftalg0 =112 , wfoptalg0 = 10
-
- outvars: echo of global parameters not present in the input file
-  max_nthreads =    0
-
 -outvars: echo values of preprocessed input variables --------
            acell1     1.4081070920E+01  1.4081070920E+01  1.4081070920E+01 Bohr
            acell2     1.4066975754E+01  1.4066975754E+01  1.4066975754E+01 Bohr
            acell3     1.4052880588E+01  1.4052880588E+01  1.4052880588E+01 Bohr
            acell4     1.4038785422E+01  1.4038785422E+01  1.4038785422E+01 Bohr
            acell5     1.4024690256E+01  1.4024690256E+01  1.4024690256E+01 Bohr
            acell6     1.4010595089E+01  1.4010595089E+01  1.4010595089E+01 Bohr
            acell7     1.3996499923E+01  1.3996499923E+01  1.3996499923E+01 Bohr
            acell8     1.3982404757E+01  1.3982404757E+01  1.3982404757E+01 Bohr
            acell9     1.3968309591E+01  1.3968309591E+01  1.3968309591E+01 Bohr
            acell10    1.3954214425E+01  1.3954214425E+01  1.3954214425E+01 Bohr
              amu      1.32905430E+02  7.99040000E+01  1.78490000E+02
           diemac      1.20000000E+01
          dilatmx      1.15000000E+00
             ecut      1.60000000E+01 Hartree
           ecutsm      5.00000000E-01 Hartree
-          fftalg         112
           istwfk        2    0    0    0    0    0    3    0    0    0
                         0    0    0    0    0    0    0    0    0    0
                         0    0    0    0    0    0    0    0    0    0
                         0    0    0    0    0    0    0    0    0    0
                         0    0    7    0    0    0    0    0    0    0
                       outvar_i_n : Printing only first  50 k-points.
              ixc     -101130
           jdtset        1    2    3    4    5    6    7    8    9   10
              kpt      0.00000000E+00  0.00000000E+00  0.00000000E+00
                       8.33333333E-02  0.00000000E+00  0.00000000E+00
                       1.66666667E-01  0.00000000E+00  0.00000000E+00
                       2.50000000E-01  0.00000000E+00  0.00000000E+00
                       3.33333333E-01  0.00000000E+00  0.00000000E+00
                       4.16666667E-01  0.00000000E+00  0.00000000E+00
                       5.00000000E-01  0.00000000E+00  0.00000000E+00
                       8.33333333E-02  8.33333333E-02  0.00000000E+00
                       1.66666667E-01  8.33333333E-02  0.00000000E+00
                       2.50000000E-01  8.33333333E-02  0.00000000E+00
                       3.33333333E-01  8.33333333E-02  0.00000000E+00
                       4.16666667E-01  8.33333333E-02  0.00000000E+00
                       5.00000000E-01  8.33333333E-02  0.00000000E+00
                      -4.16666667E-01  8.33333333E-02  0.00000000E+00
                      -3.33333333E-01  8.33333333E-02  0.00000000E+00
                      -2.50000000E-01  8.33333333E-02  0.00000000E+00
                      -1.66666667E-01  8.33333333E-02  0.00000000E+00
                      -8.33333333E-02  8.33333333E-02  0.00000000E+00
                       1.66666667E-01  1.66666667E-01  0.00000000E+00
                       2.50000000E-01  1.66666667E-01  0.00000000E+00
                       3.33333333E-01  1.66666667E-01  0.00000000E+00
                       4.16666667E-01  1.66666667E-01  0.00000000E+00
                       5.00000000E-01  1.66666667E-01  0.00000000E+00
                      -4.16666667E-01  1.66666667E-01  0.00000000E+00
                      -3.33333333E-01  1.66666667E-01  0.00000000E+00
                      -2.50000000E-01  1.66666667E-01  0.00000000E+00
                      -1.66666667E-01  1.66666667E-01  0.00000000E+00
                       2.50000000E-01  2.50000000E-01  0.00000000E+00
                       3.33333333E-01  2.50000000E-01  0.00000000E+00
                       4.16666667E-01  2.50000000E-01  0.00000000E+00
                       5.00000000E-01  2.50000000E-01  0.00000000E+00
                      -4.16666667E-01  2.50000000E-01  0.00000000E+00
                      -3.33333333E-01  2.50000000E-01  0.00000000E+00
                      -2.50000000E-01  2.50000000E-01  0.00000000E+00
                       3.33333333E-01  3.33333333E-01  0.00000000E+00
                       4.16666667E-01  3.33333333E-01  0.00000000E+00
                       5.00000000E-01  3.33333333E-01  0.00000000E+00
                      -4.16666667E-01  3.33333333E-01  0.00000000E+00
                      -3.33333333E-01  3.33333333E-01  0.00000000E+00
                       4.16666667E-01  4.16666667E-01  0.00000000E+00
                       5.00000000E-01  4.16666667E-01  0.00000000E+00
                      -4.16666667E-01  4.16666667E-01  0.00000000E+00
                       5.00000000E-01  5.00000000E-01  0.00000000E+00
                       2.50000000E-01  1.66666667E-01  8.33333333E-02
                       3.33333333E-01  1.66666667E-01  8.33333333E-02
                       4.16666667E-01  1.66666667E-01  8.33333333E-02
                       5.00000000E-01  1.66666667E-01  8.33333333E-02
                      -4.16666667E-01  1.66666667E-01  8.33333333E-02
                       3.33333333E-01  2.50000000E-01  8.33333333E-02
                       4.16666667E-01  2.50000000E-01  8.33333333E-02
                       outvar_i_n : Printing only first  50 k-points.
         kptrlatt       12    0    0      0   12    0      0    0   12
          kptrlen1     1.68972851E+02
          kptrlen2     1.68803709E+02
          kptrlen3     1.68634567E+02
          kptrlen4     1.68465425E+02
          kptrlen5     1.68296283E+02
          kptrlen6     1.68127141E+02
          kptrlen7     1.67957999E+02
          kptrlen8     1.67788857E+02
          kptrlen9     1.67619715E+02
          kptrlen10    1.67450573E+02
P           mkmem          12
            natom           9
            nband          42
           ndtset          10
            ngfft          60      60      60
          ngfftdg          96      96      96
             nkpt          72
            nstep        2500
             nsym          48
           ntypat           3
              occ      2.000000  2.000000  2.000000  2.000000  2.000000  2.000000
                       2.000000  2.000000  2.000000  2.000000  2.000000  2.000000
                       2.000000  2.000000  2.000000  2.000000  2.000000  2.000000
                       2.000000  2.000000  2.000000  2.000000  2.000000  2.000000
                       2.000000  2.000000  2.000000  2.000000  2.000000  2.000000
                       2.000000  2.000000  2.000000  2.000000  2.000000  2.000000
                       0.000000  0.000000  0.000000  0.000000  0.000000  0.000000
        pawecutdg      4.00000000E+01 Hartree
            prtwf           0
            rprim      0.0000000000E+00  7.0710678119E-01  7.0710678119E-01
                       7.0710678119E-01  0.0000000000E+00  7.0710678119E-01
                       7.0710678119E-01  7.0710678119E-01  0.0000000000E+00
          spgroup         225
           symrel      1  0  0   0  1  0   0  0  1      -1  0  0   0 -1  0   0  0 -1
                       0 -1  1   0 -1  0   1 -1  0       0  1 -1   0  1  0  -1  1  0
                      -1  0  0  -1  0  1  -1  1  0       1  0  0   1  0 -1   1 -1  0
                       0  1 -1   1  0 -1   0  0 -1       0 -1  1  -1  0  1   0  0  1
                      -1  0  0  -1  1  0  -1  0  1       1  0  0   1 -1  0   1  0 -1
                       0 -1  1   1 -1  0   0 -1  0       0  1 -1  -1  1  0   0  1  0
                       1  0  0   0  0  1   0  1  0      -1  0  0   0  0 -1   0 -1  0
                       0  1 -1   0  0 -1   1  0 -1       0 -1  1   0  0  1  -1  0  1
                      -1  0  1  -1  1  0  -1  0  0       1  0 -1   1 -1  0   1  0  0
                       0 -1  0   1 -1  0   0 -1  1       0  1  0  -1  1  0   0  1 -1
                       1  0 -1   0  0 -1   0  1 -1      -1  0  1   0  0  1   0 -1  1
                       0  1  0   0  0  1   1  0  0       0 -1  0   0  0 -1  -1  0  0
                       1  0 -1   0  1 -1   0  0 -1      -1  0  1   0 -1  1   0  0  1
                       0 -1  0   0 -1  1   1 -1  0       0  1  0   0  1 -1  -1  1  0
                      -1  0  1  -1  0  0  -1  1  0       1  0 -1   1  0  0   1 -1  0
                       0  1  0   1  0  0   0  0  1       0 -1  0  -1  0  0   0  0 -1
                       0  0 -1   0  1 -1   1  0 -1       0  0  1   0 -1  1  -1  0  1
                       1 -1  0   0 -1  1   0 -1  0      -1  1  0   0  1 -1   0  1  0
                       0  0  1   1  0  0   0  1  0       0  0 -1  -1  0  0   0 -1  0
[...]
                       1.4962252703E-18 -6.9487069928E-19  1.6914103308E-18
           xangst7     2.6186387107E+00  2.6186387107E+00  2.6186387107E+00
                       7.8559161322E+00  7.8559161322E+00  7.8559161322E+00
                       5.2372774214E+00  7.8732544487E+00  5.2372774214E+00
                       5.2372774214E+00  5.2372774214E+00  2.6013003942E+00
                       5.2372774214E+00  5.2372774214E+00  7.8732544487E+00
                       5.2372774214E+00  2.6013003942E+00  5.2372774214E+00
                       7.8732544487E+00  5.2372774214E+00  5.2372774214E+00
                       2.6013003942E+00  5.2372774214E+00  5.2372774214E+00
                       1.5551038677E-18 -6.9989857312E-19  1.7083169232E-18
           xangst8     2.6160016123E+00  2.6160016123E+00  2.6160016123E+00
                       7.8480048370E+00  7.8480048370E+00  7.8480048370E+00
                       5.2320032247E+00  7.8633524469E+00  5.2320032247E+00
                       5.2320032247E+00  5.2320032247E+00  2.6006540025E+00
                       5.2320032247E+00  5.2320032247E+00  7.8633524469E+00
                       5.2320032247E+00  2.6006540025E+00  5.2320032247E+00
                       7.8633524469E+00  5.2320032247E+00  5.2320032247E+00
                       2.6006540025E+00  5.2320032247E+00  5.2320032247E+00
                       1.5551142362E-18 -7.0077017549E-19  1.6918409733E-18
           xangst9     2.6133645140E+00  2.6133645140E+00  2.6133645140E+00
                       7.8400935419E+00  7.8400935419E+00  7.8400935419E+00
                       5.2267290279E+00  7.8534523326E+00  5.2267290279E+00
                       5.2267290279E+00  5.2267290279E+00  2.6000057233E+00
                       5.2267290279E+00  5.2267290279E+00  7.8534523326E+00
                       5.2267290279E+00  2.6000057233E+00  5.2267290279E+00
                       7.8534523326E+00  5.2267290279E+00  5.2267290279E+00
                       2.6000057233E+00  5.2267290279E+00  5.2267290279E+00
                       1.4964987706E-18 -6.2028966714E-19  1.6761616844E-18
           xangst10    2.6107274156E+00  2.6107274156E+00  2.6107274156E+00
                       7.8321822467E+00  7.8321822467E+00  7.8321822467E+00
                       5.2214548311E+00  7.8435723529E+00  5.2214548311E+00
                       5.2214548311E+00  5.2214548311E+00  2.5993373094E+00
                       5.2214548311E+00  5.2214548311E+00  7.8435723529E+00
                       5.2214548311E+00  2.5993373094E+00  5.2214548311E+00
                       7.8435723529E+00  5.2214548311E+00  5.2214548311E+00
                       2.5993373094E+00  5.2214548311E+00  5.2214548311E+00
                       1.4947175674E-18 -6.4010219980E-19  1.6777764326E-18
            xcart1     4.9784103670E+00  4.9784103670E+00  4.9784103670E+00
                       1.4935231101E+01  1.4935231101E+01  1.4935231101E+01
                       9.9568207339E+00  1.4990988731E+01  9.9568207339E+00
                       9.9568207339E+00  9.9568207339E+00  4.9226527366E+00
                       9.9568207339E+00  9.9568207339E+00  1.4990988731E+01
                       9.9568207339E+00  4.9226527366E+00  9.9568207339E+00
                       1.4990988731E+01  9.9568207339E+00  9.9568207339E+00
                       4.9226527366E+00  9.9568207339E+00  9.9568207339E+00
                       2.8625183496E-18 -1.1686440691E-18  3.2116414792E-18
            xcart2     4.9734269732E+00  4.9734269732E+00  4.9734269732E+00
                       1.4920280920E+01  1.4920280920E+01  1.4920280920E+01
                       9.9468539465E+00  1.4972201337E+01  9.9468539465E+00
                       9.9468539465E+00  9.9468539465E+00  4.9215065557E+00
                       9.9468539465E+00  9.9468539465E+00  1.4972201337E+01
                       9.9468539465E+00  4.9215065557E+00  9.9468539465E+00
                       1.4972201337E+01  9.9468539465E+00  9.9468539465E+00
                       4.9215065557E+00  9.9468539465E+00  9.9468539465E+00
                       2.6974640195E-18 -1.2972957555E-18  3.3345896771E-18
            xcart3     4.9684435795E+00  4.9684435795E+00  4.9684435795E+00
                       1.4905330739E+01  1.4905330739E+01  1.4905330739E+01
                       9.9368871590E+00  1.4953416953E+01  9.9368871590E+00
                       9.9368871590E+00  9.9368871590E+00  4.9203573648E+00
                       9.9368871590E+00  9.9368871590E+00  1.4953416953E+01
                       9.9368871590E+00  4.9203573648E+00  9.9368871590E+00
                       1.4953416953E+01  9.9368871590E+00  9.9368871590E+00
                       4.9203573648E+00  9.9368871590E+00  9.9368871590E+00
                       2.8450947692E-18 -1.1792745320E-18  3.1866640550E-18
            xcart4     4.9634601858E+00  4.9634601858E+00  4.9634601858E+00
                       1.4890380557E+01  1.4890380557E+01  1.4890380557E+01
                       9.9269203716E+00  1.4934674193E+01  9.9269203716E+00
                       9.9269203716E+00  9.9269203716E+00  4.9191665500E+00
                       9.9269203716E+00  9.9269203716E+00  1.4934674193E+01
                       9.9269203716E+00  4.9191665500E+00  9.9269203716E+00
                       1.4934674193E+01  9.9269203716E+00  9.9269203716E+00
                       4.9191665500E+00  9.9269203716E+00  9.9269203716E+00
                       2.9079336906E-18 -1.1109254265E-18  3.0499293156E-18
            xcart5     4.9584767921E+00  4.9584767921E+00  4.9584767921E+00
                       1.4875430376E+01  1.4875430376E+01  1.4875430376E+01
                       9.9169535841E+00  1.4915783064E+01  9.9169535841E+00
                       9.9169535841E+00  9.9169535841E+00  4.9181241042E+00
                       9.9169535841E+00  9.9169535841E+00  1.4915783064E+01
                       9.9169535841E+00  4.9181241042E+00  9.9169535841E+00
                       1.4915783064E+01  9.9169535841E+00  9.9169535841E+00
                       4.9181241042E+00  9.9169535841E+00  9.9169535841E+00
                       2.8393874578E-18 -1.1769088860E-18  3.1802715494E-18
            xcart6     4.9534933980E+00  4.9534933980E+00  4.9534933980E+00
                       1.4860480194E+01  1.4860480194E+01  1.4860480194E+01
                       9.9069867959E+00  1.4897094974E+01  9.9069867959E+00
                       9.9069867959E+00  9.9069867959E+00  4.9168786176E+00
                       9.9069867959E+00  9.9069867959E+00  1.4897094974E+01
                       9.9069867959E+00  4.9168786176E+00  9.9069867959E+00
                       1.4897094974E+01  9.9069867959E+00  9.9069867959E+00
                       4.9168786176E+00  9.9069867959E+00  9.9069867959E+00
                       2.8274559939E-18 -1.3131153194E-18  3.1963023036E-18
            xcart7     4.9485100042E+00  4.9485100042E+00  4.9485100042E+00
                       1.4845530013E+01  1.4845530013E+01  1.4845530013E+01
                       9.8970200085E+00  1.4878294683E+01  9.8970200085E+00
                       9.8970200085E+00  9.8970200085E+00  4.9157453344E+00
                       9.8970200085E+00  9.8970200085E+00  1.4878294683E+01
                       9.8970200085E+00  4.9157453344E+00  9.8970200085E+00
                       1.4878294683E+01  9.8970200085E+00  9.8970200085E+00
                       4.9157453344E+00  9.8970200085E+00  9.8970200085E+00
                       2.9387204182E-18 -1.3226166240E-18  3.2282511329E-18
            xcart8     4.9435266105E+00  4.9435266105E+00  4.9435266105E+00
                       1.4830579832E+01  1.4830579832E+01  1.4830579832E+01
                       9.8870532210E+00  1.4859582611E+01  9.8870532210E+00
                       9.8870532210E+00  9.8870532210E+00  4.9145238311E+00
                       9.8870532210E+00  9.8870532210E+00  1.4859582611E+01
                       9.8870532210E+00  4.9145238311E+00  9.8870532210E+00
                       1.4859582611E+01  9.8870532210E+00  9.8870532210E+00
                       4.9145238311E+00  9.8870532210E+00  9.8870532210E+00
                       2.9387400117E-18 -1.3242637138E-18  3.1971161000E-18
            xcart9     4.9385432168E+00  4.9385432168E+00  4.9385432168E+00
                       1.4815629650E+01  1.4815629650E+01  1.4815629650E+01
                       9.8770864336E+00  1.4840874106E+01  9.8770864336E+00
                       9.8770864336E+00  9.8770864336E+00  4.9132987609E+00
                       9.8770864336E+00  9.8770864336E+00  1.4840874106E+01
                       9.8770864336E+00  4.9132987609E+00  9.8770864336E+00
                       1.4840874106E+01  9.8770864336E+00  9.8770864336E+00
                       4.9132987609E+00  9.8770864336E+00  9.8770864336E+00
                       2.8279728347E-18 -1.1721775939E-18  3.1674865380E-18
            xcart10    4.9335598230E+00  4.9335598230E+00  4.9335598230E+00
                       1.4800679469E+01  1.4800679469E+01  1.4800679469E+01
                       9.8671196461E+00  1.4822203651E+01  9.8671196461E+00
                       9.8671196461E+00  9.8671196461E+00  4.9120356417E+00
                       9.8671196461E+00  9.8671196461E+00  1.4822203651E+01
                       9.8671196461E+00  4.9120356417E+00  9.8671196461E+00
                       1.4822203651E+01  9.8671196461E+00  9.8671196461E+00
                       4.9120356417E+00  9.8671196461E+00  9.8671196461E+00
                       2.8246068485E-18 -1.2096178547E-18  3.1705379698E-18
             xred1     2.5000000000E-01  2.5000000000E-01  2.5000000000E-01
                       7.5000000000E-01  7.5000000000E-01  7.5000000000E-01
                       7.5279997159E-01  2.4720002841E-01  7.5279997159E-01
                       2.4720002841E-01  2.4720002841E-01  7.5279997159E-01
                       7.5279997159E-01  7.5279997159E-01  2.4720002841E-01
                       2.4720002841E-01  7.5279997159E-01  2.4720002841E-01
                       2.4720002841E-01  7.5279997159E-01  7.5279997159E-01
                       7.5279997159E-01  2.4720002841E-01  2.4720002841E-01
                      -4.1153745827E-20  3.6371067088E-19 -7.6217461342E-20
             xred2     2.5000000000E-01  2.5000000000E-01  2.5000000000E-01
                       7.5000000000E-01  7.5000000000E-01  7.5000000000E-01
                       7.5260989142E-01  2.4739010858E-01  7.5260989142E-01
                       2.4739010858E-01  2.4739010858E-01  7.5260989142E-01
                       7.5260989142E-01  7.5260989142E-01  2.4739010858E-01
                       2.4739010858E-01  7.5260989142E-01  2.4739010858E-01
                       2.4739010858E-01  7.5260989142E-01  7.5260989142E-01
                       7.5260989142E-01  2.4739010858E-01  2.4739010858E-01
                      -3.3184869380E-20  3.6842550879E-19 -9.7237851461E-20
             xred3     2.5000000000E-01  2.5000000000E-01  2.5000000000E-01
                       7.5000000000E-01  7.5000000000E-01  7.5000000000E-01
                       7.5241958140E-01  2.4758041860E-01  7.5241958140E-01
                       2.4758041860E-01  2.4758041860E-01  7.5241958140E-01
                       7.5241958140E-01  7.5241958140E-01  2.4758041860E-01
                       2.4758041860E-01  7.5241958140E-01  2.4758041860E-01
                       2.4758041860E-01  7.5241958140E-01  7.5241958140E-01
                       7.5241958140E-01  2.4758041860E-01  2.4758041860E-01
                      -4.2151291083E-20  3.6284166464E-19 -7.6525162933E-20
             xred4     2.5000000000E-01  2.5000000000E-01  2.5000000000E-01
                       7.5000000000E-01  7.5000000000E-01  7.5000000000E-01
                       7.5223098575E-01  2.4776901425E-01  7.5223098575E-01
                       2.4776901425E-01  2.4776901425E-01  7.5223098575E-01
                       7.5223098575E-01  7.5223098575E-01  2.4776901425E-01
                       2.4776901425E-01  7.5223098575E-01  2.4776901425E-01
                       2.4776901425E-01  7.5223098575E-01  7.5223098575E-01
                       7.5223098575E-01  2.4776901425E-01  2.4776901425E-01
                      -4.8803141622E-20  3.5604135866E-19 -6.3107237926E-20
             xred5     2.5000000000E-01  2.5000000000E-01  2.5000000000E-01
                       7.5000000000E-01  7.5000000000E-01  7.5000000000E-01
                       7.5203453044E-01  2.4796546956E-01  7.5203453044E-01
                       2.4796546956E-01  2.4796546956E-01  7.5203453044E-01
                       7.5203453044E-01  7.5203453044E-01  2.4796546956E-01
                       2.4796546956E-01  7.5203453044E-01  2.4796546956E-01
                       2.4796546956E-01  7.5203453044E-01  7.5203453044E-01
                       7.5203453044E-01  2.4796546956E-01  2.4796546956E-01
                      -4.2151291083E-20  3.6284166464E-19 -7.6525162933E-20
             xred6     2.5000000000E-01  2.5000000000E-01  2.5000000000E-01
                       7.5000000000E-01  7.5000000000E-01  7.5000000000E-01
                       7.5184792718E-01  2.4815207282E-01  7.5184792718E-01
                       2.4815207282E-01  2.4815207282E-01  7.5184792718E-01
                       7.5184792718E-01  7.5184792718E-01  2.4815207282E-01
                       2.4815207282E-01  7.5184792718E-01  2.4815207282E-01
                       2.4815207282E-01  7.5184792718E-01  7.5184792718E-01
                       7.5184792718E-01  2.4815207282E-01  2.4815207282E-01
                      -4.7656720915E-20  3.7028784675E-19 -8.4887648676E-20
             xred7     2.5000000000E-01  2.5000000000E-01  2.5000000000E-01
                       7.5000000000E-01  7.5000000000E-01  7.5000000000E-01
                       7.5165527956E-01  2.4834472044E-01  7.5165527956E-01
                       2.4834472044E-01  2.4834472044E-01  7.5165527956E-01
                       7.5165527956E-01  7.5165527956E-01  2.4834472044E-01
                       2.4834472044E-01  7.5165527956E-01  2.4834472044E-01
                       2.4834472044E-01  7.5165527956E-01  7.5165527956E-01
                       7.5165527956E-01  2.4834472044E-01  2.4834472044E-01
                      -5.2191766228E-20  3.7837592370E-19 -8.1446098792E-20
             xred8     2.5000000000E-01  2.5000000000E-01  2.5000000000E-01
                       7.5000000000E-01  7.5000000000E-01  7.5000000000E-01
                       7.5146670493E-01  2.4853329507E-01  7.5146670493E-01
                       2.4853329507E-01  2.4853329507E-01  7.5146670493E-01
                       7.5146670493E-01  7.5146670493E-01  2.4853329507E-01
                       2.4853329507E-01  7.5146670493E-01  2.4853329507E-01
                       2.4853329507E-01  7.5146670493E-01  7.5146670493E-01
                       7.5146670493E-01  2.4853329507E-01  2.4853329507E-01
                      -5.3903200563E-20  3.7726710167E-19 -8.0035970610E-20
             xred9     2.5000000000E-01  2.5000000000E-01  2.5000000000E-01
                       7.5000000000E-01  7.5000000000E-01  7.5000000000E-01
                       7.5127793029E-01  2.4872206971E-01  7.5127793029E-01
                       2.4872206971E-01  2.4872206971E-01  7.5127793029E-01
                       7.5127793029E-01  7.5127793029E-01  2.4872206971E-01
                       2.4872206971E-01  7.5127793029E-01  2.4872206971E-01
                       2.4872206971E-01  7.5127793029E-01  7.5127793029E-01
                       7.5127793029E-01  2.4872206971E-01  2.4872206971E-01
                      -4.2151291083E-20  3.6284166464E-19 -7.6525162933E-20
             xred10    2.5000000000E-01  2.5000000000E-01  2.5000000000E-01
                       7.5000000000E-01  7.5000000000E-01  7.5000000000E-01
                       7.5109070236E-01  2.4890929764E-01  7.5109070236E-01
                       2.4890929764E-01  2.4890929764E-01  7.5109070236E-01
                       7.5109070236E-01  7.5109070236E-01  2.4890929764E-01
                       2.4890929764E-01  7.5109070236E-01  2.4890929764E-01
                       2.4890929764E-01  7.5109070236E-01  7.5109070236E-01
                       7.5109070236E-01  2.4890929764E-01  2.4890929764E-01
                      -4.3765899490E-20  3.6508945525E-19 -7.8824876548E-20
            znucl       55.00000   35.00000   72.00000

- Timing analysis has been suppressed with timopt=0

 Suggested references for the acknowledgment of ABINIT usage.

 Calculation completed.
.Delivered   0 WARNINGs and  10 COMMENTs to log file.