.Version 9.2.2 of ABINIT

 ABINIT is a project of the Universite Catholique de Louvain,
 Corning Inc. and other collaborators, see ~abinit/doc/developers/contributors.txt .
 acknowledgments of the ABINIT effort.

.Starting date : Wed  9 Nov 2022.
- ( at 16h11 )

- input  file    -> Cs2TiI6.in
- output file    -> Cs2TiI6.out
- root for input  files -> Cs2TiI6i
- root for output files -> Cs2TiI6o

- inpspheads : Reading pseudopotential header in XML form from
-   ../../../Psps_for_tests/ATOMICDATA/Cs.GGA_PBE-JTH.xml
- inpspheads : Reading pseudopotential header in XML form from
-   ../../../Psps_for_tests/ATOMICDATA/I.GGA_PBE-JTH.xml
- inpspheads : Reading pseudopotential header in XML form from
-   ../../../Psps_for_tests/ATOMICDATA/Hf.GGA_PBE-JTH.xml
- inpspheads : Reading pseudopotential header in XML form from
-   ../../../Psps_for_tests/ATOMICDATA/Cl.GGA_PBE-JTH.xml

 DATASET    1 : space group Fm m 2 (# 42); Bravais oF (face-center ortho.)
     intxc =       0    ionmov =       0      iscf =      17    lmnmax =      18
     lnmax =       6     mgfft =      54  mpssoang =       3    mqgrid =    3406
     natom =       9  nloc_mem =       2    nspden =       1   nspinor =       1
    nsppol =       1      nsym =       4    n1xccc =       1    ntypat =       4
    occopt =       1   xclevel =       2
-    mband =          42        mffmem =           1         mkmem =          70
       mpw =        6838          nfft =      157464          nkpt =         280
Pmy_natom=         3
 PAW method is used; the additional fine FFT grid is defined by:
   mgfftf=        90    nfftf =    729000
  Rough estimation (10% accuracy) of disk space for files :

[...]

 DATASET   10 : space group Fm m 2 (# 42); Bravais oF (face-center ortho.)
     intxc =       0    ionmov =       0      iscf =      17    lmnmax =      18
     lnmax =       6     mgfft =      54  mpssoang =       3    mqgrid =    3375
     natom =       9  nloc_mem =       2    nspden =       1   nspinor =       1
    nsppol =       1      nsym =       4    n1xccc =       1    ntypat =       4
    occopt =       1   xclevel =       2
-    mband =          42        mffmem =           1         mkmem =          70
       mpw =        6660          nfft =      157464          nkpt =         280
Pmy_natom=         3
 PAW method is used; the additional fine FFT grid is defined by:
   mgfftf=        90    nfftf =    729000
  Rough estimation (10% accuracy) of disk space for files :

------------- Echo of variables that govern the present computation ------------
-
- outvars: echo of selected default values
-   iomode0 =  0 , fftalg0 =112 , wfoptalg0 = 10
-
- outvars: echo of global parameters not present in the input file
-  max_nthreads =    0
-
 -outvars: echo values of preprocessed input variables --------
            acell1     1.4689253913E+01  1.4799496512E+01  1.4481134838E+01 Bohr
            acell2     1.4674679350E+01  1.4784998678E+01  1.4466248535E+01 Bohr
            acell3     1.4660893965E+01  1.4771147024E+01  1.4450086167E+01 Bohr
            acell4     1.4646252380E+01  1.4755991393E+01  1.4435827145E+01 Bohr
            acell5     1.4633223532E+01  1.4742138529E+01  1.4418978075E+01 Bohr
            acell6     1.4618973935E+01  1.4727717665E+01  1.4403730864E+01 Bohr
            acell7     1.4605269736E+01  1.4713162138E+01  1.4388103390E+01 Bohr
            acell8     1.4591782676E+01  1.4698186801E+01  1.4372639589E+01 Bohr
            acell9     1.4577611028E+01  1.4683356580E+01  1.4357674028E+01 Bohr
            acell10    1.4563498742E+01  1.4668687131E+01  1.4342516957E+01 Bohr
              amu      1.32905430E+02  1.26904470E+02  1.78490000E+02
                       3.54527000E+01
           diemac      1.20000000E+01
             ecut      1.60000000E+01 Hartree
-          fftalg         112
           istwfk        2    0    0    0    0    0    3    0    0    0
                         0    0    0    0    0    0    0    0    0    0
                         0    0    0    0    0    0    0    0    0    0
                         0    0    0    0    0    0    0    0    0    0
                         0    0    7    0    0    0    0    0    0    0
                       outvar_i_n : Printing only first  50 k-points.
              ixc     -101130
           jdtset        1    2    3    4    5    6    7    8    9   10
              kpt      0.00000000E+00  0.00000000E+00  0.00000000E+00
                       8.33333333E-02  0.00000000E+00  0.00000000E+00
                       1.66666667E-01  0.00000000E+00  0.00000000E+00
                       2.50000000E-01  0.00000000E+00  0.00000000E+00
                       3.33333333E-01  0.00000000E+00  0.00000000E+00
                       4.16666667E-01  0.00000000E+00  0.00000000E+00
                       5.00000000E-01  0.00000000E+00  0.00000000E+00
                       8.33333333E-02  8.33333333E-02  0.00000000E+00
                       1.66666667E-01  8.33333333E-02  0.00000000E+00
                       2.50000000E-01  8.33333333E-02  0.00000000E+00
                       3.33333333E-01  8.33333333E-02  0.00000000E+00
                       4.16666667E-01  8.33333333E-02  0.00000000E+00
                       5.00000000E-01  8.33333333E-02  0.00000000E+00
                      -4.16666667E-01  8.33333333E-02  0.00000000E+00
                      -3.33333333E-01  8.33333333E-02  0.00000000E+00
                      -2.50000000E-01  8.33333333E-02  0.00000000E+00
                      -1.66666667E-01  8.33333333E-02  0.00000000E+00
                      -8.33333333E-02  8.33333333E-02  0.00000000E+00
                       1.66666667E-01  1.66666667E-01  0.00000000E+00
                       2.50000000E-01  1.66666667E-01  0.00000000E+00
                       3.33333333E-01  1.66666667E-01  0.00000000E+00
                       4.16666667E-01  1.66666667E-01  0.00000000E+00
                       5.00000000E-01  1.66666667E-01  0.00000000E+00
                      -4.16666667E-01  1.66666667E-01  0.00000000E+00
                      -3.33333333E-01  1.66666667E-01  0.00000000E+00
                      -2.50000000E-01  1.66666667E-01  0.00000000E+00
                      -1.66666667E-01  1.66666667E-01  0.00000000E+00
                       2.50000000E-01  2.50000000E-01  0.00000000E+00
                       3.33333333E-01  2.50000000E-01  0.00000000E+00
                       4.16666667E-01  2.50000000E-01  0.00000000E+00
                       5.00000000E-01  2.50000000E-01  0.00000000E+00
                      -4.16666667E-01  2.50000000E-01  0.00000000E+00
                      -3.33333333E-01  2.50000000E-01  0.00000000E+00
                      -2.50000000E-01  2.50000000E-01  0.00000000E+00
                       3.33333333E-01  3.33333333E-01  0.00000000E+00
                       4.16666667E-01  3.33333333E-01  0.00000000E+00
                       5.00000000E-01  3.33333333E-01  0.00000000E+00
                      -4.16666667E-01  3.33333333E-01  0.00000000E+00
                      -3.33333333E-01  3.33333333E-01  0.00000000E+00
                       4.16666667E-01  4.16666667E-01  0.00000000E+00
                       5.00000000E-01  4.16666667E-01  0.00000000E+00
                      -4.16666667E-01  4.16666667E-01  0.00000000E+00
                       5.00000000E-01  5.00000000E-01  0.00000000E+00
                       8.33333333E-02  0.00000000E+00  8.33333333E-02
                       1.66666667E-01  0.00000000E+00  8.33333333E-02
                       2.50000000E-01  0.00000000E+00  8.33333333E-02
                       3.33333333E-01  0.00000000E+00  8.33333333E-02
                       4.16666667E-01  0.00000000E+00  8.33333333E-02
                       5.00000000E-01  0.00000000E+00  8.33333333E-02
                      -4.16666667E-01  0.00000000E+00  8.33333333E-02
                       outvar_i_n : Printing only first  50 k-points.
         kptrlatt       12    0    0      0   12    0      0    0   12
          kptrlen1     1.73773618E+02
          kptrlen2     1.73594982E+02
          kptrlen3     1.73401034E+02
          kptrlen4     1.73229926E+02
          kptrlen5     1.73027737E+02
          kptrlen6     1.72844770E+02
          kptrlen7     1.72657241E+02
          kptrlen8     1.72471675E+02
          kptrlen9     1.72292088E+02
          kptrlen10    1.72110203E+02
P           mkmem          70
            natom           9
            nband          42
           ndtset          10
            ngfft          54      54      54
          ngfftdg          90      90      90
             nkpt         280
            nstep        2500
             nsym           4
           ntypat           4
              occ      2.000000  2.000000  2.000000  2.000000  2.000000  2.000000
                       2.000000  2.000000  2.000000  2.000000  2.000000  2.000000
                       2.000000  2.000000  2.000000  2.000000  2.000000  2.000000
                       2.000000  2.000000  2.000000  2.000000  2.000000  2.000000
                       2.000000  2.000000  2.000000  2.000000  2.000000  2.000000
                       2.000000  2.000000  2.000000  2.000000  2.000000  2.000000
                       0.000000  0.000000  0.000000  0.000000  0.000000  0.000000
        pawecutdg      4.00000000E+01 Hartree
            prtwf           0
            rprim1     0.0000000000E+00  6.9166401161E-01  7.2221942306E-01
                       6.9723816097E-01  0.0000000000E+00  7.1683955449E-01
                       7.1256664949E-01  7.0160442561E-01  0.0000000000E+00
            rprim2     0.0000000000E+00  6.9162960703E-01  7.2225237049E-01
                       6.9721381642E-01  0.0000000000E+00  7.1686323256E-01
                       7.1257626540E-01  7.0159465932E-01  0.0000000000E+00
            rprim3     0.0000000000E+00  6.9150268794E-01  7.2237388697E-01
                       6.9709165143E-01  0.0000000000E+00  7.1698202872E-01
                       7.1258006038E-01  7.0159080492E-01  0.0000000000E+00
            rprim4     0.0000000000E+00  6.9153114975E-01  7.2234664042E-01
                       6.9709927985E-01  0.0000000000E+00  7.1697461184E-01
                       7.1255986037E-01  7.0161132073E-01  0.0000000000E+00
            rprim5     0.0000000000E+00  6.9137215525E-01  7.2249881864E-01
                       6.9690753285E-01  0.0000000000E+00  7.1716099354E-01
                       7.1252673657E-01  7.0164495984E-01  0.0000000000E+00
            rprim6     0.0000000000E+00  6.9131660619E-01  7.2255197045E-01
                       6.9684996806E-01  0.0000000000E+00  7.1721692814E-01
                       7.1252439267E-01  7.0164734008E-01  0.0000000000E+00
            rprim7     0.0000000000E+00  6.9125031210E-01  7.2261539288E-01
                       6.9674755816E-01  0.0000000000E+00  7.1731641567E-01
                       7.1248861057E-01  7.0168367504E-01  0.0000000000E+00
            rprim8     0.0000000000E+00  6.9121333579E-01  7.2265076242E-01
                       6.9664162169E-01  0.0000000000E+00  7.1741929924E-01
                       7.1242089022E-01  7.0175243155E-01  0.0000000000E+00
[...]
                      -8.2556927615E-12 -6.3370702771E-12  1.0888414107E-01
           xangst7     2.7123929797E+00  2.6712593660E+00  2.7929639898E+00
                       8.1371789391E+00  8.0137780981E+00  8.3778964012E+00
                       5.4247859595E+00  8.2503378896E+00  5.6596455498E+00
                       5.4247859595E+00  5.3425187321E+00  2.5457332125E+00
                       5.4247859593E+00  5.3425187320E+00  8.4100961635E+00
                       5.4247859593E+00  2.4346995745E+00  5.6596455497E+00
                       8.0001257683E+00  5.3425187321E+00  5.5622415753E+00
                       2.8494461504E+00  5.3425187320E+00  5.5622415754E+00
                      -3.1753683536E-12 -1.2186227498E-12  1.0899527402E-01
           xangst8     2.7092202705E+00  2.6686498650E+00  2.7899278063E+00
                       8.1276608116E+00  8.0059495951E+00  8.3699759899E+00
                       5.4184405413E+00  8.2400336550E+00  5.6551885729E+00
                       5.4184405413E+00  5.3372997302E+00  2.5460183591E+00
                       5.4184405408E+00  5.3372997300E+00  8.4016172688E+00
                       5.4184405408E+00  2.4345658052E+00  5.6551885726E+00
                       7.9884775923E+00  5.3372997302E+00  5.5565734034E+00
                       2.8484034898E+00  5.3372997300E+00  5.5565734036E+00
                      -9.6178675416E-12 -4.0010506513E-12  1.0932209280E-01
           xangst9     2.7062966583E+00  2.6659753076E+00  2.7866949588E+00
                       8.1188899748E+00  7.9979259227E+00  8.3614820442E+00
                       5.4125933166E+00  8.2295464394E+00  5.6502167476E+00
                       5.4125933166E+00  5.3319506153E+00  2.5463388713E+00
                       5.4125933164E+00  5.3319506150E+00  8.3925044875E+00
                       5.4125933164E+00  2.4343547908E+00  5.6502167476E+00
                       7.9776283042E+00  5.3319506152E+00  5.5505602664E+00
                       2.8475583288E+00  5.3319506150E+00  5.5505602663E+00
                      -5.0387115069E-12 -5.6879083392E-12  1.0972229379E-01
           xangst10    2.7033568082E+00  2.6632450227E+00  2.7838011067E+00
                       8.1100704247E+00  7.9897350681E+00  8.3534771408E+00
                       5.4067136166E+00  8.2187771167E+00  5.6454320384E+00
                       5.4067136166E+00  5.3264900454E+00  2.5464581841E+00
                       5.4067136163E+00  5.3264900453E+00  8.3834921333E+00
                       5.4067136163E+00  2.4342029741E+00  5.6454320382E+00
                       7.9669022190E+00  5.3264900454E+00  5.5446945261E+00
                       2.8465250139E+00  5.3264900453E+00  5.5446945262E+00
                      -6.3881622372E-12 -2.6344296086E-12  1.0992657928E-01
            xcart1     5.1593868659E+00  5.0800141448E+00  5.3102910117E+00
                       1.5478160598E+01  1.5240042434E+01  1.5919155498E+01
                       1.0318773732E+01  1.5717332619E+01  1.0744865276E+01
                       1.0318773732E+01  1.0160028290E+01  4.8089896424E+00
                       1.0318773732E+01  1.0160028289E+01  1.5989205715E+01
                       1.0318773732E+01  4.6027239602E+00  1.0744865276E+01
                       1.5242900705E+01  1.0160028290E+01  1.0575081254E+01
                       5.3946467587E+00  1.0160028289E+01  1.0575081254E+01
                      -9.7556972970E-12 -1.1238696214E-11  2.0338096402E-01
            xcart2     5.1541526774E+00  5.0747213562E+00  5.3053091929E+00
                       1.5462458032E+01  1.5224164069E+01  1.5904131139E+01
                       1.0308305355E+01  1.5696454572E+01  1.0734839519E+01
                       1.0308305355E+01  1.0149442712E+01  4.8091042510E+00
                       1.0308305354E+01  1.0149442712E+01  1.5971124397E+01
                       1.0308305354E+01  4.6024308528E+00  1.0734839519E+01
                       1.5223590901E+01  1.0149442712E+01  1.0563834585E+01
                       5.3930198083E+00  1.0149442712E+01  1.0563834586E+01
                      -1.3112606647E-11 -4.0334339088E-12  2.0355838051E-01
            xcart3     5.1484216365E+00  5.0690237924E+00  5.2998061538E+00
                       1.5445264909E+01  1.5207071377E+01  1.5890453114E+01
                       1.0296843273E+01  1.5673957638E+01  1.0728232029E+01
                       1.0296843273E+01  1.0138047585E+01  4.8095405669E+00
                       1.0296843273E+01  1.0138047585E+01  1.5956802117E+01
                       1.0296843273E+01  4.6021375310E+00  1.0728232029E+01
                       1.5202394870E+01  1.0138047585E+01  1.0554007302E+01
                       5.3912916758E+00  1.0138047585E+01  1.0554007302E+01
                      -8.6872423087E-12 -6.4372063543E-12  2.0409506621E-01
            xcart4     5.1431954871E+00  5.0641698742E+00  5.2943293611E+00
                       1.5429586461E+01  1.5192509623E+01  1.5874000562E+01
                       1.0286390974E+01  1.5654755827E+01  1.0717029163E+01
                       1.0286390974E+01  1.0128339749E+01  4.8098183431E+00
                       1.0286390974E+01  1.0128339748E+01  1.5937320706E+01
                       1.0286390974E+01  4.6019236699E+00  1.0717029163E+01
                       1.5183143508E+01  1.0128339749E+01  1.0541641663E+01
                       5.3896384405E+00  1.0128339748E+01  1.0541641663E+01
                      -1.1925464379E-11 -1.1246843170E-11  2.0455898697E-01
            xcart5     5.1369536959E+00  5.0585016460E+00  5.2892461414E+00
                       1.5410861088E+01  1.5175504938E+01  1.5861732856E+01
                       1.0273907392E+01  1.5632453956E+01  1.0711516973E+01
                       1.0273907392E+01  1.0117003292E+01  4.8100633010E+00
                       1.0273907391E+01  1.0117003292E+01  1.5925017259E+01
                       1.0273907391E+01  4.6015526284E+00  1.0711516973E+01
                       1.5159861044E+01  1.0117003292E+01  1.0532927739E+01
                       5.3879537398E+00  1.0117003292E+01  1.0532927739E+01
                      -1.2365646856E-11 -7.6895169445E-12  2.0494473534E-01
            xcart6     5.1315047926E+00  5.0531697237E+00  5.2828431280E+00
                       1.5394514378E+01  1.5159509171E+01  1.5845811550E+01
                       1.0263009586E+01  1.5611431240E+01  1.0703323499E+01
                       1.0263009586E+01  1.0106339448E+01  4.8106398188E+00
                       1.0263009585E+01  1.0106339447E+01  1.5908605498E+01
                       1.0263009585E+01  4.6012476543E+00  1.0703323498E+01
                       1.5139679811E+01  1.0106339448E+01  1.0521719590E+01
                       5.3863393599E+00  1.0106339447E+01  1.0521719590E+01
                      -1.5600998356E-11 -1.1975327309E-11  2.0576120683E-01
            xcart7     5.1256798964E+00  5.0479486317E+00  5.2779370398E+00
                       1.5377039689E+01  1.5143845895E+01  1.5831929768E+01
                       1.0251359793E+01  1.5590879115E+01  1.0695180098E+01
                       1.0251359793E+01  1.0095897263E+01  4.8107385789E+00
                       1.0251359793E+01  1.0095897263E+01  1.5892778500E+01
                       1.0251359793E+01  4.6009154117E+00  1.0695180098E+01
                       1.5118046731E+01  1.0095897263E+01  1.0511113262E+01
                       5.3846728548E+00  1.0095897263E+01  1.0511113262E+01
                      -6.0005765594E-12 -2.3028632564E-12  2.0597121767E-01
            xcart8     5.1196843449E+00  5.0430173895E+00  5.2721994844E+00
                       1.5359053035E+01  1.5129052168E+01  1.5816962360E+01
                       1.0239368690E+01  1.5571406934E+01  1.0686757633E+01
                       1.0239368690E+01  1.0086034779E+01  4.8112774280E+00
                       1.0239368689E+01  1.0086034779E+01  1.5876755711E+01
                       1.0239368689E+01  4.6006626243E+00  1.0686757632E+01
                       1.5096034868E+01  1.0086034779E+01  1.0500401970E+01
                       5.3827025117E+00  1.0086034779E+01  1.0500401970E+01
                      -1.8175135636E-11 -7.5608899747E-12  2.0658881567E-01
            xcart9     5.1141595184E+00  5.0379632083E+00  5.2660902880E+00
                       1.5342478555E+01  1.5113889625E+01  1.5800911129E+01
                       1.0228319037E+01  1.5551588968E+01  1.0677362244E+01
                       1.0228319037E+01  1.0075926417E+01  4.8118831083E+00
                       1.0228319037E+01  1.0075926416E+01  1.5859535050E+01
                       1.0228319037E+01  4.6002638650E+00  1.0677362244E+01
                       1.5075532685E+01  1.0075926417E+01  1.0489038787E+01
                       5.3811053888E+00  1.0075926416E+01  1.0489038787E+01
                      -9.5217848106E-12 -1.0748589030E-11  2.0734508593E-01
            xcart10    5.1086040070E+00  5.0328037177E+00  5.2606217000E+00
                       1.5325812021E+01  1.5098411153E+01  1.5785784053E+01
                       1.0217208014E+01  1.5531237898E+01  1.0668320454E+01
                       1.0217208014E+01  1.0065607435E+01  4.8121085767E+00
                       1.0217208014E+01  1.0065607435E+01  1.5842504169E+01
                       1.0217208014E+01  4.5999769729E+00  1.0668320454E+01
                       1.5055263321E+01  1.0065607435E+01  1.0477954145E+01
                       5.3791527067E+00  1.0065607435E+01  1.0477954145E+01
                      -1.2071877121E-11 -4.9783504766E-12  2.0773112956E-01
             xred1     2.5027612609E-01  2.5027612609E-01  2.4972387391E-01
                       7.5027612609E-01  7.5027612609E-01  7.4972387391E-01
                       7.7989839606E-01  2.3292114649E-01  7.6707885351E-01
                       2.2664959330E-01  2.2664959330E-01  7.7335040670E-01
                       7.5357762067E-01  7.5357762067E-01  2.4642237933E-01
                       2.3292114649E-01  7.7989839606E-01  2.2010160394E-01
                       2.5980738799E-01  7.3700817765E-01  7.4019261201E-01
                       7.3700817765E-01  2.5980738799E-01  2.6299182235E-01
                       9.5854256733E-03  9.5854256733E-03 -9.5854256733E-03
             xred2     2.5027824884E-01  2.5027824884E-01  2.4972175116E-01
                       7.5027824884E-01  7.5027824884E-01  7.4972175116E-01
                       7.7968345587E-01  2.3314981686E-01  7.6685018314E-01
                       2.2686975380E-01  2.2686975380E-01  7.7313024620E-01
                       7.5343865941E-01  7.5343865941E-01  2.4656134059E-01
                       2.3314981686E-01  7.7968345587E-01  2.2031654413E-01
                       2.5993561873E-01  7.3676332001E-01  7.4006438127E-01
                       7.3676332001E-01  2.5993561873E-01  2.6323667999E-01
                       9.6028776381E-03  9.6028776381E-03 -9.6028776381E-03
             xred3     2.5021163362E-01  2.5021163362E-01  2.4978836638E-01
                       7.5021163362E-01  7.5021163362E-01  7.4978836638E-01
                       7.7952203185E-01  2.3346915456E-01  7.6653084544E-01
                       2.2706547509E-01  2.2706547509E-01  7.7293452491E-01
                       7.5334406752E-01  7.5334406752E-01  2.4665593248E-01
                       2.3346915456E-01  7.7952203185E-01  2.2047796815E-01
                       2.6006361009E-01  7.3647676576E-01  7.3993638991E-01
                       7.3647676576E-01  2.6006361009E-01  2.6352323424E-01
                       9.6356278790E-03  9.6356278790E-03 -9.6356278790E-03
             xred4     2.5021237713E-01  2.5021237713E-01  2.4978762287E-01
                       7.5021237713E-01  7.5021237713E-01  7.4978762287E-01
                       7.7931104482E-01  2.3367215278E-01  7.6632784722E-01
                       2.2731416939E-01  2.2731416939E-01  7.7268583061E-01
                       7.5320491547E-01  7.5320491547E-01  2.4679508453E-01
                       2.3367215278E-01  7.7931104482E-01  2.2068895518E-01
                       2.6018178466E-01  7.3622362926E-01  7.3981821534E-01
                       7.3622362926E-01  2.6018178466E-01  2.6377637074E-01
                       9.6675493539E-03  9.6675493539E-03 -9.6675493539E-03
             xred5     2.5014200936E-01  2.5014200936E-01  2.4985799064E-01
                       7.5014200936E-01  7.5014200936E-01  7.4985799064E-01
                       7.7915831712E-01  2.3399187757E-01  7.6600812243E-01
                       2.2748022442E-01  2.2748022442E-01  7.7251977558E-01
                       7.5313489099E-01  7.5313489099E-01  2.4686510901E-01
                       2.3399187757E-01  7.7915831712E-01  2.2084168288E-01
                       2.6034456763E-01  7.3591374162E-01  7.3965543237E-01
                       7.3591374162E-01  2.6034456763E-01  2.6408625838E-01
                       9.6923619236E-03  9.6923619236E-03 -9.6923619236E-03
             xred6     2.5006432457E-01  2.5006432457E-01  2.4993567543E-01
                       7.5006432457E-01  7.5006432457E-01  7.4993567543E-01
                       7.7900207868E-01  2.3428538658E-01  7.6571461342E-01
                       2.2771249645E-01  2.2771249645E-01  7.7228750355E-01
                       7.5303668733E-01  7.5303668733E-01  2.4696331267E-01
                       2.3428538658E-01  7.7900207868E-01  2.2099792132E-01
                       2.6046267593E-01  7.3563228235E-01  7.3953732407E-01
                       7.3563228235E-01  2.6046267593E-01  2.6436771765E-01
                       9.7397435362E-03  9.7397435362E-03 -9.7397435362E-03
             xred7     2.5004456492E-01  2.5004456492E-01  2.4995543508E-01
                       7.5004456492E-01  7.5004456492E-01  7.4995543508E-01
                       7.7882816380E-01  2.3454946243E-01  7.6545053757E-01
                       2.2791083445E-01  2.2791083445E-01  7.7208916555E-01
                       7.5292730010E-01  7.5292730010E-01  2.4707269990E-01
                       2.3454946243E-01  7.7882816380E-01  2.2117183620E-01
                       2.6060069367E-01  7.3533643960E-01  7.3939930633E-01
                       7.3533643960E-01  2.6060069367E-01  2.6466356040E-01
                       9.7579761031E-03  9.7579761031E-03 -9.7579761031E-03
             xred8     2.4999137234E-01  2.4999137234E-01  2.5000862766E-01
                       7.4999137234E-01  7.4999137234E-01  7.5000862766E-01
                       7.7866202361E-01  2.3480387966E-01  7.6519612034E-01
                       2.2813587583E-01  2.2813587583E-01  7.7186412417E-01
                       7.5282658790E-01  7.5282658790E-01  2.4717341210E-01
                       2.3480387966E-01  7.7866202361E-01  2.2133797639E-01
                       2.6074001898E-01  7.3505306750E-01  7.3925998102E-01
                       7.3505306750E-01  2.6074001898E-01  2.6494693250E-01
                       9.7958018643E-03  9.7958018643E-03 -9.7958018643E-03
             xred9     2.4993734434E-01  2.4993734434E-01  2.5006265566E-01
                       7.4993734434E-01  7.4993734434E-01  7.5006265566E-01
                       7.7848530507E-01  2.3504519592E-01  7.6495480408E-01
                       2.2837992127E-01  2.2837992127E-01  7.7162007873E-01
                       7.5271973251E-01  7.5271973251E-01  2.4728026749E-01
                       2.3504519592E-01  7.7848530507E-01  2.2151469493E-01
                       2.6087646010E-01  7.3477775616E-01  7.3912353990E-01
                       7.3477775616E-01  2.6087646010E-01  2.6522224384E-01
                       9.8409403001E-03  9.8409403001E-03 -9.8409403001E-03
             xred10    2.4990691466E-01  2.4990691466E-01  2.5009308534E-01
                       7.4990691466E-01  7.4990691466E-01  7.5009308534E-01
                       7.7830103441E-01  2.3530047557E-01  7.6469952443E-01
                       2.2860020659E-01  2.2860020659E-01  7.7139979341E-01
                       7.5260141541E-01  7.5260141541E-01  2.4739858459E-01
                       2.3530047557E-01  7.7830103441E-01  2.2169896559E-01
                       2.6099721909E-01  7.3451750963E-01  7.3900278091E-01
                       7.3451750963E-01  2.6099721909E-01  2.6548249037E-01
                       9.8683099883E-03  9.8683099883E-03 -9.8683099883E-03
            znucl       55.00000   53.00000   72.00000   17.00000

- Timing analysis has been suppressed with timopt=0

 Suggested references for the acknowledgment of ABINIT usage.

 Calculation completed.
.Delivered   0 WARNINGs and   0 COMMENTs to log file.