.Version 9.2.2 of ABINIT

 ABINIT is a project of the Universite Catholique de Louvain,
 Corning Inc. and other collaborators, see ~abinit/doc/developers/contributors.txt .
 acknowledgments of the ABINIT effort.

.Starting date : Fri 14 Jul 2023.
- ( at 18h44 )

- The starting date is more than 2 years after the initial release
- of this version of ABINIT, namely Nov 2020.
- Note that the use beyond 3 years after the release will not be supported.
- Action: please, switch to a more recent version of ABINIT.

- input  file    -> Cs2TiI6.in
- output file    -> Cs2TiI6.out
- root for input  files -> Cs2TiI6i
- root for output files -> Cs2TiI6o

 Symmetries : space group Fm m 2 (# 42); Bravais oF (face-center ortho.)
     intxc =       0    ionmov =       0      iscf =      17    lmnmax =       8
     lnmax =       8     mgfft =      64  mpssoang =       4    mqgrid =    3001
     natom =       9  nloc_mem =       1    nspden =       1   nspinor =       1
    nsppol =       1      nsym =       4    n1xccc =    2501    ntypat =       4
    occopt =       1   xclevel =       2
-    mband =          42        mffmem =           1         mkmem =          47
       mpw =       11528          nfft =      262144          nkpt =         280
  Rough estimation (10% accuracy) of disk space for files :

------------- Echo of variables that govern the present computation ------------
-
- outvars: echo of selected default values
-   iomode0 =  0 , fftalg0 =112 , wfoptalg0 =  0
-
- outvars: echo of global parameters not present in the input file
-  max_nthreads =    0
-
 -outvars: echo values of preprocessed input variables --------
            acell      1.5546298368E+01  1.5720170163E+01  1.5547594142E+01 Bohr
              amu      1.32905430E+02  1.26904470E+02  1.78490000E+02
                       7.99040000E+01
           diemac      1.20000000E+01
             ecut      2.00000000E+01 Hartree
-          fftalg         112
             iscf          17
           istwfk        2    0    0    0    0    0    3    0    0    0
                         0    0    0    0    0    0    0    0    0    0
                         0    0    0    0    0    0    0    0    0    0
                         0    0    0    0    0    0    0    0    0    0
                         0    0    7    0    0    0    0    0    0    0
                       outvar_i_n : Printing only first  50 k-points.
              ixc          32
              kpt      0.00000000E+00  0.00000000E+00  0.00000000E+00
                       8.33333333E-02  0.00000000E+00  0.00000000E+00
                       1.66666667E-01  0.00000000E+00  0.00000000E+00
                       2.50000000E-01  0.00000000E+00  0.00000000E+00
                       3.33333333E-01  0.00000000E+00  0.00000000E+00
                       4.16666667E-01  0.00000000E+00  0.00000000E+00
                       5.00000000E-01  0.00000000E+00  0.00000000E+00
                       8.33333333E-02  8.33333333E-02  0.00000000E+00
                       1.66666667E-01  8.33333333E-02  0.00000000E+00
                       2.50000000E-01  8.33333333E-02  0.00000000E+00
                       3.33333333E-01  8.33333333E-02  0.00000000E+00
                       4.16666667E-01  8.33333333E-02  0.00000000E+00
                       5.00000000E-01  8.33333333E-02  0.00000000E+00
                      -4.16666667E-01  8.33333333E-02  0.00000000E+00
                      -3.33333333E-01  8.33333333E-02  0.00000000E+00
                      -2.50000000E-01  8.33333333E-02  0.00000000E+00
                      -1.66666667E-01  8.33333333E-02  0.00000000E+00
                      -8.33333333E-02  8.33333333E-02  0.00000000E+00
                       1.66666667E-01  1.66666667E-01  0.00000000E+00
                       2.50000000E-01  1.66666667E-01  0.00000000E+00
                       3.33333333E-01  1.66666667E-01  0.00000000E+00
                       4.16666667E-01  1.66666667E-01  0.00000000E+00
                       5.00000000E-01  1.66666667E-01  0.00000000E+00
                      -4.16666667E-01  1.66666667E-01  0.00000000E+00
                      -3.33333333E-01  1.66666667E-01  0.00000000E+00
                      -2.50000000E-01  1.66666667E-01  0.00000000E+00
                      -1.66666667E-01  1.66666667E-01  0.00000000E+00
                       2.50000000E-01  2.50000000E-01  0.00000000E+00
                       3.33333333E-01  2.50000000E-01  0.00000000E+00
                       4.16666667E-01  2.50000000E-01  0.00000000E+00
                       5.00000000E-01  2.50000000E-01  0.00000000E+00
                      -4.16666667E-01  2.50000000E-01  0.00000000E+00
                      -3.33333333E-01  2.50000000E-01  0.00000000E+00
                      -2.50000000E-01  2.50000000E-01  0.00000000E+00
                       3.33333333E-01  3.33333333E-01  0.00000000E+00
                       4.16666667E-01  3.33333333E-01  0.00000000E+00
                       5.00000000E-01  3.33333333E-01  0.00000000E+00
                      -4.16666667E-01  3.33333333E-01  0.00000000E+00
                      -3.33333333E-01  3.33333333E-01  0.00000000E+00
                       4.16666667E-01  4.16666667E-01  0.00000000E+00
                       5.00000000E-01  4.16666667E-01  0.00000000E+00
                      -4.16666667E-01  4.16666667E-01  0.00000000E+00
                       5.00000000E-01  5.00000000E-01  0.00000000E+00
                       8.33333333E-02  0.00000000E+00  8.33333333E-02
                       1.66666667E-01  0.00000000E+00  8.33333333E-02
                       2.50000000E-01  0.00000000E+00  8.33333333E-02
                       3.33333333E-01  0.00000000E+00  8.33333333E-02
                       4.16666667E-01  0.00000000E+00  8.33333333E-02
                       5.00000000E-01  0.00000000E+00  8.33333333E-02
                      -4.16666667E-01  0.00000000E+00  8.33333333E-02
                       outvar_i_n : Printing only first  50 k-points.
         kptrlatt       12    0    0      0   12    0      0    0   12
          kptrlen      1.86555580E+02
P           mkmem          47
            natom           9
            nband          42
            ngfft          64      64      64
             nkpt         280
            nstep        2500
             nsym           4
           ntypat           4
              occ      2.000000  2.000000  2.000000  2.000000  2.000000  2.000000
                       2.000000  2.000000  2.000000  2.000000  2.000000  2.000000
                       2.000000  2.000000  2.000000  2.000000  2.000000  2.000000
                       2.000000  2.000000  2.000000  2.000000  2.000000  2.000000
                       2.000000  2.000000  2.000000  2.000000  2.000000  2.000000
                       2.000000  2.000000  2.000000  2.000000  2.000000  2.000000
                       0.000000  0.000000  0.000000  0.000000  0.000000  0.000000
            rprim      0.0000000000E+00  6.9916856495E-01  7.1495686428E-01
                       7.0716442159E-01  0.0000000000E+00  7.0704913608E-01
                       7.1501384324E-01  6.9911029457E-01  0.0000000000E+00
          spgroup          42
           symrel      1  0  0   0  1  0   0  0  1       1  0  0   1  0 -1   1 -1  0
                       0  1 -1   1  0 -1   0  0 -1       0  1 -1   0  1  0  -1  1  0
           toldfe      1.00000000E-08 Hartree
            typat      1  1  4  4  2  4  2  2  3
              wtk        0.00058    0.00463    0.00463    0.00463    0.00463    0.00463
                         0.00231    0.00116    0.00463    0.00463    0.00463    0.00463
                         0.00463    0.00463    0.00463    0.00463    0.00463    0.00231
                         0.00116    0.00463    0.00463    0.00463    0.00463    0.00463
                         0.00463    0.00463    0.00231    0.00116    0.00463    0.00463
                         0.00463    0.00463    0.00463    0.00231    0.00116    0.00463
                         0.00463    0.00463    0.00231    0.00116    0.00463    0.00231
                         0.00058    0.00116    0.00463    0.00463    0.00463    0.00463
                         0.00463    0.00463
                       outvars : Printing only first  50 k-points.
           xangst      2.9413640546E+00  2.8759413682E+00  2.9501663699E+00
                       8.8240921638E+00  8.6278241047E+00  8.8319354470E+00
                       5.8827281092E+00  8.8948158823E+00  5.9102604073E+00
                       5.8827281092E+00  5.7518827365E+00  2.6703804346E+00
                       5.8827281092E+00  5.7518827364E+00  8.9344583670E+00
                       5.8827281092E+00  2.6089495905E+00  5.9102604074E+00
                       8.8830902250E+00  5.7518827365E+00  5.8925283404E+00
                       2.8823659934E+00  5.7518827364E+00  5.8925283403E+00
                       1.9807351140E-14 -6.3586985244E-13  6.1634502656E-02
            xcart      5.5583725203E+00  5.4347415602E+00  5.5750064855E+00
                       1.6675117561E+01  1.6304224681E+01  1.6689939218E+01
                       1.1116745041E+01  1.6808766020E+01  1.1168773544E+01
                       1.1116745041E+01  1.0869483120E+01  5.0462876920E+00
                       1.1116745041E+01  1.0869483120E+01  1.6883679459E+01
                       1.1116745041E+01  4.9302002206E+00  1.1168773544E+01
                       1.6786607739E+01  1.0869483120E+01  1.1135264794E+01
                       5.4468823423E+00  1.0869483120E+01  1.1135264793E+01
                       3.7430469072E-14 -1.2016198773E-12  1.1647233036E-01
             xred      2.5078903398E-01  2.5078903398E-01  2.4921096602E-01
                       7.5078903398E-01  7.5078903398E-01  7.4921096602E-01
                       7.7563108039E-01  2.2921292656E-01  7.7078707344E-01
                       2.2700486874E-01  2.2700486874E-01  7.7299513126E-01
                       7.5950434724E-01  7.5950434724E-01  2.4049565276E-01
                       2.2921292656E-01  7.7563108039E-01  2.2436891961E-01
                       2.4590011278E-01  7.5592914354E-01  7.5409988722E-01
                       7.5592914354E-01  2.4590011278E-01  2.4407085646E-01
                       5.2394527776E-03  5.2394527776E-03 -5.2394527776E-03
            znucl       55.00000   53.00000   72.00000   35.00000

 chkinp: Checking input parameters for consistency.

== DATASET  1 ==================================================================
-   mpi_nproc: 6, omp_nthreads: -1 (-1 if OMP is not activated)

--- !DatasetInfo
iteration_state: {dtset: 1, }
dimensions: {natom: 9, nkpt: 280, mband: 42, nsppol: 1, nspinor: 1, nspden: 1, mpw: 11528, }
cutoff_energies: {ecut:  20.0, pawecutdg:  -1.0, }
electrons: {nelect:   7.20000000E+01, charge:   0.00000000E+00, occopt:   1.00000000E+00, tsmear:   1.00000000E-02, }
meta: {optdriver: 0, ionmov: 0, optcell: 0, iscf: 17, paral_kgb: 0, }
...

 Exchange-correlation functional for the present dataset will be:
  Meta-GGA fake2 - ixc=32

 Real(R)+Recip(G) space primitive vectors, cartesian coordinates (Bohr,Bohr^-1):
[...]
- [ -5.04665774E-14,   4.38128130E-03,   2.70691289E-04, ]
- [  8.86576891E-14,  -9.06743839E-14,  -4.55046454E-03, ]
- [ -5.61679902E-14,   5.74455501E-14,   2.88288534E-03, ]
- [  3.99190179E-14,  -4.38128130E-03,   2.70691289E-04, ]
- [  3.16172529E-03,   6.63603573E-15,   2.80878116E-04, ]
- [ -3.16172529E-03,   4.55773688E-15,   2.80878116E-04, ]
- [ -1.61819060E-14,   1.65499865E-14,   8.30555999E-04, ]
force_length_stats: {min:   1.33057806E-04, max:   4.55046454E-03, mean:   2.62862737E-03, }
...

 Integrated electronic density in atomic spheres:
 Atom  Sphere_radius  Integrated_density
    1        2.00000          4.42996654
    2        2.00000          4.42996654
    3        2.00000          4.19934833
    4        2.00000          4.22496081
    5        2.00000          2.85807007
    6        2.00000          4.19934833
    7        2.00000          2.85836766
    8        2.00000          2.85836766
    9        2.00000          8.28043624

 ----iterations are completed or convergence reached----

 Mean square residual over all n,k,spin=   12.234E-07; max=  44.440E-05
 reduced coordinates (array xred) for    9 atoms
       0.250789033980      0.250789033980      0.249210966020
       0.750789033980      0.750789033980      0.749210966020
       0.775631080390      0.229212926560      0.770787073440
       0.227004868740      0.227004868740      0.772995131260
       0.759504347240      0.759504347240      0.240495652760
       0.229212926560      0.775631080390      0.224368919610
       0.245900112780      0.755929143540      0.754099887220
       0.755929143540      0.245900112780      0.244070856460
       0.005239452778      0.005239452778     -0.005239452778
 rms dE/dt=  2.8178E-02; max dE/dt=  5.0578E-02; dE/dt below (all hartree)
    1       0.001479035563      0.001479035563      0.000000000000
    2       0.001479035563      0.001479035563      0.000000000000
    3      -0.050630871556     -0.003008608474     -0.047622263083
    4       0.050578214283      0.050578214283      0.000000000000
    5      -0.032042969679     -0.032042969679      0.000000000000
    6       0.044613654609     -0.003008608474      0.047622263083
    7      -0.003121834372     -0.038269928285     -0.035148093913
    8      -0.003121834372      0.032026259542      0.035148093913
    9      -0.009231467057     -0.009231467057      0.000000000000

 cartesian coordinates (angstrom) at end:
    1      2.94136405459855     2.87594136822237     2.95016636987036
    2      8.82409216379565     8.62782410466729     8.83193544695375
    3      5.88272810919607     8.89481588233951     5.91026040730845
    4      5.88272810919606     5.75188273647805     2.67038043460461
    5      5.88272810919808     5.75188273641343     8.93445836701327
    6      5.88272810919814     2.60894959054975     5.91026040743370
    7      8.88309022495550     5.75188273647576     5.89252834039888
    8      2.88236599343870     5.75188273641386     5.89252834028197
    9      0.00000000000002    -0.00000000000064     0.06163450265625

 cartesian forces (hartree/bohr) at end:
    1      0.00000000000000    -0.00000000000000    -0.00013305780616
    2      0.00000000000000    -0.00000000000000    -0.00013305780616
    3     -0.00000000000005     0.00438128129512     0.00027069128933
    4      0.00000000000009    -0.00000000000009    -0.00455046454186
    5     -0.00000000000006     0.00000000000006     0.00288288534423
    6      0.00000000000004    -0.00438128129511     0.00027069128924
    7      0.00316172528784     0.00000000000001     0.00028087811640
    8     -0.00316172528785     0.00000000000000     0.00028087811640
    9     -0.00000000000002     0.00000000000002     0.00083055599857
 frms,max,avg= 1.8097635E-03 4.5504645E-03   0.000E+00  0.000E+00 -9.627E-09 h/b

 cartesian forces (eV/Angstrom) at end:
    1      0.00000000000013    -0.00000000000014    -0.00684210691641
    2      0.00000000000013    -0.00000000000014    -0.00684210691641
    3     -0.00000000000260     0.22529452362040     0.01391950458537
    4      0.00000000000456    -0.00000000000466    -0.23399427522527
    5     -0.00000000000289     0.00000000000295     0.14824391234710
    6      0.00000000000205    -0.22529452361984     0.01391950458073
    7      0.16258243754788     0.00000000000034     0.01444333225086
    8     -0.16258243754844     0.00000000000023     0.01444333225096
    9     -0.00000000000083     0.00000000000085     0.04270890304308
 frms,max,avg= 9.3061773E-02 2.3399428E-01   0.000E+00  0.000E+00 -4.950E-07 e/A
 length scales= 15.546298368000 15.720170163000 15.547594142000 bohr
              =  8.226746774286  8.318755765416  8.227432468354 angstroms
 prteigrs : about to open file Cs2TiI6o_EIG
 Fermi (or HOMO) energy (hartree) =   0.02945   Average Vxc (hartree)=  -0.29592
 Eigenvalues (hartree) for nkpt= 280  k points:
 kpt#   1, nband= 42, wtk=  0.00058, kpt=  0.0000  0.0000  0.0000 (reduced coord)
  -2.29304   -1.11529   -1.11519   -1.11485   -0.72116   -0.72103   -0.48261   -0.47371
  -0.47118   -0.38671   -0.37888   -0.37466   -0.23997   -0.23921   -0.23894   -0.23746
  -0.23742   -0.23729   -0.12152   -0.07027   -0.06931   -0.06321   -0.06297   -0.06151
  -0.05801   -0.05566   -0.04211   -0.01724   -0.01241   -0.01143    0.00628    0.01018
   0.01400    0.01607    0.01833    0.02945    0.11421    0.11871    0.12244    0.16011
   0.18294    0.18947
 prteigrs : prtvol=0 or 1, do not print more k-points.

--- !EnergyTerms
iteration_state     : {dtset: 1, }
comment             : Components of total free energy in Hartree
kinetic             :  4.68039766191701E+01
hartree             :  4.05015341801390E+01
xc                  : -5.59145501710205E+01
Ewald energy        : -1.13771793209057E+02
psp_core            :  4.28966934510661E+00
local_psp           : -1.33814582606725E+02
non_local_psp       :  2.17514996417258E+01
total_energy        : -1.90154246200661E+02
...

--- !EnergyTermsDC
iteration_state     : {dtset: 1, }
comment             : '"Double-counting" decomposition of free energy'
band_energy         : -2.33898079849005E+01
Ewald energy        : -1.13771793209057E+02
psp_core            :  4.28966934510661E+00
xc_dc               : -5.72823276729406E+01
total_energy_dc     : -1.90154259521791E+02
...

 Cartesian components of stress tensor (hartree/bohr^3)
  sigma(1 1)= -6.10743533E-04  sigma(3 2)=  2.99221350E-14
  sigma(2 2)= -6.05979678E-04  sigma(3 1)= -1.95772090E-14
  sigma(3 3)= -6.08422597E-04  sigma(2 1)= -9.89804556E-15

-Cartesian components of stress tensor (GPa)         [Pressure=  1.7899E+01 GPa]
- sigma(1 1)= -1.79686921E+01  sigma(3 2)=  8.80339458E-10
- sigma(2 2)= -1.78285346E+01  sigma(3 1)= -5.75981278E-10
- sigma(3 3)= -1.79004078E+01  sigma(2 1)= -2.91210505E-10

== END DATASET(S) ==============================================================

 -outvars: echo values of variables after computation  --------
            acell      1.5546298368E+01  1.5720170163E+01  1.5547594142E+01 Bohr
              amu      1.32905430E+02  1.26904470E+02  1.78490000E+02
                       7.99040000E+01
           diemac      1.20000000E+01
             ecut      2.00000000E+01 Hartree
           etotal     -1.9015425952E+02
            fcart      2.5923620616E-15 -2.6513166159E-15 -1.3305780616E-04
                       2.5923523087E-15 -2.6513066412E-15 -1.3305780616E-04
                      -5.0466577361E-14  4.3812812951E-03  2.7069128933E-04
                       8.8657689140E-14 -9.0674383889E-14 -4.5504645419E-03
                      -5.6167990169E-14  5.7445550138E-14  2.8828853442E-03
                       3.9919017883E-14 -4.3812812951E-03  2.7069128924E-04
                       3.1617252878E-03  6.6360357276E-15  2.8087811640E-04
                      -3.1617252879E-03  4.5577368798E-15  2.8087811640E-04
                      -1.6181906012E-14  1.6549986531E-14  8.3055599857E-04
-          fftalg         112
             iscf          17
           istwfk        2    0    0    0    0    0    3    0    0    0
                         0    0    0    0    0    0    0    0    0    0
                         0    0    0    0    0    0    0    0    0    0
                         0    0    0    0    0    0    0    0    0    0
                         0    0    7    0    0    0    0    0    0    0
                       outvar_i_n : Printing only first  50 k-points.
              ixc          32
              kpt      0.00000000E+00  0.00000000E+00  0.00000000E+00
                       8.33333333E-02  0.00000000E+00  0.00000000E+00
                       1.66666667E-01  0.00000000E+00  0.00000000E+00
                       2.50000000E-01  0.00000000E+00  0.00000000E+00
                       3.33333333E-01  0.00000000E+00  0.00000000E+00
                       4.16666667E-01  0.00000000E+00  0.00000000E+00
                       5.00000000E-01  0.00000000E+00  0.00000000E+00
                       8.33333333E-02  8.33333333E-02  0.00000000E+00
                       1.66666667E-01  8.33333333E-02  0.00000000E+00
                       2.50000000E-01  8.33333333E-02  0.00000000E+00
                       3.33333333E-01  8.33333333E-02  0.00000000E+00
                       4.16666667E-01  8.33333333E-02  0.00000000E+00
                       5.00000000E-01  8.33333333E-02  0.00000000E+00
                      -4.16666667E-01  8.33333333E-02  0.00000000E+00
                      -3.33333333E-01  8.33333333E-02  0.00000000E+00
                      -2.50000000E-01  8.33333333E-02  0.00000000E+00
                      -1.66666667E-01  8.33333333E-02  0.00000000E+00
                      -8.33333333E-02  8.33333333E-02  0.00000000E+00
                       1.66666667E-01  1.66666667E-01  0.00000000E+00
                       2.50000000E-01  1.66666667E-01  0.00000000E+00
                       3.33333333E-01  1.66666667E-01  0.00000000E+00
                       4.16666667E-01  1.66666667E-01  0.00000000E+00
                       5.00000000E-01  1.66666667E-01  0.00000000E+00
                      -4.16666667E-01  1.66666667E-01  0.00000000E+00
                      -3.33333333E-01  1.66666667E-01  0.00000000E+00
                      -2.50000000E-01  1.66666667E-01  0.00000000E+00
                      -1.66666667E-01  1.66666667E-01  0.00000000E+00
                       2.50000000E-01  2.50000000E-01  0.00000000E+00
                       3.33333333E-01  2.50000000E-01  0.00000000E+00
                       4.16666667E-01  2.50000000E-01  0.00000000E+00
                       5.00000000E-01  2.50000000E-01  0.00000000E+00
                      -4.16666667E-01  2.50000000E-01  0.00000000E+00
                      -3.33333333E-01  2.50000000E-01  0.00000000E+00
                      -2.50000000E-01  2.50000000E-01  0.00000000E+00
                       3.33333333E-01  3.33333333E-01  0.00000000E+00
                       4.16666667E-01  3.33333333E-01  0.00000000E+00
                       5.00000000E-01  3.33333333E-01  0.00000000E+00
                      -4.16666667E-01  3.33333333E-01  0.00000000E+00
                      -3.33333333E-01  3.33333333E-01  0.00000000E+00
                       4.16666667E-01  4.16666667E-01  0.00000000E+00
                       5.00000000E-01  4.16666667E-01  0.00000000E+00
                      -4.16666667E-01  4.16666667E-01  0.00000000E+00
                       5.00000000E-01  5.00000000E-01  0.00000000E+00
                       8.33333333E-02  0.00000000E+00  8.33333333E-02
                       1.66666667E-01  0.00000000E+00  8.33333333E-02
                       2.50000000E-01  0.00000000E+00  8.33333333E-02
                       3.33333333E-01  0.00000000E+00  8.33333333E-02
                       4.16666667E-01  0.00000000E+00  8.33333333E-02
                       5.00000000E-01  0.00000000E+00  8.33333333E-02
                      -4.16666667E-01  0.00000000E+00  8.33333333E-02
                       outvar_i_n : Printing only first  50 k-points.
         kptrlatt       12    0    0      0   12    0      0    0   12
          kptrlen      1.86555580E+02
P           mkmem          47
            natom           9
            nband          42
            ngfft          64      64      64
             nkpt         280
            nstep        2500
             nsym           4
           ntypat           4
              occ      2.000000  2.000000  2.000000  2.000000  2.000000  2.000000
                       2.000000  2.000000  2.000000  2.000000  2.000000  2.000000
                       2.000000  2.000000  2.000000  2.000000  2.000000  2.000000
                       2.000000  2.000000  2.000000  2.000000  2.000000  2.000000
                       2.000000  2.000000  2.000000  2.000000  2.000000  2.000000
                       2.000000  2.000000  2.000000  2.000000  2.000000  2.000000
                       0.000000  0.000000  0.000000  0.000000  0.000000  0.000000
            rprim      0.0000000000E+00  6.9916856495E-01  7.1495686428E-01
                       7.0716442159E-01  0.0000000000E+00  7.0704913608E-01
                       7.1501384324E-01  6.9911029457E-01  0.0000000000E+00
          spgroup          42
           strten     -6.1074353300E-04 -6.0597967759E-04 -6.0842259748E-04
                       2.9922135045E-14 -1.9577209014E-14 -9.8980455633E-15
           symrel      1  0  0   0  1  0   0  0  1       1  0  0   1  0 -1   1 -1  0
                       0  1 -1   1  0 -1   0  0 -1       0  1 -1   0  1  0  -1  1  0
           toldfe      1.00000000E-08 Hartree
            typat      1  1  4  4  2  4  2  2  3
              wtk        0.00058    0.00463    0.00463    0.00463    0.00463    0.00463
                         0.00231    0.00116    0.00463    0.00463    0.00463    0.00463
                         0.00463    0.00463    0.00463    0.00463    0.00463    0.00231
                         0.00116    0.00463    0.00463    0.00463    0.00463    0.00463
                         0.00463    0.00463    0.00231    0.00116    0.00463    0.00463
                         0.00463    0.00463    0.00463    0.00231    0.00116    0.00463
                         0.00463    0.00463    0.00231    0.00116    0.00463    0.00231
                         0.00058    0.00116    0.00463    0.00463    0.00463    0.00463
                         0.00463    0.00463
                       outvars : Printing only first  50 k-points.
           xangst      2.9413640546E+00  2.8759413682E+00  2.9501663699E+00
                       8.8240921638E+00  8.6278241047E+00  8.8319354470E+00
                       5.8827281092E+00  8.8948158823E+00  5.9102604073E+00
                       5.8827281092E+00  5.7518827365E+00  2.6703804346E+00
                       5.8827281092E+00  5.7518827364E+00  8.9344583670E+00
                       5.8827281092E+00  2.6089495905E+00  5.9102604074E+00
                       8.8830902250E+00  5.7518827365E+00  5.8925283404E+00
                       2.8823659934E+00  5.7518827364E+00  5.8925283403E+00
                       1.9807351140E-14 -6.3586985244E-13  6.1634502656E-02
            xcart      5.5583725203E+00  5.4347415602E+00  5.5750064855E+00
                       1.6675117561E+01  1.6304224681E+01  1.6689939218E+01
                       1.1116745041E+01  1.6808766020E+01  1.1168773544E+01
                       1.1116745041E+01  1.0869483120E+01  5.0462876920E+00
                       1.1116745041E+01  1.0869483120E+01  1.6883679459E+01
                       1.1116745041E+01  4.9302002206E+00  1.1168773544E+01
                       1.6786607739E+01  1.0869483120E+01  1.1135264794E+01
                       5.4468823423E+00  1.0869483120E+01  1.1135264793E+01
                       3.7430469072E-14 -1.2016198773E-12  1.1647233036E-01
             xred      2.5078903398E-01  2.5078903398E-01  2.4921096602E-01
                       7.5078903398E-01  7.5078903398E-01  7.4921096602E-01
                       7.7563108039E-01  2.2921292656E-01  7.7078707344E-01
                       2.2700486874E-01  2.2700486874E-01  7.7299513126E-01
                       7.5950434724E-01  7.5950434724E-01  2.4049565276E-01
                       2.2921292656E-01  7.7563108039E-01  2.2436891961E-01
                       2.4590011278E-01  7.5592914354E-01  7.5409988722E-01
                       7.5592914354E-01  2.4590011278E-01  2.4407085646E-01
                       5.2394527776E-03  5.2394527776E-03 -5.2394527776E-03
            znucl       55.00000   53.00000   72.00000   35.00000

- Timing analysis has been suppressed with timopt=0

 Suggested references for the acknowledgment of ABINIT usage.

 Calculation completed.
.Delivered   0 WARNINGs and   0 COMMENTs to log file.