.Version 9.2.2 of ABINIT

 ABINIT is a project of the Universite Catholique de Louvain,
 Corning Inc. and other collaborators, see ~abinit/doc/developers/contributors.txt .
 acknowledgments of the ABINIT effort.

.Starting date : Mon 21 Nov 2022.
- ( at 00h03 )

- input  file    -> Cs2TiI6.in
- output file    -> Cs2TiI6.out
- root for input  files -> Cs2TiI6i
- root for output files -> Cs2TiI6o

- inpspheads : Reading pseudopotential header in XML form from
-   ../../../Psps_for_tests/ATOMICDATA/Cs.GGA_PBE-JTH.xml
- inpspheads : Reading pseudopotential header in XML form from
-   ../../../Psps_for_tests/ATOMICDATA/I.GGA_PBE-JTH.xml
- inpspheads : Reading pseudopotential header in XML form from
-   ../../../Psps_for_tests/ATOMICDATA/Hf.GGA_PBE-JTH.xml
- inpspheads : Reading pseudopotential header in XML form from
-   ../../../Psps_for_tests/ATOMICDATA/Br.GGA_PBE-JTH.xml

 DATASET    1 : space group I4 m m (#107); Bravais tI (body-center tetrag.)
     intxc =       0    ionmov =       2      iscf =      17    lmnmax =      18
     lnmax =       6     mgfft =      60  mpssoang =       3    mqgrid =    3863
     natom =       9  nloc_mem =       2    nspden =       1   nspinor =       1
    nsppol =       1      nsym =       8    n1xccc =       1    ntypat =       4
    occopt =       1   xclevel =       2
-    mband =          42        mffmem =           1         mkmem =           4
       mpw =        9933          nfft =      216000          nkpt =          20
Pmy_natom=         2
 PAW method is used; the additional fine FFT grid is defined by:
   mgfftf=        96    nfftf =    884736
  Rough estimation (10% accuracy) of disk space for files :

[...]

 DATASET   10 : space group I4 m m (#107); Bravais tI (body-center tetrag.)
     intxc =       0    ionmov =       2      iscf =      17    lmnmax =      18
     lnmax =       6     mgfft =      60  mpssoang =       3    mqgrid =    3828
     natom =       9  nloc_mem =       2    nspden =       1   nspinor =       1
    nsppol =       1      nsym =       8    n1xccc =       1    ntypat =       4
    occopt =       1   xclevel =       2
-    mband =          42        mffmem =           1         mkmem =           4
       mpw =        9672          nfft =      216000          nkpt =          20
Pmy_natom=         2
 PAW method is used; the additional fine FFT grid is defined by:
   mgfftf=        96    nfftf =    884736
  Rough estimation (10% accuracy) of disk space for files :

------------- Echo of variables that govern the present computation ------------
-
- outvars: echo of selected default values
-   iomode0 =  0 , fftalg0 =112 , wfoptalg0 = 10
-
- outvars: echo of global parameters not present in the input file
-  max_nthreads =    0
-
 -outvars: echo values of preprocessed input variables --------
            acell1     1.4441455612E+01  1.4462993934E+01  1.4441455612E+01 Bohr
            acell2     1.4426999701E+01  1.4448516462E+01  1.4426999701E+01 Bohr
            acell3     1.4412543789E+01  1.4434038991E+01  1.4412543789E+01 Bohr
            acell4     1.4398087878E+01  1.4419561519E+01  1.4398087878E+01 Bohr
            acell5     1.4383631966E+01  1.4405084048E+01  1.4383631966E+01 Bohr
            acell6     1.4369176055E+01  1.4390606577E+01  1.4369176055E+01 Bohr
            acell7     1.4354720143E+01  1.4376129105E+01  1.4354720143E+01 Bohr
            acell8     1.4340264232E+01  1.4361651634E+01  1.4340264232E+01 Bohr
            acell9     1.4325808320E+01  1.4347174162E+01  1.4325808320E+01 Bohr
            acell10    1.4311352409E+01  1.4332696691E+01  1.4311352409E+01 Bohr
              amu      1.32905430E+02  1.26904470E+02  1.78490000E+02
                       7.99040000E+01
           diemac      1.20000000E+01
          dilatmx      1.15000000E+00
             ecut      1.60000000E+01 Hartree
           ecutsm      5.00000000E-01 Hartree
-          fftalg         112
          getxred1          0
          getxred2         -1
          getxred3         -1
          getxred4         -1
          getxred5         -1
          getxred6         -1
          getxred7         -1
          getxred8         -1
          getxred9         -1
          getxred10        -1
           ionmov           2
              ixc     -101130
           jdtset        1    2    3    4    5    6    7    8    9   10
              kpt      0.00000000E+00 -1.25000000E-01  0.00000000E+00
                       0.00000000E+00 -3.75000000E-01  0.00000000E+00
                       1.25000000E-01 -2.50000000E-01  0.00000000E+00
                       1.25000000E-01 -1.25000000E-01  1.25000000E-01
                       1.25000000E-01  5.00000000E-01  0.00000000E+00
                       2.50000000E-01 -3.75000000E-01  0.00000000E+00
                       1.25000000E-01 -3.75000000E-01  1.25000000E-01
                       2.50000000E-01 -2.50000000E-01  1.25000000E-01
                       2.50000000E-01 -1.25000000E-01  2.50000000E-01
                       1.25000000E-01  2.50000000E-01  0.00000000E+00
                       2.50000000E-01  3.75000000E-01  0.00000000E+00
                       3.75000000E-01  5.00000000E-01  0.00000000E+00
                       1.25000000E-01  3.75000000E-01  1.25000000E-01
                       2.50000000E-01  5.00000000E-01  1.25000000E-01
                       3.75000000E-01 -3.75000000E-01  1.25000000E-01
                       2.50000000E-01 -3.75000000E-01  2.50000000E-01
                       3.75000000E-01 -2.50000000E-01  2.50000000E-01
                       3.75000000E-01 -1.25000000E-01  3.75000000E-01
                       5.00000000E-01  2.50000000E-01  1.25000000E-01
                      -3.75000000E-01  3.75000000E-01  1.25000000E-01
         kptrlatt        4    4   -4     -4    4    4      4   -4    4
          kptrlen1     8.15711884E+01
          kptrlen2     8.14895356E+01
          kptrlen3     8.14078827E+01
          kptrlen4     8.13262299E+01
          kptrlen5     8.12445771E+01
          kptrlen6     8.11629242E+01
          kptrlen7     8.10812714E+01
          kptrlen8     8.09996185E+01
          kptrlen9     8.09179657E+01
          kptrlen10    8.08363129E+01
P           mkmem           4
            natom           9
            nband          42
           ndtset          10
            ngfft          60      60      60
          ngfftdg          96      96      96
             nkpt          20
            nstep          50
             nsym           8
            ntime        1000
           ntypat           4
              occ      2.000000  2.000000  2.000000  2.000000  2.000000  2.000000
                       2.000000  2.000000  2.000000  2.000000  2.000000  2.000000
                       2.000000  2.000000  2.000000  2.000000  2.000000  2.000000
                       2.000000  2.000000  2.000000  2.000000  2.000000  2.000000
                       2.000000  2.000000  2.000000  2.000000  2.000000  2.000000
                       2.000000  2.000000  2.000000  2.000000  2.000000  2.000000
                       0.000000  0.000000  0.000000  0.000000  0.000000  0.000000
          optcell           3
        optforces           1
        pawecutdg      4.00000000E+01 Hartree
            prtwf           0
            rprim      0.0000000000E+00  7.0605061057E-01  7.0816137660E-01
                       7.0710678119E-01  0.0000000000E+00  7.0710678119E-01
                       7.0816137660E-01  7.0605061057E-01  0.0000000000E+00
           shiftk     -5.00000000E-01  5.00000000E-01  5.00000000E-01
          spgroup         107
           symrel      1  0  0   0  1  0   0  0  1       0  0  1   0  1  0   1  0  0
                       0 -1  1   0 -1  0   1 -1  0       1 -1  0   0 -1  0   0 -1  1
                       0 -1  1  -1  0  1   0  0  1       0  0  1  -1  0  1   0 -1  1
                       1  0  0   1  0 -1   1 -1  0       1 -1  0   1  0 -1   1  0  0
           toldff      1.00000000E-08
           tolmxf      1.00000000E-05
            typat      1  1  2  4  4  4  4  4  3
           useylm           1
              wtk        0.03125    0.03125    0.06250    0.03125    0.06250    0.06250
                         0.03125    0.06250    0.03125    0.06250    0.06250    0.06250
                         0.03125    0.06250    0.06250    0.03125    0.06250    0.03125
                         0.06250    0.06250
           xangst1     2.7059161930E+00  2.7225447403E+00  2.7059161930E+00
                       8.1177485791E+00  8.1182464641E+00  8.1177485791E+00
                       5.4118323860E+00  7.9971062193E+00  5.4118323860E+00
                       5.4118323860E+00  5.4024398254E+00  2.6058378043E+00
                       5.4118323861E+00  5.4024398254E+00  8.2178269678E+00
                       5.4118323861E+00  2.6603267971E+00  5.4118323861E+00
                       8.2178269678E+00  5.4024398254E+00  5.4118323861E+00
                       2.6058378043E+00  5.4024398254E+00  5.4118323860E+00
                      -3.2798289655E-13  5.7630268094E-02 -3.2798289655E-13
           xangst2     2.7032075682E+00  2.7198194703E+00  2.7032075682E+00
                       8.1096227046E+00  8.1101200913E+00  8.1096227046E+00
                       5.4064151364E+00  7.9891011080E+00  5.4064151364E+00
                       5.4064151364E+00  5.3970319777E+00  2.6032293580E+00
                       5.4064151364E+00  5.3970319777E+00  8.2096009148E+00
                       5.4064151364E+00  2.6576638073E+00  5.4064151364E+00
                       8.2096009148E+00  5.3970319777E+00  5.4064151364E+00
                       2.6032293580E+00  5.3970319777E+00  5.4064151364E+00
                      -3.2765043111E-13  5.7572580138E-02 -3.2765043111E-13
           xangst3     2.7004989434E+00  2.7170942003E+00  2.7004989434E+00
                       8.1014968302E+00  8.1019937184E+00  8.1014968302E+00
                       5.4009978868E+00  7.9810959967E+00  5.4009978868E+00
                       5.4009978868E+00  5.3916241300E+00  2.6006209118E+00
                       5.4009978868E+00  5.3916241300E+00  8.2013748618E+00
                       5.4009978868E+00  2.6550008175E+00  5.4009978868E+00
                       8.2013748618E+00  5.3916241300E+00  5.4009978868E+00
                       2.6006209118E+00  5.3916241300E+00  5.4009978868E+00
                      -3.2731429376E-13  5.7514892182E-02 -3.2731429376E-13
           xangst4     2.6977903186E+00  2.7143689303E+00  2.6977903186E+00
                       8.0933709557E+00  8.0938673456E+00  8.0933709557E+00
                       5.3955806371E+00  7.9730908853E+00  5.3955806371E+00
                       5.3955806371E+00  5.3862162824E+00  2.5980124655E+00
                       5.3955806371E+00  5.3862162824E+00  8.1931488088E+00
                       5.3955806371E+00  2.6523378277E+00  5.3955806371E+00
                       8.1931488088E+00  5.3862162824E+00  5.3955806371E+00
                       2.5980124655E+00  5.3862162824E+00  5.3955806371E+00
                      -3.2699183602E-13  5.7457204226E-02 -3.2699183602E-13
[...]
                      -3.3330024693E-13  5.8797901066E-02 -3.3328528840E-13
           xangst7     2.6887466115E+00  2.7069613442E+00  2.6887466115E+00
                       8.0662398345E+00  8.0739187131E+00  8.0662398345E+00
                       5.3774932230E+00  7.9451842746E+00  5.3774932230E+00
                       5.3774932230E+00  5.3723923099E+00  2.6052272957E+00
                       5.3774932230E+00  5.3723923099E+00  8.1497591503E+00
                       5.3774932230E+00  2.6612197760E+00  5.3774932230E+00
                       8.1497591503E+00  5.3723923099E+00  5.3774932230E+00
                       2.6052272957E+00  5.3723923099E+00  5.3774932230E+00
                      -3.3372238856E-13  5.8805603971E-02 -3.3433340294E-13
           xangst8     2.6860462326E+00  2.7042464760E+00  2.6860462326E+00
                       8.0581386979E+00  8.0657698249E+00  8.0581386979E+00
                       5.3720924653E+00  7.9354617113E+00  5.3720924653E+00
                       5.3720924653E+00  5.3667491683E+00  2.6046401970E+00
                       5.3720924653E+00  5.3667491683E+00  8.1395447336E+00
                       5.3720924653E+00  2.6608425219E+00  5.3720924653E+00
                       8.1395447336E+00  5.3667491683E+00  5.3720924653E+00
                       2.6046401970E+00  5.3667491683E+00  5.3720924653E+00
                      -3.3351499910E-13  5.8869583638E-02 -3.3411608072E-13
           xangst9     2.6834043219E+00  2.7010673595E+00  2.6834043219E+00
                       8.0502129656E+00  8.0569232859E+00  8.0502129656E+00
                       5.3668086437E+00  7.9254989606E+00  5.3668086437E+00
                       5.3668086437E+00  5.3608783959E+00  2.6041046983E+00
                       5.3668086438E+00  5.3608783959E+00  8.1295125891E+00
                       5.3668086438E+00  2.6606801247E+00  5.3668086438E+00
                       8.1295125891E+00  5.3608783959E+00  5.3668086438E+00
                       2.6041046983E+00  5.3608783959E+00  5.3668086437E+00
                      -3.3758469316E-13  5.9164096896E-02 -3.3758988511E-13
           xangst10    2.6805800531E+00  2.6982009472E+00  2.6805800531E+00
                       8.0417401593E+00  8.0491174344E+00  8.0417401593E+00
                       5.3611601062E+00  7.9169583449E+00  5.3611601062E+00
                       5.3611601062E+00  5.3557762721E+00  2.6036294830E+00
                       5.3611601062E+00  5.3557762721E+00  8.1186907293E+00
                       5.3611601062E+00  2.6605403377E+00  5.3611601062E+00
                       8.1186907293E+00  5.3557762721E+00  5.3611601062E+00
                       2.6036294830E+00  5.3557762721E+00  5.3611601062E+00
                      -3.3792812098E-13  5.9409745774E-02 -3.3793333930E-13
            xcart1     5.1133239607E+00  5.1447482180E+00  5.1133239607E+00
                       1.5339971882E+01  1.5341611727E+01  1.5339971882E+01
                       1.0226647921E+01  1.5110110026E+01  1.0226647921E+01
                       1.0226647921E+01  1.0209220524E+01  4.9283690200E+00
                       1.0226647921E+01  1.0209220524E+01  1.5524926823E+01
                       1.0226647921E+01  5.0321197529E+00  1.0226647921E+01
                       1.5524926823E+01  1.0209220524E+01  1.0226647921E+01
                       4.9283690200E+00  1.0209220524E+01  1.0226647921E+01
                      -6.2278960479E-13  1.0943625167E-01 -6.2278960479E-13
            xcart2     5.1079618999E+00  5.1394492710E+00  5.1079618999E+00
                       1.5323885700E+01  1.5327077415E+01  1.5323885700E+01
                       1.0215923800E+01  1.5094211618E+01  1.0215923800E+01
                       1.0215923800E+01  1.0199618662E+01  4.9277294220E+00
                       1.0215923800E+01  1.0199618662E+01  1.5504118178E+01
                       1.0215923800E+01  5.0318899637E+00  1.0215923800E+01
                       1.5504118178E+01  1.0199618662E+01  1.0215923800E+01
                       4.9277294220E+00  1.0199618662E+01  1.0215923800E+01
                      -6.2492964527E-13  1.0992223503E-01 -6.2578915270E-13
            xcart3     5.1019421951E+00  5.1359315770E+00  5.1019421951E+00
                       1.5305826585E+01  1.5316948668E+01  1.5305826585E+01
                       1.0203884390E+01  1.5082842032E+01  1.0203884390E+01
                       1.0203884390E+01  1.0192867437E+01  4.9268834152E+00
                       1.0203884390E+01  1.0192867437E+01  1.5480885365E+01
                       1.0203884390E+01  5.0310528834E+00  1.0203884390E+01
                       1.5480885365E+01  1.0192867437E+01  1.0203884390E+01
                       4.9268834152E+00  1.0192867437E+01  1.0203884390E+01
                      -6.2487135421E-13  1.0989181943E-01 -6.2602265023E-13
            xcart4     5.0972941570E+00  5.1298952164E+00  5.0972941570E+00
                       1.5291882471E+01  1.5298828096E+01  1.5291882471E+01
                       1.0194588314E+01  1.5061142281E+01  1.0194588314E+01
                       1.0194588314E+01  1.0180195205E+01  4.9259389198E+00
                       1.0194588314E+01  1.0180195205E+01  1.5463237708E+01
                       1.0194588314E+01  5.0305411402E+00  1.0194588314E+01
                       1.5463237708E+01  1.0180195205E+01  1.0194588314E+01
                       4.9259389198E+00  1.0180195205E+01  1.0194588314E+01
                      -6.2600697288E-13  1.1027548767E-01 -6.2715806299E-13
            xcart5     5.0916000222E+00  5.1252197416E+00  5.0916000222E+00
                       1.5274800067E+01  1.5286242917E+01  1.5274800067E+01
                       1.0183200044E+01  1.5047574241E+01  1.0183200044E+01
                       1.0183200044E+01  1.0172066030E+01  4.9250638316E+00
                       1.0183200044E+01  1.0172066030E+01  1.5441336257E+01
                       1.0183200044E+01  5.0303002595E+00  1.0183200044E+01
                       1.5441336257E+01  1.0172066030E+01  1.0183200044E+01
                       4.9250638316E+00  1.0172066030E+01  1.0183200044E+01
                      -6.2684381743E-13  1.1058412099E-01 -6.2683498491E-13
            xcart6     5.0864472463E+00  5.1193726101E+00  5.0864472463E+00
                       1.5259341739E+01  1.5270325752E+01  1.5259341739E+01
                       1.0172894493E+01  1.5029961022E+01  1.0172894493E+01
                       1.0172894493E+01  1.0161742281E+01  4.9240911263E+00
                       1.0172894493E+01  1.0161742281E+01  1.5421697859E+01
                       1.0172894493E+01  5.0298847018E+00  1.0172894493E+01
                       1.5421697859E+01  1.0161742281E+01  1.0172894493E+01
                       4.9240911263E+00  1.0161742281E+01  1.0172894493E+01
                      -6.2984618671E-13  1.1111193020E-01 -6.2981791920E-13
            xcart7     5.0809947365E+00  5.1154155928E+00  5.0809947365E+00
                       1.5242984209E+01  1.5257495187E+01  1.5242984209E+01
                       1.0161989473E+01  1.5014222354E+01  1.0161989473E+01
                       1.0161989473E+01  1.0152350144E+01  4.9231661027E+00
                       1.0161989473E+01  1.0152350144E+01  1.5400812843E+01
                       1.0161989473E+01  5.0289765561E+00  1.0161989473E+01
                       1.5400812843E+01  1.0152350144E+01  1.0161989473E+01
                       4.9231661027E+00  1.0152350144E+01  1.0161989473E+01
                      -6.3064391879E-13  1.1112648658E-01 -6.3179856863E-13
            xcart8     5.0758917600E+00  5.1102852355E+00  5.0758917600E+00
                       1.5227675280E+01  1.5242096020E+01  1.5227675280E+01
                       1.0151783520E+01  1.4995849372E+01  1.0151783520E+01
                       1.0151783520E+01  1.0141686152E+01  4.9220566471E+00
                       1.0151783520E+01  1.0141686152E+01  1.5381510393E+01
                       1.0151783520E+01  5.0282636491E+00  1.0151783520E+01
                       1.5381510393E+01  1.0141686152E+01  1.0151783520E+01
                       4.9220566471E+00  1.0141686152E+01  1.0151783520E+01
                      -6.3025200951E-13  1.1124739063E-01 -6.3138788915E-13
            xcart9     5.0708992721E+00  5.1042775759E+00  5.0708992721E+00
                       1.5212697816E+01  1.5225378484E+01  1.5212697816E+01
                       1.0141798544E+01  1.4977022502E+01  1.0141798544E+01
                       1.0141798544E+01  1.0130592000E+01  4.9210447012E+00
                       1.0141798544E+01  1.0130592000E+01  1.5362552387E+01
                       1.0141798544E+01  5.0279567629E+00  1.0141798544E+01
                       1.5362552387E+01  1.0130592000E+01  1.0141798544E+01
                       4.9210447012E+00  1.0130592000E+01  1.0141798544E+01
                      -6.3794261673E-13  1.1180394003E-01 -6.3795242810E-13
            xcart10    5.0655621776E+00  5.0988608417E+00  5.0655621776E+00
                       1.5196686533E+01  1.5210627563E+01  1.5196686533E+01
                       1.0131124355E+01  1.4960883077E+01  1.0131124355E+01
                       1.0131124355E+01  1.0120950383E+01  4.9201466744E+00
                       1.0131124355E+01  1.0120950383E+01  1.5342102036E+01
                       1.0131124355E+01  5.0276926038E+00  1.0131124355E+01
                       1.5342102036E+01  1.0120950383E+01  1.0131124355E+01
                       4.9201466744E+00  1.0120950383E+01  1.0131124355E+01
                      -6.3859160126E-13  1.1226814914E-01 -6.3860146245E-13
             xred1     2.5227111324E-01  2.4772888676E-01  2.5227111324E-01
                       7.5227111324E-01  7.4772888676E-01  7.5227111324E-01
                       7.4091950003E-01  2.5908049997E-01  7.4091950003E-01
                       2.4156312837E-01  2.4035128365E-01  7.5964871635E-01
                       7.5964871635E-01  7.5843687163E-01  2.4156312837E-01
                       2.4674841182E-01  7.5325158818E-01  2.4674841182E-01
                       2.4156312837E-01  7.5843687163E-01  7.5964871635E-01
                       7.5964871635E-01  2.4035128365E-01  2.4156312837E-01
                       5.3661722336E-03 -5.3661722336E-03  5.3661722336E-03
             xred2     2.5223973621E-01  2.4776026379E-01  2.5223973621E-01
                       7.5223973621E-01  7.4776026379E-01  7.5223973621E-01
                       7.4081088382E-01  2.5918911618E-01  7.4081088382E-01
                       2.4176733010E-01  2.4059036154E-01  7.5940963846E-01
                       7.5940963846E-01  7.5823266990E-01  2.4176733010E-01
                       2.4696081820E-01  7.5303918180E-01  2.4696081820E-01
                       2.4176733010E-01  7.5823266990E-01  7.5940963846E-01
                       7.5940963846E-01  2.4059036154E-01  2.4176733010E-01
                       5.3948884610E-03 -5.3948884610E-03  5.3948884610E-03
             xred3     2.5223077082E-01  2.4776922918E-01  2.5223077082E-01
                       7.5223077082E-01  7.4776922918E-01  7.5223077082E-01
                       7.4073355821E-01  2.5926644179E-01  7.4073355821E-01
                       2.4200393640E-01  2.4083997155E-01  7.5916002845E-01
                       7.5916002845E-01  7.5799606360E-01  2.4200393640E-01
                       2.4708007257E-01  7.5291992743E-01  2.4708007257E-01
                       2.4200393640E-01  7.5799606360E-01  7.5916002845E-01
                       7.5916002845E-01  2.4083997155E-01  2.4200393640E-01
                       5.3968978959E-03 -5.3968978959E-03  5.3968978959E-03
             xred4     2.5223370421E-01  2.4776629579E-01  2.5223370421E-01
                       7.5223370421E-01  7.4776629579E-01  7.5223370421E-01
                       7.4054684294E-01  2.5945315706E-01  7.4054684294E-01
                       2.4214953594E-01  2.4104201316E-01  7.5895798684E-01
                       7.5895798684E-01  7.5785046406E-01  2.4214953594E-01
                       2.4734852710E-01  7.5265147290E-01  2.4734852710E-01
                       2.4214953594E-01  7.5785046406E-01  7.5895798684E-01
                       7.5895798684E-01  2.4104201316E-01  2.4214953594E-01
                       5.4221760026E-03 -5.4221760026E-03  5.4221760026E-03
             xred5     2.5219998288E-01  2.4780001712E-01  2.5219998288E-01
                       7.5219998288E-01  7.4780001712E-01  7.5219998288E-01
                       7.4045565989E-01  2.5954434011E-01  7.4045565989E-01
                       2.4236638615E-01  2.4127960039E-01  7.5872039961E-01
                       7.5872039961E-01  7.5763361385E-01  2.4236638615E-01
                       2.4752921890E-01  7.5247078110E-01  2.4752921890E-01
                       2.4236638615E-01  7.5763361385E-01  7.5872039961E-01
                       7.5872039961E-01  2.4127960039E-01  2.4236638615E-01
                       5.4415839374E-03 -5.4415839374E-03  5.4415839374E-03
             xred6     2.5216216341E-01  2.4783783659E-01  2.5216216341E-01
                       7.5216216341E-01  7.4783783659E-01  7.5216216341E-01
                       7.4032264807E-01  2.5967735193E-01  7.4032264807E-01
                       2.4255159576E-01  2.4148872627E-01  7.5851127373E-01
                       7.5851127373E-01  7.5744840424E-01  2.4255159576E-01
                       2.4775430599E-01  7.5224569401E-01  2.4775430599E-01
                       2.4255159576E-01  7.5744840424E-01  7.5851127373E-01
                       7.5851127373E-01  2.4148872627E-01  2.4255159576E-01
                       5.4729801549E-03 -5.4729801549E-03  5.4729801549E-03
             xred7     2.5218770694E-01  2.4781229306E-01  2.5218770694E-01
                       7.5218770694E-01  7.4781229306E-01  7.5218770694E-01
                       7.4019446480E-01  2.5980553520E-01  7.4019446480E-01
                       2.4274069698E-01  2.4172802992E-01  7.5827197008E-01
                       7.5827197008E-01  7.5725930302E-01  2.4274069698E-01
                       2.4792630099E-01  7.5207369901E-01  2.4792630099E-01
                       2.4274069698E-01  7.5725930302E-01  7.5827197008E-01
                       7.5827197008E-01  2.4172802992E-01  2.4274069698E-01
                       5.4784862193E-03 -5.4784862193E-03  5.4784862193E-03
             xred8     2.5219012397E-01  2.4780987603E-01  2.5219012397E-01
                       7.5219012397E-01  7.4780987603E-01  7.5219012397E-01
                       7.4003797008E-01  2.5996202992E-01  7.4003797008E-01
                       2.4291059163E-01  2.4193590233E-01  7.5806409767E-01
                       7.5806409767E-01  7.5708940837E-01  2.4291059163E-01
                       2.4814239804E-01  7.5185760196E-01  2.4814239804E-01
                       2.4291059163E-01  7.5708940837E-01  7.5806409767E-01
                       7.5806409767E-01  2.4193590233E-01  2.4291059163E-01
                       5.4900053406E-03 -5.4900053406E-03  5.4900053406E-03
             xred9     2.5216019592E-01  2.4783980408E-01  2.5216019592E-01
                       7.5216019592E-01  7.4783980408E-01  7.5216019592E-01
                       7.3989097817E-01  2.6010902183E-01  7.3989097817E-01
                       2.4308090823E-01  2.4214315531E-01  7.5785684469E-01
                       7.5785684469E-01  7.5691909177E-01  2.4308090823E-01
                       2.4838981493E-01  7.5161018507E-01  2.4838981493E-01
                       2.4308090823E-01  7.5691909177E-01  7.5785684469E-01
                       7.5785684469E-01  2.4214315531E-01  2.4308090823E-01
                       5.5233092254E-03 -5.5233092254E-03  5.5233092254E-03
             xred10    2.5212512227E-01  2.4787487773E-01  2.5212512227E-01
                       7.5212512227E-01  7.4787487773E-01  7.5212512227E-01
                       7.3977592097E-01  2.6022407903E-01  7.3977592097E-01
                       2.4327743619E-01  2.4236922078E-01  7.5763077922E-01
                       7.5763077922E-01  7.5672256381E-01  2.4327743619E-01
                       2.4860604198E-01  7.5139395802E-01  2.4860604198E-01
                       2.4327743619E-01  7.5672256381E-01  7.5763077922E-01
                       7.5763077922E-01  2.4236922078E-01  2.4327743619E-01
                       5.5513617074E-03 -5.5513617074E-03  5.5513617074E-03
            znucl       55.00000   53.00000   72.00000   35.00000

- Timing analysis has been suppressed with timopt=0

 Suggested references for the acknowledgment of ABINIT usage.

 Calculation completed.
.Delivered   0 WARNINGs and 173 COMMENTs to log file.