.Version 9.2.2 of ABINIT

 ABINIT is a project of the Universite Catholique de Louvain,
 Corning Inc. and other collaborators, see ~abinit/doc/developers/contributors.txt .
 acknowledgments of the ABINIT effort.

.Starting date : Sat 26 Nov 2022.
- ( at 13h51 )

- input  file    -> Cs2TiI6.in
- output file    -> Cs2TiI6.out
- root for input  files -> Cs2TiI6i
- root for output files -> Cs2TiI6o

- inpspheads : Reading pseudopotential header in XML form from
-   ../../../Psps_for_tests/ATOMICDATA/Cs.GGA_PBE-JTH.xml
- inpspheads : Reading pseudopotential header in XML form from
-   ../../../Psps_for_tests/ATOMICDATA/I.GGA_PBE-JTH.xml
- inpspheads : Reading pseudopotential header in XML form from
-   ../../../Psps_for_tests/ATOMICDATA/Zr.GGA_PBE-JTH.xml
- inpspheads : Reading pseudopotential header in XML form from
-   ../../../Psps_for_tests/ATOMICDATA/Br.GGA_PBE-JTH.xml

 DATASET    1 : space group Fm m 2 (# 42); Bravais oF (face-center ortho.)
     intxc =       0    ionmov =       2      iscf =      17    lmnmax =      18
     lnmax =       6     mgfft =      64  mpssoang =       3    mqgrid =    3860
     natom =       9  nloc_mem =       2    nspden =       1   nspinor =       1
    nsppol =       1      nsym =       4    n1xccc =       1    ntypat =       4
    occopt =       1   xclevel =       2
-    mband =          42        mffmem =           1         mkmem =           6
       mpw =        9920          nfft =      262144          nkpt =          32
Pmy_natom=         2
 PAW method is used; the additional fine FFT grid is defined by:
   mgfftf=        96    nfftf =    884736
  Rough estimation (10% accuracy) of disk space for files :

[...]

 DATASET   10 : space group Fm m 2 (# 42); Bravais oF (face-center ortho.)
     intxc =       0    ionmov =       2      iscf =      17    lmnmax =      18
     lnmax =       6     mgfft =      64  mpssoang =       3    mqgrid =    3842
     natom =       9  nloc_mem =       2    nspden =       1   nspinor =       1
    nsppol =       1      nsym =       4    n1xccc =       1    ntypat =       4
    occopt =       1   xclevel =       2
-    mband =          42        mffmem =           1         mkmem =           6
       mpw =        9785          nfft =      262144          nkpt =          32
Pmy_natom=         2
 PAW method is used; the additional fine FFT grid is defined by:
   mgfftf=        96    nfftf =    884736
  Rough estimation (10% accuracy) of disk space for files :

------------- Echo of variables that govern the present computation ------------
-
- outvars: echo of selected default values
-   iomode0 =  0 , fftalg0 =112 , wfoptalg0 = 10
-
- outvars: echo of global parameters not present in the input file
-  max_nthreads =    0
-
 -outvars: echo values of preprocessed input variables --------
            acell1     1.4571645994E+01  1.4377620295E+01  1.4371497348E+01 Bohr
            acell2     1.4564396419E+01  1.4370467250E+01  1.4364347349E+01 Bohr
            acell3     1.4557146844E+01  1.4363314205E+01  1.4357197350E+01 Bohr
            acell4     1.4549897269E+01  1.4356161160E+01  1.4350047352E+01 Bohr
            acell5     1.4542647694E+01  1.4349008116E+01  1.4342897353E+01 Bohr
            acell6     1.4535398119E+01  1.4341855071E+01  1.4335747354E+01 Bohr
            acell7     1.4528148543E+01  1.4334702026E+01  1.4328597356E+01 Bohr
            acell8     1.4520898968E+01  1.4327548981E+01  1.4321447357E+01 Bohr
            acell9     1.4513649393E+01  1.4320395936E+01  1.4314297358E+01 Bohr
            acell10    1.4506399818E+01  1.4313242891E+01  1.4307147360E+01 Bohr
              amu      1.32905430E+02  1.26904470E+02  9.12240000E+01
                       7.99040000E+01
           diemac      1.20000000E+01
          dilatmx      1.15000000E+00
             ecut      1.60000000E+01 Hartree
           ecutsm      5.00000000E-01 Hartree
-          fftalg         112
          getxred1          0
          getxred2         -1
          getxred3         -1
          getxred4         -1
          getxred5         -1
          getxred6         -1
          getxred7         -1
          getxred8         -1
          getxred9         -1
          getxred10        -1
           ionmov           2
              ixc     -101130
           jdtset        1    2    3    4    5    6    7    8    9   10
              kpt      0.00000000E+00 -1.25000000E-01  0.00000000E+00
                       0.00000000E+00 -3.75000000E-01  0.00000000E+00
                       1.25000000E-01 -2.50000000E-01  0.00000000E+00
                       0.00000000E+00 -2.50000000E-01  1.25000000E-01
                       1.25000000E-01 -1.25000000E-01  1.25000000E-01
                       1.25000000E-01  5.00000000E-01  0.00000000E+00
                       2.50000000E-01 -3.75000000E-01  0.00000000E+00
                       0.00000000E+00  5.00000000E-01  1.25000000E-01
                       1.25000000E-01 -3.75000000E-01  1.25000000E-01
                       2.50000000E-01 -2.50000000E-01  1.25000000E-01
                       0.00000000E+00 -3.75000000E-01  2.50000000E-01
                       1.25000000E-01 -2.50000000E-01  2.50000000E-01
                       2.50000000E-01 -1.25000000E-01  2.50000000E-01
                       1.25000000E-01  2.50000000E-01  0.00000000E+00
                       2.50000000E-01  3.75000000E-01  0.00000000E+00
                       3.75000000E-01  5.00000000E-01  0.00000000E+00
                       0.00000000E+00  2.50000000E-01  1.25000000E-01
                       1.25000000E-01  3.75000000E-01  1.25000000E-01
                       2.50000000E-01  5.00000000E-01  1.25000000E-01
                       3.75000000E-01 -3.75000000E-01  1.25000000E-01
                       0.00000000E+00  3.75000000E-01  2.50000000E-01
                       1.25000000E-01  5.00000000E-01  2.50000000E-01
                       2.50000000E-01 -3.75000000E-01  2.50000000E-01
                       3.75000000E-01 -2.50000000E-01  2.50000000E-01
                       0.00000000E+00  5.00000000E-01  3.75000000E-01
                       1.25000000E-01 -3.75000000E-01  3.75000000E-01
                       2.50000000E-01 -2.50000000E-01  3.75000000E-01
                       3.75000000E-01 -1.25000000E-01  3.75000000E-01
                       5.00000000E-01  2.50000000E-01  1.25000000E-01
                      -3.75000000E-01  3.75000000E-01  1.25000000E-01
                       1.25000000E-01  2.50000000E-01  5.00000000E-01
                       1.25000000E-01  3.75000000E-01 -3.75000000E-01
         kptrlatt        4    4   -4     -4    4    4      4   -4    4
          kptrlen1     8.01843944E+01
          kptrlen2     8.01445016E+01
          kptrlen3     8.01046089E+01
          kptrlen4     8.00647162E+01
          kptrlen5     8.00248234E+01
          kptrlen6     7.99849307E+01
          kptrlen7     7.99450380E+01
          kptrlen8     7.99051452E+01
          kptrlen9     7.98652525E+01
          kptrlen10    7.98253598E+01
P           mkmem           6
            natom           9
            nband          42
           ndtset          10
            ngfft          64      64      64
          ngfftdg          96      96      96
             nkpt          32
            nstep        2500
             nsym           4
            ntime        1000
           ntypat           4
              occ      2.000000  2.000000  2.000000  2.000000  2.000000  2.000000
                       2.000000  2.000000  2.000000  2.000000  2.000000  2.000000
                       2.000000  2.000000  2.000000  2.000000  2.000000  2.000000
                       2.000000  2.000000  2.000000  2.000000  2.000000  2.000000
                       2.000000  2.000000  2.000000  2.000000  2.000000  2.000000
                       2.000000  2.000000  2.000000  2.000000  2.000000  2.000000
                       0.000000  0.000000  0.000000  0.000000  0.000000  0.000000
          optcell           3
        optforces           1
        pawecutdg      4.00000000E+01 Hartree
            prtwf           0
            rprim      0.0000000000E+00  7.0681361568E-01  7.0739982520E-01
                       6.9712852967E-01  0.0000000000E+00  7.1694617170E-01
                       6.9742553987E-01  7.1665725164E-01  0.0000000000E+00
           shiftk     -5.00000000E-01  5.00000000E-01  5.00000000E-01
          spgroup          42
           symrel      1  0  0   0  1  0   0  0  1       1  0  0   1  0 -1   1 -1  0
                       0  1 -1   0  1  0  -1  1  0       0  1 -1   1  0 -1   0  0 -1
           toldff      1.00000000E-08
           tolmxf      1.00000000E-05
            typat      1  1  4  2  4  2  2  4  3
           useylm           1
              wtk        0.03125    0.03125    0.03125    0.03125    0.03125    0.03125
                         0.03125    0.03125    0.03125    0.03125    0.03125    0.03125
                         0.03125    0.03125    0.03125    0.03125    0.03125    0.03125
                         0.03125    0.03125    0.03125    0.03125    0.03125    0.03125
                         0.03125    0.03125    0.03125    0.03125    0.03125    0.03125
                         0.03125    0.03125
           xangst1     2.6519846242E+00  2.7251138703E+00  2.7315021824E+00
                       7.9559538725E+00  8.1753416108E+00  8.1862501745E+00
                       5.3039692483E+00  5.4502277405E+00  2.6975142957E+00
                       5.3039692483E+00  5.4502277405E+00  8.1320623191E+00
                       7.9947028000E+00  5.4502277405E+00  5.4683630530E+00
                       5.3039692483E+00  8.0548636504E+00  5.4377283624E+00
                       5.3039692483E+00  2.8455918306E+00  5.4377283623E+00
                       2.6132356966E+00  5.4502277405E+00  5.4683630531E+00
                       1.2967322777E-13  1.3345538606E-12  7.8472134464E-02
           xangst2     2.6506652288E+00  2.7237580922E+00  2.7301432261E+00
                       7.9519956865E+00  8.1712742766E+00  8.1821774132E+00
                       5.3013304576E+00  5.4475161844E+00  2.6961722488E+00
                       5.3013304576E+00  5.4475161845E+00  8.1280165170E+00
                       7.9907253359E+00  5.4475161844E+00  5.4656424744E+00
                       5.3013304576E+00  8.0508562555E+00  5.4350230249E+00
                       5.3013304576E+00  2.8441761133E+00  5.4350230248E+00
                       2.6119355794E+00  5.4475161845E+00  5.4656424745E+00
                       1.2959385700E-13  1.3338921774E-12  7.8433093601E-02
           xangst3     2.6493458335E+00  2.7224023142E+00  2.7287842698E+00
                       7.9480375005E+00  8.1672069425E+00  8.1781046519E+00
                       5.2986916670E+00  5.4448046283E+00  2.6948302019E+00
                       5.2986916670E+00  5.4448046284E+00  8.1239707148E+00
                       7.9867478718E+00  5.4448046283E+00  5.4629218958E+00
                       5.2986916670E+00  8.0468488607E+00  5.4323176874E+00
                       5.2986916670E+00  2.8427603960E+00  5.4323176873E+00
[...]
                       1.2772162432E-13  1.3148028194E-12  7.7300537047E-02
           xangst7     2.6443668021E+00  2.7167221243E+00  2.7239093114E+00
                       7.9331004064E+00  8.1501663728E+00  8.1622750414E+00
                       5.2887336042E+00  5.4334442485E+00  2.6845195824E+00
                       5.2887336043E+00  5.4334442486E+00  8.1100212391E+00
                       7.9759415094E+00  5.4334442485E+00  5.4522101474E+00
                       5.2887336042E+00  8.0329879695E+00  5.4222772615E+00
                       5.2887336043E+00  2.8339005276E+00  5.4222772614E+00
                       2.6015256991E+00  5.4334442486E+00  5.4522101475E+00
                       1.2760612968E-13  1.3134718206E-12  7.7225847963E-02
           xangst8     2.6429838946E+00  2.7154261266E+00  2.7224145616E+00
                       7.9289516837E+00  8.1462783797E+00  8.1580774388E+00
                       5.2859677891E+00  5.4308522531E+00  2.6845913882E+00
                       5.2859677891E+00  5.4308522532E+00  8.1054215042E+00
                       7.9707220153E+00  5.4308522531E+00  5.4492539833E+00
                       5.2859677891E+00  8.0284547593E+00  5.4193390779E+00
                       5.2859677891E+00  2.8332497470E+00  5.4193390778E+00
                       2.6012135629E+00  5.4308522532E+00  5.4492539834E+00
                       1.2790054973E-13  1.3206489777E-12  7.7612003282E-02
           xangst9     2.6416125122E+00  2.7141764223E+00  2.7208623587E+00
                       7.9248375366E+00  8.1425292670E+00  8.1537060202E+00
                       5.2832250244E+00  5.4283528446E+00  2.6844385982E+00
                       5.2832250244E+00  5.4283528447E+00  8.1005387952E+00
                       7.9655697855E+00  5.4283528446E+00  5.4462975076E+00
                       5.2832250244E+00  8.0240179833E+00  5.4164111459E+00
                       5.2832250244E+00  2.8326877060E+00  5.4164111458E+00
                       2.6008802633E+00  5.4283528447E+00  5.4462975077E+00
                       1.2858168468E-13  1.3228966857E-12  7.7786213020E-02
           xangst10    2.6401919077E+00  2.7129192802E+00  2.7193957554E+00
                       7.9205757230E+00  8.1387578407E+00  8.1495363352E+00
                       5.2803838153E+00  5.4258385604E+00  2.6842585013E+00
                       5.2803838154E+00  5.4258385605E+00  8.0958935773E+00
                       7.9602538916E+00  5.4258385604E+00  5.4434612113E+00
                       5.2803838153E+00  8.0196076130E+00  5.4135898792E+00
                       5.2803838154E+00  2.8320695080E+00  5.4135898791E+00
                       2.6005137391E+00  5.4258385605E+00  5.4434612114E+00
                       1.2880444316E-13  1.3255137262E-12  7.7938288438E-02
            xcart1     5.0139763291E+00  5.1469979508E+00  5.1644980305E+00
                       1.5041928987E+01  1.5440993852E+01  1.5472884191E+01
                       1.0027952658E+01  1.0293995902E+01  5.0744621915E+00
                       1.0027952658E+01  1.0293995902E+01  1.5380257717E+01
                       1.5136054900E+01  1.0293995902E+01  1.0336186049E+01
                       1.0027952658E+01  1.5226123539E+01  1.0279233200E+01
                       1.0027952658E+01  5.3618682648E+00  1.0279233200E+01
                       4.9198504163E+00  1.0293995902E+01  1.0336186049E+01
                       2.3874761224E-13  2.4508424511E-12  1.4414865436E-01
            xcart2     5.0114905275E+00  5.1446287145E+00  5.1615051615E+00
                       1.5034471582E+01  1.5433886144E+01  1.5464361418E+01
                       1.0022981055E+01  1.0289257429E+01  5.0742000436E+00
                       1.0022981055E+01  1.0289257429E+01  1.5370773574E+01
                       1.5126724927E+01  1.0289257429E+01  1.0330247765E+01
                       1.0022981055E+01  1.5217703561E+01  1.0273470155E+01
                       1.0022981055E+01  5.3608112970E+00  1.0273470155E+01
                       4.9192371824E+00  1.0289257429E+01  1.0330247765E+01
                       2.3905121570E-13  2.4588630465E-12  1.4457401238E-01
            xcart3     5.0087562459E+00  5.1421988019E+00  5.1587695590E+00
                       1.5026268738E+01  1.5426596406E+01  1.5456728293E+01
                       1.0017512492E+01  1.0284397604E+01  5.0740415940E+00
                       1.0017512492E+01  1.0284397604E+01  1.5362304251E+01
                       1.5116391978E+01  1.0284397604E+01  1.0325217863E+01
                       1.0017512492E+01  1.5209145683E+01  1.0268261387E+01
                       1.0017512492E+01  5.3596495249E+00  1.0268261387E+01
                       4.9186330061E+00  1.0284397604E+01  1.0325217864E+01
                       2.3933048500E-13  2.4642617184E-12  1.4486767624E-01
            xcart4     5.0057918127E+00  5.1402651940E+00  5.1559420359E+00
                       1.5017375438E+01  1.5420795582E+01  1.5448482663E+01
                       1.0011583625E+01  1.0280530388E+01  5.0739161882E+00
                       1.0011583625E+01  1.0280530388E+01  1.5352809661E+01
                       1.5105116172E+01  1.0280530388E+01  1.0319373833E+01
                       1.0011583625E+01  1.5202448023E+01  1.0262597789E+01
                       1.0011583625E+01  5.3586127534E+00  1.0262597789E+01
                       4.9180510787E+00  1.0280530388E+01  1.0319373833E+01
                       2.3995376001E-13  2.4704610887E-12  1.4523122721E-01
            xcart5     5.0031905994E+00  5.1379665146E+00  5.1528647974E+00
                       1.5009571798E+01  1.5413899544E+01  1.5439971635E+01
                       1.0006381199E+01  1.0275933029E+01  5.0737004241E+00
                       1.0006381199E+01  1.0275933029E+01  1.5343410241E+01
                       1.5095319384E+01  1.0275933029E+01  1.0313698022E+01
                       1.0006381199E+01  1.5194356961E+01  1.0256940342E+01
                       1.0006381199E+01  5.3575090970E+00  1.0256940342E+01
                       4.9174430142E+00  1.0275933029E+01  1.0313698022E+01
                       2.4060260137E-13  2.4771615622E-12  1.4563087182E-01
            xcart6     5.0002507927E+00  5.1358913640E+00  5.1499417925E+00
                       1.5000752378E+01  1.5407674092E+01  1.5431863588E+01
                       1.0000501585E+01  1.0271782728E+01  5.0736379638E+00
                       1.0000501585E+01  1.0271782728E+01  1.5334490539E+01
                       1.5084299054E+01  1.0271782728E+01  1.0308166848E+01
                       1.0000501585E+01  1.5187281016E+01  1.0251514970E+01
                       1.0000501585E+01  5.3562844402E+00  1.0251514970E+01
                       4.9167041171E+00  1.0271782728E+01  1.0308166848E+01
                       2.4135889121E-13  2.4846172475E-12  1.4607684494E-01
            xcart7     4.9971290509E+00  5.1338607940E+00  5.1474426094E+00
                       1.4991387153E+01  1.5401582382E+01  1.5424464450E+01
                       9.9942581018E+00  1.0267721588E+01  5.0730068091E+00
                       9.9942581018E+00  1.0267721588E+01  1.5325719074E+01
                       1.5072345105E+01  1.0267721588E+01  1.0303183998E+01
                       9.9942581018E+00  1.5180147291E+01  1.0246619041E+01
                       9.9942581018E+00  5.3552958849E+00  1.0246619041E+01
                       4.9161710989E+00  1.0267721588E+01  1.0303183998E+01
                       2.4114063797E-13  2.4821020241E-12  1.4593570303E-01
            xcart8     4.9945157343E+00  5.1314117133E+00  5.1446179415E+00
                       1.4983547203E+01  1.5394235140E+01  1.5416532130E+01
                       9.9890314687E+00  1.0262823427E+01  5.0731425024E+00
                       9.9890314687E+00  1.0262823427E+01  1.5317026834E+01
                       1.5062481690E+01  1.0262823427E+01  1.0297597657E+01
                       9.9890314687E+00  1.5171580765E+01  1.0241066678E+01
                       9.9890314687E+00  5.3540660880E+00  1.0241066678E+01
                       4.9155812471E+00  1.0262823427E+01  1.0297597657E+01
                       2.4169701123E-13  2.4956648855E-12  1.4666543083E-01
            xcart9     4.9919241973E+00  5.1290501145E+00  5.1416847032E+00
                       1.4975772592E+01  1.5387150344E+01  1.5408271346E+01
                       9.9838483945E+00  1.0258100229E+01  5.0728537711E+00
                       9.9838483945E+00  1.0258100229E+01  1.5307799852E+01
                       1.5052745387E+01  1.0258100229E+01  1.0292010728E+01
                       9.9838483945E+00  1.5163196474E+01  1.0235533689E+01
                       9.9838483945E+00  5.3530039844E+00  1.0235533689E+01
                       4.9149514020E+00  1.0258100229E+01  1.0292010728E+01
                       2.4298416976E-13  2.4999124380E-12  1.4699463952E-01
            xcart10    4.9892396438E+00  5.1266744603E+00  5.1389132246E+00
                       1.4967718931E+01  1.5380023381E+01  1.5400391784E+01
                       9.9784792875E+00  1.0253348920E+01  5.0725134373E+00
                       9.9784792875E+00  1.0253348921E+01  1.5299021662E+01
                       1.5042699803E+01  1.0253348920E+01  1.0286650904E+01
                       9.9784792875E+00  1.5154862082E+01  1.0230202268E+01
                       9.9784792875E+00  5.3518357593E+00  1.0230202267E+01
                       4.9142587717E+00  1.0253348921E+01  1.0286650904E+01
                       2.4340512228E-13  2.5048579280E-12  1.4728202041E-01
             xred1     2.5049983335E-01  2.5049983335E-01  2.4950016665E-01
                       7.5049983335E-01  7.5049983335E-01  7.4950016665E-01
                       2.4613271722E-01  2.4613271722E-01  7.5386728278E-01
                       7.4600706056E-01  7.4600706056E-01  2.5399293944E-01
                       2.4665523434E-01  7.5604158827E-01  7.5334476566E-01
                       7.3814927752E-01  2.5902264059E-01  7.4097735941E-01
                       2.5902264059E-01  7.3814927752E-01  2.6185072248E-01
                       7.5604158827E-01  2.4665523434E-01  2.4395841173E-01
                       6.9918148253E-03  6.9918148253E-03 -6.9918148253E-03
             xred2     2.5048904076E-01  2.5048904076E-01  2.4951095924E-01
                       7.5048904076E-01  7.5048904076E-01  7.4951095924E-01
                       2.4625210318E-01  2.4625210318E-01  7.5374789682E-01
                       7.4594720103E-01  7.4594720103E-01  2.5405279897E-01
                       2.4672722512E-01  7.5593140745E-01  7.5327277488E-01
                       7.3806862894E-01  2.5907914247E-01  7.4092085753E-01
                       2.5907914247E-01  7.3806862894E-01  2.6193137106E-01
                       7.5593140745E-01  2.4672722512E-01  2.4406859255E-01
                       7.0162103008E-03  7.0162103008E-03 -7.0162103008E-03
             xred3     2.5047534624E-01  2.5047534624E-01  2.4952465376E-01
                       7.5047534624E-01  7.5047534624E-01  7.4952465376E-01
                       2.4636152295E-01  2.4636152295E-01  7.5363847705E-01
                       7.4589074628E-01  7.4589074628E-01  2.5410925372E-01
                       2.4682523662E-01  7.5582180537E-01  7.5317476338E-01
                       7.3798622086E-01  2.5912997001E-01  7.4087002999E-01
                       2.5912997001E-01  7.3798622086E-01  2.6201377914E-01
                       7.5582180537E-01  2.4682523662E-01  2.4417819463E-01
                       7.0338054356E-03  7.0338054356E-03 -7.0338054356E-03
             xred4     2.5046984134E-01  2.5046984134E-01  2.4953015866E-01
                       7.5046984134E-01  7.5046984134E-01  7.4953015866E-01
                       2.4648511829E-01  2.4648511829E-01  7.5351488171E-01
                       7.4582215496E-01  7.4582215496E-01  2.5417784504E-01
                       2.4692156601E-01  7.5568548761E-01  7.5307843399E-01
                       7.3792594115E-01  2.5916488031E-01  7.4083511969E-01
                       2.5916488031E-01  7.3792594115E-01  2.6207405885E-01
                       7.5568548761E-01  2.4692156601E-01  2.4431451239E-01
                       7.0551690039E-03  7.0551690039E-03 -7.0551690039E-03
             xred5     2.5045257520E-01  2.5045257520E-01  2.4954742480E-01
                       7.5045257520E-01  7.5045257520E-01  7.4954742480E-01
                       2.4660482799E-01  2.4660482799E-01  7.5339517201E-01
                       7.4575925400E-01  7.4575925400E-01  2.5424074600E-01
                       2.4700780691E-01  7.5557709719E-01  7.5299219309E-01
                       7.3785140435E-01  2.5921613900E-01  7.4078386100E-01
                       2.5921613900E-01  7.3785140435E-01  2.6214859565E-01
                       7.5557709719E-01  2.4700780691E-01  2.4442290281E-01
                       7.0783201792E-03  7.0783201792E-03 -7.0783201792E-03
             xred6     2.5043673231E-01  2.5043673231E-01  2.4956326769E-01
                       7.5043673231E-01  7.5043673231E-01  7.4956326769E-01
                       2.4672615027E-01  2.4672615027E-01  7.5327384973E-01
                       7.4570157428E-01  7.4570157428E-01  2.5429842572E-01
                       2.4709914746E-01  7.5545339599E-01  7.5290085254E-01
                       7.3779326220E-01  2.5924942828E-01  7.4075057172E-01
                       2.5924942828E-01  7.3779326220E-01  2.6220673780E-01
                       7.5545339599E-01  2.4709914746E-01  2.4454660401E-01
                       7.1035769310E-03  7.1035769310E-03 -7.1035769310E-03
             xred7     2.5043454658E-01  2.5043454658E-01  2.4956545342E-01
                       7.5043454658E-01  7.5043454658E-01  7.4956545342E-01
                       2.4681307912E-01  2.4681307912E-01  7.5318692088E-01
                       7.4563036413E-01  7.4563036413E-01  2.5436963587E-01
                       2.4722262403E-01  7.5532307042E-01  7.5277737597E-01
                       7.3773776757E-01  2.5930390462E-01  7.4069609538E-01
                       2.5930390462E-01  7.3773776757E-01  2.6226223243E-01
                       7.5532307042E-01  2.4722262403E-01  2.4467692958E-01
                       7.1000969590E-03  7.1000969590E-03 -7.1000969590E-03
             xred8     2.5042157902E-01  2.5042157902E-01  2.4957842098E-01
                       7.5042157902E-01  7.5042157902E-01  7.4957842098E-01
                       2.4694241059E-01  2.4694241059E-01  7.5305758941E-01
                       7.4557801754E-01  7.4557801754E-01  2.5442198246E-01
                       2.4729912118E-01  7.5520123736E-01  7.5270087882E-01
                       7.3765083573E-01  2.5934607158E-01  7.4065392842E-01
                       2.5934607158E-01  7.3765083573E-01  2.6234916427E-01
                       7.5520123736E-01  2.4729912118E-01  2.4479876264E-01
                       7.1391479783E-03  7.1391479783E-03 -7.1391479783E-03
             xred9     2.5040867437E-01  2.5040867437E-01  2.4959132563E-01
                       7.5040867437E-01  7.5040867437E-01  7.4959132563E-01
                       2.4705649246E-01  2.4705649246E-01  7.5294350754E-01
                       7.4551554397E-01  7.4551554397E-01  2.5448445603E-01
                       2.4738332960E-01  7.5509306158E-01  7.5261667040E-01
                       7.3757171650E-01  2.5940362152E-01  7.4059637848E-01
                       2.5940362152E-01  7.3757171650E-01  2.6242828350E-01
                       7.5509306158E-01  2.4738332960E-01  2.4490693842E-01
                       7.1588856468E-03  7.1588856468E-03 -7.1588856468E-03
             xred10    2.5039828301E-01  2.5039828301E-01  2.4960171699E-01
                       7.5039828301E-01  7.5039828301E-01  7.4960171699E-01
                       2.4716289218E-01  2.4716289218E-01  7.5283710782E-01
                       7.4545893042E-01  7.4545893042E-01  2.5454106958E-01
                       2.4746941652E-01  7.5498367495E-01  7.5253058348E-01
                       7.3749614326E-01  2.5945592448E-01  7.4054407552E-01
                       2.5945592448E-01  7.3749614326E-01  2.6250385674E-01
                       7.5498367495E-01  2.4746941652E-01  2.4501632505E-01
                       7.1764521832E-03  7.1764521832E-03 -7.1764521832E-03
            znucl       55.00000   53.00000   40.00000   35.00000

- Timing analysis has been suppressed with timopt=0

 Suggested references for the acknowledgment of ABINIT usage.

 Calculation completed.
.Delivered   0 WARNINGs and 127 COMMENTs to log file.