.Version 9.2.2 of ABINIT

 ABINIT is a project of the Universite Catholique de Louvain,
 Corning Inc. and other collaborators, see ~abinit/doc/developers/contributors.txt .
 acknowledgments of the ABINIT effort.

.Starting date : Wed 26 Oct 2022.
- ( at 14h01 )

- input  file    -> Cs2TiI6.in
- output file    -> Cs2TiI6.out
- root for input  files -> Cs2TiI6i
- root for output files -> Cs2TiI6o

- inpspheads : Reading pseudopotential header in XML form from
-   ../../../Psps_for_tests/ATOMICDATA/Cs.GGA_PBE-JTH.xml
- inpspheads : Reading pseudopotential header in XML form from
-   ../../../Psps_for_tests/ATOMICDATA/Cl.GGA_PBE-JTH.xml
- inpspheads : Reading pseudopotential header in XML form from
-   ../../../Psps_for_tests/ATOMICDATA/Hf.GGA_PBE-JTH.xml

 DATASET    1 : space group Fm -3 m (#225); Bravais cF (face-center cubic)
     intxc =       0    ionmov =       0      iscf =      17    lmnmax =      18
     lnmax =       6     mgfft =      54  mpssoang =       3    mqgrid =    3312
     natom =       9  nloc_mem =       2    nspden =       1   nspinor =       1
    nsppol =       1      nsym =      48    n1xccc =       1    ntypat =       3
    occopt =       1   xclevel =       2
-    mband =          42        mffmem =           1         mkmem =          18
       mpw =        6274          nfft =      157464          nkpt =          72
Pmy_natom=         3
 PAW method is used; the additional fine FFT grid is defined by:
   mgfftf=        90    nfftf =    729000
  Rough estimation (10% accuracy) of disk space for files :

[...]

 DATASET   10 : space group Fm -3 m (#225); Bravais cF (face-center cubic)
     intxc =       0    ionmov =       0      iscf =      17    lmnmax =      18
     lnmax =       6     mgfft =      48  mpssoang =       3    mqgrid =    3011
     natom =       9  nloc_mem =       2    nspden =       1   nspinor =       1
    nsppol =       1      nsym =      48    n1xccc =       1    ntypat =       3
    occopt =       1   xclevel =       2
-    mband =          42        mffmem =           1         mkmem =          18
       mpw =        4725          nfft =      110592          nkpt =          72
Pmy_natom=         3
 PAW method is used; the additional fine FFT grid is defined by:
   mgfftf=        75    nfftf =    421875
  Rough estimation (10% accuracy) of disk space for files :

------------- Echo of variables that govern the present computation ------------
-
- outvars: echo of selected default values
-   iomode0 =  0 , fftalg0 =112 , wfoptalg0 = 10
-
- outvars: echo of global parameters not present in the input file
-  max_nthreads =    0
-
 -outvars: echo values of preprocessed input variables --------
            acell1     1.4246312570E+01  1.4246312570E+01  1.4246312570E+01 Bohr
            acell2     1.4102410423E+01  1.4102410423E+01  1.4102410423E+01 Bohr
            acell3     1.3958508275E+01  1.3958508275E+01  1.3958508275E+01 Bohr
            acell4     1.3814606128E+01  1.3814606128E+01  1.3814606128E+01 Bohr
            acell5     1.3670703981E+01  1.3670703981E+01  1.3670703981E+01 Bohr
            acell6     1.3526801834E+01  1.3526801834E+01  1.3526801834E+01 Bohr
            acell7     1.3382899687E+01  1.3382899687E+01  1.3382899687E+01 Bohr
            acell8     1.3238997540E+01  1.3238997540E+01  1.3238997540E+01 Bohr
            acell9     1.3095095392E+01  1.3095095392E+01  1.3095095392E+01 Bohr
            acell10    1.2951193245E+01  1.2951193245E+01  1.2951193245E+01 Bohr
              amu      1.32905430E+02  3.54527000E+01  1.78490000E+02
           diemac      1.20000000E+01
             ecut      1.60000000E+01 Hartree
-          fftalg         112
           istwfk        2    0    0    0    0    0    3    0    0    0
                         0    0    0    0    0    0    0    0    0    0
                         0    0    0    0    0    0    0    0    0    0
                         0    0    0    0    0    0    0    0    0    0
                         0    0    7    0    0    0    0    0    0    0
                       outvar_i_n : Printing only first  50 k-points.
              ixc     -101130
           jdtset        1    2    3    4    5    6    7    8    9   10
              kpt      0.00000000E+00  0.00000000E+00  0.00000000E+00
                       8.33333333E-02  0.00000000E+00  0.00000000E+00
                       1.66666667E-01  0.00000000E+00  0.00000000E+00
                       2.50000000E-01  0.00000000E+00  0.00000000E+00
                       3.33333333E-01  0.00000000E+00  0.00000000E+00
                       4.16666667E-01  0.00000000E+00  0.00000000E+00
                       5.00000000E-01  0.00000000E+00  0.00000000E+00
                       8.33333333E-02  8.33333333E-02  0.00000000E+00
                       1.66666667E-01  8.33333333E-02  0.00000000E+00
                       2.50000000E-01  8.33333333E-02  0.00000000E+00
                       3.33333333E-01  8.33333333E-02  0.00000000E+00
                       4.16666667E-01  8.33333333E-02  0.00000000E+00
                       5.00000000E-01  8.33333333E-02  0.00000000E+00
                      -4.16666667E-01  8.33333333E-02  0.00000000E+00
                      -3.33333333E-01  8.33333333E-02  0.00000000E+00
                      -2.50000000E-01  8.33333333E-02  0.00000000E+00
                      -1.66666667E-01  8.33333333E-02  0.00000000E+00
                      -8.33333333E-02  8.33333333E-02  0.00000000E+00
                       1.66666667E-01  1.66666667E-01  0.00000000E+00
                       2.50000000E-01  1.66666667E-01  0.00000000E+00
                       3.33333333E-01  1.66666667E-01  0.00000000E+00
                       4.16666667E-01  1.66666667E-01  0.00000000E+00
                       5.00000000E-01  1.66666667E-01  0.00000000E+00
                      -4.16666667E-01  1.66666667E-01  0.00000000E+00
                      -3.33333333E-01  1.66666667E-01  0.00000000E+00
                      -2.50000000E-01  1.66666667E-01  0.00000000E+00
                      -1.66666667E-01  1.66666667E-01  0.00000000E+00
                       2.50000000E-01  2.50000000E-01  0.00000000E+00
                       3.33333333E-01  2.50000000E-01  0.00000000E+00
                       4.16666667E-01  2.50000000E-01  0.00000000E+00
                       5.00000000E-01  2.50000000E-01  0.00000000E+00
                      -4.16666667E-01  2.50000000E-01  0.00000000E+00
                      -3.33333333E-01  2.50000000E-01  0.00000000E+00
                      -2.50000000E-01  2.50000000E-01  0.00000000E+00
                       3.33333333E-01  3.33333333E-01  0.00000000E+00
                       4.16666667E-01  3.33333333E-01  0.00000000E+00
                       5.00000000E-01  3.33333333E-01  0.00000000E+00
                      -4.16666667E-01  3.33333333E-01  0.00000000E+00
                      -3.33333333E-01  3.33333333E-01  0.00000000E+00
                       4.16666667E-01  4.16666667E-01  0.00000000E+00
                       5.00000000E-01  4.16666667E-01  0.00000000E+00
                      -4.16666667E-01  4.16666667E-01  0.00000000E+00
                       5.00000000E-01  5.00000000E-01  0.00000000E+00
                       2.50000000E-01  1.66666667E-01  8.33333333E-02
                       3.33333333E-01  1.66666667E-01  8.33333333E-02
                       4.16666667E-01  1.66666667E-01  8.33333333E-02
                       5.00000000E-01  1.66666667E-01  8.33333333E-02
                      -4.16666667E-01  1.66666667E-01  8.33333333E-02
                       3.33333333E-01  2.50000000E-01  8.33333333E-02
                       4.16666667E-01  2.50000000E-01  8.33333333E-02
                       outvar_i_n : Printing only first  50 k-points.
         kptrlatt       12    0    0      0   12    0      0    0   12
          kptrlen1     1.70955751E+02
          kptrlen2     1.69228925E+02
          kptrlen3     1.67502099E+02
          kptrlen4     1.65775274E+02
          kptrlen5     1.64048448E+02
          kptrlen6     1.62321622E+02
          kptrlen7     1.60594796E+02
          kptrlen8     1.58867970E+02
          kptrlen9     1.57141145E+02
          kptrlen10    1.55414319E+02
P           mkmem          18
            natom           9
            nband          42
           ndtset          10
            ngfft1         54      54      54
            ngfft2         54      54      54
            ngfft3         54      54      54
            ngfft4         50      50      50
            ngfft5         50      50      50
            ngfft6         50      50      50
            ngfft7         50      50      50
            ngfft8         48      48      48
            ngfft9         48      48      48
            ngfft10        48      48      48
          ngfftdg1         90      90      90
          ngfftdg2         90      90      90
          ngfftdg3         80      80      80
          ngfftdg4         80      80      80
          ngfftdg5         80      80      80
          ngfftdg6         80      80      80
          ngfftdg7         80      80      80
          ngfftdg8         80      80      80
          ngfftdg9         80      80      80
          ngfftdg10        75      75      75
             nkpt          72
            nstep        2500
             nsym          48
           ntypat           3
              occ      2.000000  2.000000  2.000000  2.000000  2.000000  2.000000
                       2.000000  2.000000  2.000000  2.000000  2.000000  2.000000
                       2.000000  2.000000  2.000000  2.000000  2.000000  2.000000
                       2.000000  2.000000  2.000000  2.000000  2.000000  2.000000
                       2.000000  2.000000  2.000000  2.000000  2.000000  2.000000
                       2.000000  2.000000  2.000000  2.000000  2.000000  2.000000
                       0.000000  0.000000  0.000000  0.000000  0.000000  0.000000
        pawecutdg      4.00000000E+01 Hartree
            prtwf           0
            rprim      0.0000000000E+00  7.0710678119E-01  7.0710678119E-01
                       7.0710678119E-01  0.0000000000E+00  7.0710678119E-01
                       7.0710678119E-01  7.0710678119E-01  0.0000000000E+00
          spgroup         225
           symrel      1  0  0   0  1  0   0  0  1      -1  0  0   0 -1  0   0  0 -1
                       0 -1  1   0 -1  0   1 -1  0       0  1 -1   0  1  0  -1  1  0
                      -1  0  0  -1  0  1  -1  1  0       1  0  0   1  0 -1   1 -1  0
                       0  1 -1   1  0 -1   0  0 -1       0 -1  1  -1  0  1   0  0  1
                      -1  0  0  -1  1  0  -1  0  1       1  0  0   1 -1  0   1  0 -1
                       0 -1  1   1 -1  0   0 -1  0       0  1 -1  -1  1  0   0  1  0
                       1  0  0   0  0  1   0  1  0      -1  0  0   0  0 -1   0 -1  0
                       0  1 -1   0  0 -1   1  0 -1       0 -1  1   0  0  1  -1  0  1
                      -1  0  1  -1  1  0  -1  0  0       1  0 -1   1 -1  0   1  0  0
                       0 -1  0   1 -1  0   0 -1  1       0  1  0  -1  1  0   0  1 -1
[...]
                       8.6640276342E-20 -6.9622077964E-19  1.6361976686E-19
           xangst7     2.5038387722E+00  2.5038387722E+00  2.5038387722E+00
                       7.5115163166E+00  7.5115163166E+00  7.5115163166E+00
                       5.0076775444E+00  7.5683775154E+00  5.0076775444E+00
                       5.0076775444E+00  5.0076775444E+00  2.4469775734E+00
                       5.0076775444E+00  5.0076775444E+00  7.5683775154E+00
                       5.0076775444E+00  2.4469775734E+00  5.0076775444E+00
                       7.5683775154E+00  5.0076775444E+00  5.0076775444E+00
                       2.4469775734E+00  5.0076775444E+00  5.0076775444E+00
                       1.9396543955E-20  2.2980579871E-20 -2.4680043054E-20
           xangst8     2.4769157747E+00  2.4769157747E+00  2.4769157747E+00
                       7.4307473240E+00  7.4307473240E+00  7.4307473240E+00
                       4.9538315493E+00  7.4659034517E+00  4.9538315493E+00
                       4.9538315493E+00  4.9538315493E+00  2.4417596469E+00
                       4.9538315493E+00  4.9538315493E+00  7.4659034517E+00
                       4.9538315493E+00  2.4417596469E+00  4.9538315493E+00
                       7.4659034517E+00  4.9538315493E+00  4.9538315493E+00
                       2.4417596469E+00  4.9538315493E+00  4.9538315493E+00
                       1.1929222808E-18  1.2810847567E-19 -7.9054333365E-19
           xangst9     2.4499927770E+00  2.4499927770E+00  2.4499927770E+00
                       7.3499783309E+00  7.3499783309E+00  7.3499783309E+00
                       4.8999855539E+00  7.3640446295E+00  4.8999855539E+00
                       4.8999855539E+00  4.8999855539E+00  2.4359264784E+00
                       4.8999855539E+00  4.8999855539E+00  7.3640446295E+00
                       4.8999855539E+00  2.4359264784E+00  4.8999855539E+00
                       7.3640446295E+00  4.8999855539E+00  4.8999855539E+00
                       2.4359264784E+00  4.8999855539E+00  4.8999855539E+00
                       6.8739861619E-19  1.0893532148E-19  2.0351209545E-19
           xangst10    2.4230697794E+00  2.4230697794E+00  2.4230697794E+00
                       7.2692093383E+00  7.2692093383E+00  7.2692093383E+00
                       4.8461395589E+00  7.2630664804E+00  4.8461395589E+00
                       4.8461395589E+00  4.8461395589E+00  2.4292126374E+00
                       4.8461395589E+00  4.8461395589E+00  7.2630664804E+00
                       4.8461395589E+00  2.4292126374E+00  4.8461395589E+00
                       7.2630664804E+00  4.8461395589E+00  4.8461395589E+00
                       2.4292126374E+00  4.8461395589E+00  4.8461395589E+00
                       4.2042951887E-19  7.9341722665E-19 -5.4959817070E-19
            xcart1     5.0368321126E+00  5.0368321126E+00  5.0368321126E+00
                       1.5110496338E+01  1.5110496338E+01  1.5110496338E+01
                       1.0073664225E+01  1.5488066221E+01  1.0073664225E+01
                       1.0073664225E+01  1.0073664225E+01  4.6592622294E+00
                       1.0073664225E+01  1.0073664225E+01  1.5488066221E+01
                       1.0073664225E+01  4.6592622294E+00  1.0073664225E+01
                       1.5488066221E+01  1.0073664225E+01  1.0073664225E+01
                       4.6592622294E+00  1.0073664225E+01  1.0073664225E+01
                      -1.2092632352E-18  5.0231717001E-19  1.3523774457E-18
            xcart2     4.9859550206E+00  4.9859550206E+00  4.9859550206E+00
                       1.4957865062E+01  1.4957865062E+01  1.4957865062E+01
                       9.9719100412E+00  1.5288678931E+01  9.9719100412E+00
                       9.9719100412E+00  9.9719100412E+00  4.6551411518E+00
                       9.9719100412E+00  9.9719100412E+00  1.5288678931E+01
                       9.9719100412E+00  4.6551411518E+00  9.9719100412E+00
                       1.5288678931E+01  9.9719100412E+00  9.9719100412E+00
                       4.6551411518E+00  9.9719100412E+00  9.9719100412E+00
                       4.9310682826E-20  2.3041466248E-20 -4.2546165170E-20
            xcart3     4.9350779283E+00  4.9350779283E+00  4.9350779283E+00
                       1.4805233785E+01  1.4805233785E+01  1.4805233785E+01
                       9.8701558565E+00  1.5089441784E+01  9.8701558565E+00
                       9.8701558565E+00  9.8701558565E+00  4.6508699291E+00
                       9.8701558565E+00  9.8701558565E+00  1.5089441784E+01
                       9.8701558565E+00  4.6508699291E+00  9.8701558565E+00
                       1.5089441784E+01  9.8701558565E+00  9.8701558565E+00
                       4.6508699291E+00  9.8701558565E+00  9.8701558565E+00
                       1.6038222239E-19  1.0525884960E-18  2.9867894603E-19
            xcart4     4.8842008363E+00  4.8842008363E+00  4.8842008363E+00
                       1.4652602509E+01  1.4652602509E+01  1.4652602509E+01
                       9.7684016726E+00  1.4891253914E+01  9.7684016726E+00
                       9.7684016726E+00  9.7684016726E+00  4.6455494312E+00
                       9.7684016726E+00  9.7684016726E+00  1.4891253914E+01
                       9.7684016726E+00  4.6455494312E+00  9.7684016726E+00
                       1.4891253914E+01  9.7684016726E+00  9.7684016726E+00
                       4.6455494312E+00  9.7684016726E+00  9.7684016726E+00
                       7.5591981381E-19  2.2712105283E-18  8.4050113099E-19
            xcart5     4.8333237443E+00  4.8333237443E+00  4.8333237443E+00
                       1.4499971233E+01  1.4499971233E+01  1.4499971233E+01
                       9.6666474886E+00  1.4694105072E+01  9.6666474886E+00
                       9.6666474886E+00  9.6666474886E+00  4.6391899056E+00
                       9.6666474886E+00  9.6666474886E+00  1.4694105072E+01
                       9.6666474886E+00  4.6391899056E+00  9.6666474886E+00
                       1.4694105072E+01  9.6666474886E+00  9.6666474886E+00
                       4.6391899056E+00  9.6666474886E+00  9.6666474886E+00
                       7.0452714396E-20  1.9243351921E-20 -6.0792822758E-20
            xcart6     4.7824466523E+00  4.7824466523E+00  4.7824466523E+00
                       1.4347339957E+01  1.4347339957E+01  1.4347339957E+01
                       9.5648933046E+00  1.4497708687E+01  9.5648933046E+00
                       9.5648933046E+00  9.5648933046E+00  4.6320779227E+00
                       9.5648933046E+00  9.5648933046E+00  1.4497708687E+01
                       9.5648933046E+00  4.6320779227E+00  9.5648933046E+00
                       1.4497708687E+01  9.5648933046E+00  9.5648933046E+00
                       4.6320779227E+00  9.5648933046E+00  9.5648933046E+00
                       1.6372639436E-19 -1.3156666015E-18  3.0919654929E-19
            xcart7     4.7315695603E+00  4.7315695603E+00  4.7315695603E+00
                       1.4194708681E+01  1.4194708681E+01  1.4194708681E+01
                       9.4631391207E+00  1.4302160774E+01  9.4631391207E+00
                       9.4631391207E+00  9.4631391207E+00  4.6241174670E+00
                       9.4631391207E+00  9.4631391207E+00  1.4302160774E+01
                       9.4631391207E+00  4.6241174670E+00  9.4631391207E+00
                       1.4302160774E+01  9.4631391207E+00  9.4631391207E+00
                       4.6241174670E+00  9.4631391207E+00  9.4631391207E+00
                       3.6654155999E-20  4.3427002331E-20 -4.6638522320E-20
            xcart8     4.6806924683E+00  4.6806924683E+00  4.6806924683E+00
                       1.4042077405E+01  1.4042077405E+01  1.4042077405E+01
                       9.3613849367E+00  1.4108512858E+01  9.3613849367E+00
                       9.3613849367E+00  9.3613849367E+00  4.6142570150E+00
                       9.3613849367E+00  9.3613849367E+00  1.4108512858E+01
                       9.3613849367E+00  4.6142570150E+00  9.3613849367E+00
                       1.4108512858E+01  9.3613849367E+00  9.3613849367E+00
                       4.6142570150E+00  9.3613849367E+00  9.3613849367E+00
                       2.2542964085E-18  2.4208993433E-19 -1.4939103968E-18
            xcart9     4.6298153760E+00  4.6298153760E+00  4.6298153760E+00
                       1.3889446128E+01  1.3889446128E+01  1.3889446128E+01
                       9.2596307520E+00  1.3916027580E+01  9.2596307520E+00
                       9.2596307520E+00  9.2596307520E+00  4.6032339240E+00
                       9.2596307520E+00  9.2596307520E+00  1.3916027580E+01
                       9.2596307520E+00  4.6032339240E+00  9.2596307520E+00
                       1.3916027580E+01  9.2596307520E+00  9.2596307520E+00
                       4.6032339240E+00  9.2596307520E+00  9.2596307520E+00
                       1.2989951287E-18  2.0585792379E-19  3.8458212513E-19
            xcart10    4.5789382840E+00  4.5789382840E+00  4.5789382840E+00
                       1.3736814852E+01  1.3736814852E+01  1.3736814852E+01
                       9.1578765680E+00  1.3725206533E+01  9.1578765680E+00
                       9.1578765680E+00  9.1578765680E+00  4.5905466032E+00
                       9.1578765680E+00  9.1578765680E+00  1.3725206533E+01
                       9.1578765680E+00  4.5905466032E+00  9.1578765680E+00
                       1.3725206533E+01  9.1578765680E+00  9.1578765680E+00
                       4.5905466032E+00  9.1578765680E+00  9.1578765680E+00
                       7.9449664884E-19  1.4993412675E-18 -1.0385900258E-18
             xred1     2.5000000000E-01  2.5000000000E-01  2.5000000000E-01
                       7.5000000000E-01  7.5000000000E-01  7.5000000000E-01
                       7.6874044413E-01  2.3125955587E-01  7.6874044413E-01
                       2.3125955587E-01  2.3125955587E-01  7.6874044413E-01
                       7.6874044413E-01  7.6874044413E-01  2.3125955587E-01
                       2.3125955587E-01  7.6874044413E-01  2.3125955587E-01
                       2.3125955587E-01  7.6874044413E-01  7.6874044413E-01
                       7.6874044413E-01  2.3125955587E-01  2.3125955587E-01
                       1.5207762451E-19 -1.7828813402E-20 -1.0221322971E-19
             xred2     2.5000000000E-01  2.5000000000E-01  2.5000000000E-01
                       7.5000000000E-01  7.5000000000E-01  7.5000000000E-01
                       7.6658728706E-01  2.3341271294E-01  7.6658728706E-01
                       2.3341271294E-01  2.3341271294E-01  7.6658728706E-01
                       7.6658728706E-01  7.6658728706E-01  2.3341271294E-01
                       2.3341271294E-01  7.6658728706E-01  2.3341271294E-01
                       2.3341271294E-01  7.6658728706E-01  7.6658728706E-01
                       7.6658728706E-01  2.3341271294E-01  2.3341271294E-01
                      -3.4504614193E-21 -8.1613996339E-22  5.7610986145E-21
             xred3     2.5000000000E-01  2.5000000000E-01  2.5000000000E-01
                       7.5000000000E-01  7.5000000000E-01  7.5000000000E-01
                       7.6439734100E-01  2.3560265900E-01  7.6439734100E-01
                       2.3560265900E-01  2.3560265900E-01  7.6439734100E-01
                       7.6439734100E-01  7.6439734100E-01  2.3560265900E-01
                       2.3560265900E-01  7.6439734100E-01  2.3560265900E-01
                       2.3560265900E-01  7.6439734100E-01  7.6439734100E-01
                       7.6439734100E-01  2.3560265900E-01  2.3560265900E-01
                       6.0327579268E-20 -3.0066765724E-20  4.6315974422E-20
             xred4     2.5000000000E-01  2.5000000000E-01  2.5000000000E-01
                       7.5000000000E-01  7.5000000000E-01  7.5000000000E-01
                       7.6221547870E-01  2.3778452130E-01  7.6221547870E-01
                       2.3778452130E-01  2.3778452130E-01  7.6221547870E-01
                       7.6221547870E-01  7.6221547870E-01  2.3778452130E-01
                       2.3778452130E-01  7.6221547870E-01  2.3778452130E-01
                       2.3778452130E-01  7.6221547870E-01  7.6221547870E-01
                       7.6221547870E-01  2.3778452130E-01  2.3778452130E-01
                       1.2058225718E-19 -3.4539406040E-20  1.1192359223E-19
             xred5     2.5000000000E-01  2.5000000000E-01  2.5000000000E-01
                       7.5000000000E-01  7.5000000000E-01  7.5000000000E-01
                       7.6004142537E-01  2.3995857463E-01  7.6004142537E-01
                       2.3995857463E-01  2.3995857463E-01  7.6004142537E-01
                       7.6004142537E-01  7.6004142537E-01  2.3995857463E-01
                       2.3995857463E-01  7.6004142537E-01  2.3995857463E-01
                       2.3995857463E-01  7.6004142537E-01  7.6004142537E-01
                       7.6004142537E-01  2.3995857463E-01  2.3995857463E-01
                      -5.7932279709E-21 -4.9569720499E-22  7.7839234984E-21
             xred6     2.5000000000E-01  2.5000000000E-01  2.5000000000E-01
                       7.5000000000E-01  7.5000000000E-01  7.5000000000E-01
                       7.5786044992E-01  2.4213955008E-01  7.5786044992E-01
                       2.4213955008E-01  2.4213955008E-01  7.5786044992E-01
                       7.5786044992E-01  7.5786044992E-01  2.4213955008E-01
                       2.4213955008E-01  7.5786044992E-01  2.4213955008E-01
                       2.4213955008E-01  7.5786044992E-01  7.5786044992E-01
                       7.5786044992E-01  2.4213955008E-01  2.4213955008E-01
                      -6.1171432307E-20  9.3497621366E-20 -7.6380191077E-20
             xred7     2.5000000000E-01  2.5000000000E-01  2.5000000000E-01
                       7.5000000000E-01  7.5000000000E-01  7.5000000000E-01
                       7.5567740218E-01  2.4432259782E-01  7.5567740218E-01
                       2.4432259782E-01  2.4432259782E-01  7.5567740218E-01
                       7.5567740218E-01  7.5567740218E-01  2.4432259782E-01
                       2.4432259782E-01  7.5567740218E-01  2.4432259782E-01
                       2.4432259782E-01  7.5567740218E-01  7.5567740218E-01
                       7.5567740218E-01  2.4432259782E-01  2.4432259782E-01
                      -2.1063663695E-21 -2.8220745765E-21  6.6954357869E-21
             xred8     2.5000000000E-01  2.5000000000E-01  2.5000000000E-01
                       7.5000000000E-01  7.5000000000E-01  7.5000000000E-01
                       7.5354837739E-01  2.4645162261E-01  7.5354837739E-01
                       2.4645162261E-01  2.4645162261E-01  7.5354837739E-01
                       7.5354837739E-01  7.5354837739E-01  2.4645162261E-01
                       2.4645162261E-01  7.5354837739E-01  2.4645162261E-01
                       2.4645162261E-01  7.5354837739E-01  7.5354837739E-01
                       7.5354837739E-01  2.4645162261E-01  2.4645162261E-01
                      -1.8726485956E-19  2.7682660251E-20  2.1312534238E-19
             xred9     2.5000000000E-01  2.5000000000E-01  2.5000000000E-01
                       7.5000000000E-01  7.5000000000E-01  7.5000000000E-01
                       7.5143534082E-01  2.4856465918E-01  7.5143534082E-01
                       2.4856465918E-01  2.4856465918E-01  7.5143534082E-01
                       7.5143534082E-01  7.5143534082E-01  2.4856465918E-01
                       2.4856465918E-01  7.5143534082E-01  2.4856465918E-01
                       2.4856465918E-01  7.5143534082E-01  7.5143534082E-01
                       7.5143534082E-01  2.4856465918E-01  2.4856465918E-01
                      -3.8260439254E-20  7.9793642405E-20  6.0492203058E-20
             xred10    2.5000000000E-01  2.5000000000E-01  2.5000000000E-01
                       7.5000000000E-01  7.5000000000E-01  7.5000000000E-01
                       7.4936621120E-01  2.5063378880E-01  7.4936621120E-01
                       2.5063378880E-01  2.5063378880E-01  7.4936621120E-01
                       7.4936621120E-01  7.4936621120E-01  2.5063378880E-01
                       2.5063378880E-01  7.4936621120E-01  2.5063378880E-01
                       2.5063378880E-01  7.4936621120E-01  7.4936621120E-01
                       7.4936621120E-01  2.5063378880E-01  2.5063378880E-01
                      -1.8221768149E-20 -9.5187712536E-20  1.8194326585E-19
            znucl       55.00000   17.00000   72.00000

- Timing analysis has been suppressed with timopt=0

 Suggested references for the acknowledgment of ABINIT usage.

 Calculation completed.
.Delivered   0 WARNINGs and   4 COMMENTs to log file.