.Version 9.2.2 of ABINIT

 ABINIT is a project of the Universite Catholique de Louvain,
 Corning Inc. and other collaborators, see ~abinit/doc/developers/contributors.txt .
 acknowledgments of the ABINIT effort.

.Starting date : Fri 24 Feb 2023.
- ( at 00h59 )

- The starting date is more than 2 years after the initial release
- of this version of ABINIT, namely Nov 2020.
- Note that the use beyond 3 years after the release will not be supported.
- Action: please, switch to a more recent version of ABINIT.

- input  file    -> Cs2TiI6.in
- output file    -> Cs2TiI6.out
- root for input  files -> Cs2TiI6i
- root for output files -> Cs2TiI6o

- inpspheads : Reading pseudopotential header in XML form from
-   ../../../Psps_for_tests/ATOMICDATA/Cs.GGA_PBE-JTH.xml
- inpspheads : Reading pseudopotential header in XML form from
-   ../../../Psps_for_tests/ATOMICDATA/I.GGA_PBE-JTH.xml
- inpspheads : Reading pseudopotential header in XML form from
-   ../../../Psps_for_tests/ATOMICDATA/Hf.GGA_PBE-JTH.xml
- inpspheads : Reading pseudopotential header in XML form from
-   ../../../Psps_for_tests/ATOMICDATA/Cl.GGA_PBE-JTH.xml

 DATASET    1 : space group Fm m 2 (# 42); Bravais oF (face-center ortho.)
     intxc =       0    ionmov =       0      iscf =      17    lmnmax =      18
     lnmax =       6     mgfft =      60  mpssoang =       3    mqgrid =    3589
     natom =       9  nloc_mem =       2    nspden =       1   nspinor =       1
    nsppol =       1      nsym =       4    n1xccc =       1    ntypat =       4
    occopt =       1   xclevel =       2
-    mband =          42        mffmem =           1         mkmem =          18
       mpw =        7976          nfft =      216000          nkpt =         108
Pmy_natom=         2
 PAW method is used; the additional fine FFT grid is defined by:
   mgfftf=        90    nfftf =    729000
  Rough estimation (10% accuracy) of disk space for files :

[...]

 DATASET    3 : space group Fm m 2 (# 42); Bravais oF (face-center ortho.)
     intxc =       0    ionmov =       0      iscf =      -2    lmnmax =      18
     lnmax =       6     mgfft =      60  mpssoang =       3    mqgrid =    3589
     natom =       9  nloc_mem =       2    nspden =       1   nspinor =       1
    nsppol =       1      nsym =       4    n1xccc =       1    ntypat =       4
    occopt =       1   xclevel =       2
-    mband =         100        mffmem =           1         mkmem =          72
       mpw =        7976          nfft =      216000          nkpt =         432
Pmy_natom=         2
 PAW method is used; the additional fine FFT grid is defined by:
   mgfftf=        90    nfftf =    729000
  Rough estimation (10% accuracy) of disk space for files :

 DATASET    4 : space group Fm m 2 (# 42); Bravais oF (face-center ortho.)
     intxc =       0      iscf =      -3    lmnmax =      18     lnmax =       6
     mgfft =      60  mpssoang =       3    mqgrid =    3001     natom =       9
  nloc_mem =       2    nspden =       1   nspinor =       1    nsppol =       1
      nsym =       4    n1xccc =       1    ntypat =       4    occopt =       1
   xclevel =       2
-    mband =         100        mffmem =           1         mkmem =          72
-   mkqmem =          72        mk1mem =          72           mpw =        7976
      nfft =      216000          nkpt =         432
Pmy_natom=         2
  Rough estimation (10% accuracy) of disk space for files :

[...]

 DATASET    6 : space group Fm m 2 (# 42); Bravais oF (face-center ortho.)
     intxc =       0      iscf =      -3    lmnmax =      18     lnmax =       6
     mgfft =      60  mpssoang =       3    mqgrid =    3001     natom =       9
  nloc_mem =       2    nspden =       1   nspinor =       1    nsppol =       1
      nsym =       4    n1xccc =       1    ntypat =       4    occopt =       1
   xclevel =       2
-    mband =         100        mffmem =           1         mkmem =          72
-   mkqmem =          72        mk1mem =          72           mpw =        7976
      nfft =      216000          nkpt =         432
Pmy_natom=         2
  Rough estimation (10% accuracy) of disk space for files :

------------- Echo of variables that govern the present computation ------------
-
- outvars: echo of selected default values
-   iomode0 =  0 , fftalg0 =112 , wfoptalg0 = 10
-
- outvars: echo of global parameters not present in the input file
-  max_nthreads =    0
-
 -outvars: echo values of preprocessed input variables --------
            acell      1.5395086575E+01  1.5613385490E+01  1.5319697685E+01 Bohr
              amu      1.32905430E+02  1.26904470E+02  1.78490000E+02
                       3.54527000E+01
           diemac      1.20000000E+01
             ecut      1.60000000E+01 Hartree
-          fftalg         112
           getden1          0
           getden2          1
           getden3          1
           getden4          0
           getden5          0
           getden6          0
           getwfk1          0
           getwfk2          1
           getwfk3          2
           getwfk4          3
           getwfk5          3
           getwfk6          3
             iscf1         17
             iscf2         -2
             iscf3         -2
             iscf4         -3
             iscf5         -3
             iscf6         -3
              ixc     -101130
           jdtset        1    2    3    4    5    6
              kpt1     0.00000000E+00 -8.33333333E-02  0.00000000E+00
                       0.00000000E+00 -2.50000000E-01  0.00000000E+00
                       8.33333333E-02 -1.66666667E-01  0.00000000E+00
                       0.00000000E+00 -1.66666667E-01  8.33333333E-02
                       8.33333333E-02 -8.33333333E-02  8.33333333E-02
                       0.00000000E+00 -4.16666667E-01  0.00000000E+00
                       8.33333333E-02 -3.33333333E-01  0.00000000E+00
                       1.66666667E-01 -2.50000000E-01  0.00000000E+00
                       0.00000000E+00 -3.33333333E-01  8.33333333E-02
                       8.33333333E-02 -2.50000000E-01  8.33333333E-02
                       1.66666667E-01 -1.66666667E-01  8.33333333E-02
                       0.00000000E+00 -2.50000000E-01  1.66666667E-01
                       8.33333333E-02 -1.66666667E-01  1.66666667E-01
                       1.66666667E-01 -8.33333333E-02  1.66666667E-01
                       8.33333333E-02  5.00000000E-01  0.00000000E+00
                       1.66666667E-01 -4.16666667E-01  0.00000000E+00
                       2.50000000E-01 -3.33333333E-01  0.00000000E+00
                       0.00000000E+00  5.00000000E-01  8.33333333E-02
                       8.33333333E-02 -4.16666667E-01  8.33333333E-02
                       1.66666667E-01 -3.33333333E-01  8.33333333E-02
                       2.50000000E-01 -2.50000000E-01  8.33333333E-02
                       0.00000000E+00 -4.16666667E-01  1.66666667E-01
                       8.33333333E-02 -3.33333333E-01  1.66666667E-01
                       1.66666667E-01 -2.50000000E-01  1.66666667E-01
                       2.50000000E-01 -1.66666667E-01  1.66666667E-01
                       0.00000000E+00 -3.33333333E-01  2.50000000E-01
                       8.33333333E-02 -2.50000000E-01  2.50000000E-01
                       1.66666667E-01 -1.66666667E-01  2.50000000E-01
                       2.50000000E-01 -8.33333333E-02  2.50000000E-01
                       8.33333333E-02  3.33333333E-01  0.00000000E+00
                       1.66666667E-01  4.16666667E-01  0.00000000E+00
                       2.50000000E-01  5.00000000E-01  0.00000000E+00
                       3.33333333E-01 -4.16666667E-01  0.00000000E+00
                       0.00000000E+00  3.33333333E-01  8.33333333E-02
                       8.33333333E-02  4.16666667E-01  8.33333333E-02
                       1.66666667E-01  5.00000000E-01  8.33333333E-02
                       2.50000000E-01 -4.16666667E-01  8.33333333E-02
                       3.33333333E-01 -3.33333333E-01  8.33333333E-02
                       0.00000000E+00  4.16666667E-01  1.66666667E-01
                       8.33333333E-02  5.00000000E-01  1.66666667E-01
                       1.66666667E-01 -4.16666667E-01  1.66666667E-01
                       2.50000000E-01 -3.33333333E-01  1.66666667E-01
                       3.33333333E-01 -2.50000000E-01  1.66666667E-01
                       0.00000000E+00  5.00000000E-01  2.50000000E-01
                       8.33333333E-02 -4.16666667E-01  2.50000000E-01
                       1.66666667E-01 -3.33333333E-01  2.50000000E-01
                       2.50000000E-01 -2.50000000E-01  2.50000000E-01
                       3.33333333E-01 -1.66666667E-01  2.50000000E-01
                       0.00000000E+00 -4.16666667E-01  3.33333333E-01
                       8.33333333E-02 -3.33333333E-01  3.33333333E-01
              kpt2     0.00000000E+00 -8.33333333E-02  0.00000000E+00
                       0.00000000E+00 -2.50000000E-01  0.00000000E+00
                       8.33333333E-02 -1.66666667E-01  0.00000000E+00
                       0.00000000E+00 -1.66666667E-01  8.33333333E-02
                       8.33333333E-02 -8.33333333E-02  8.33333333E-02
                       0.00000000E+00 -4.16666667E-01  0.00000000E+00
                       8.33333333E-02 -3.33333333E-01  0.00000000E+00
                       1.66666667E-01 -2.50000000E-01  0.00000000E+00
                       0.00000000E+00 -3.33333333E-01  8.33333333E-02
                       8.33333333E-02 -2.50000000E-01  8.33333333E-02
                       1.66666667E-01 -1.66666667E-01  8.33333333E-02
                       0.00000000E+00 -2.50000000E-01  1.66666667E-01
                       8.33333333E-02 -1.66666667E-01  1.66666667E-01
                       1.66666667E-01 -8.33333333E-02  1.66666667E-01
                       8.33333333E-02  5.00000000E-01  0.00000000E+00
                       1.66666667E-01 -4.16666667E-01  0.00000000E+00
                       2.50000000E-01 -3.33333333E-01  0.00000000E+00
                       0.00000000E+00  5.00000000E-01  8.33333333E-02
                       8.33333333E-02 -4.16666667E-01  8.33333333E-02
                       1.66666667E-01 -3.33333333E-01  8.33333333E-02
                       2.50000000E-01 -2.50000000E-01  8.33333333E-02
                       0.00000000E+00 -4.16666667E-01  1.66666667E-01
                       8.33333333E-02 -3.33333333E-01  1.66666667E-01
                       1.66666667E-01 -2.50000000E-01  1.66666667E-01
                       2.50000000E-01 -1.66666667E-01  1.66666667E-01
                       0.00000000E+00 -3.33333333E-01  2.50000000E-01
                       8.33333333E-02 -2.50000000E-01  2.50000000E-01
                       1.66666667E-01 -1.66666667E-01  2.50000000E-01
                       2.50000000E-01 -8.33333333E-02  2.50000000E-01
                       8.33333333E-02  3.33333333E-01  0.00000000E+00
                       1.66666667E-01  4.16666667E-01  0.00000000E+00
                       2.50000000E-01  5.00000000E-01  0.00000000E+00
[...]
                       1.66666667E-01 -3.33333333E-01  8.33333333E-02
                       2.50000000E-01 -2.50000000E-01  8.33333333E-02
                       3.33333333E-01 -1.66666667E-01  8.33333333E-02
                       4.16666667E-01 -8.33333333E-02  8.33333333E-02
                       0.00000000E+00 -4.16666667E-01  1.66666667E-01
                       8.33333333E-02 -3.33333333E-01  1.66666667E-01
                       1.66666667E-01 -2.50000000E-01  1.66666667E-01
                       2.50000000E-01 -1.66666667E-01  1.66666667E-01
                       3.33333333E-01 -8.33333333E-02  1.66666667E-01
                       0.00000000E+00 -3.33333333E-01  2.50000000E-01
                       8.33333333E-02 -2.50000000E-01  2.50000000E-01
                       1.66666667E-01 -1.66666667E-01  2.50000000E-01
                       2.50000000E-01 -8.33333333E-02  2.50000000E-01
                       0.00000000E+00 -2.50000000E-01  3.33333333E-01
                       8.33333333E-02 -1.66666667E-01  3.33333333E-01
                       1.66666667E-01 -8.33333333E-02  3.33333333E-01
                       0.00000000E+00 -1.66666667E-01  4.16666667E-01
                       8.33333333E-02 -8.33333333E-02  4.16666667E-01
                       0.00000000E+00 -8.33333333E-02  5.00000000E-01
                       8.33333333E-02  3.33333333E-01  0.00000000E+00
                       outvar_i_n : Printing only first  50 k-points.
           kptopt1          1
           kptopt2          1
           kptopt3          2
           kptopt4          2
           kptopt5          2
           kptopt6          2
         kptrlatt        6    6   -6     -6    6    6      6   -6    6
          kptrlen      1.28103589E+02
P           mkmem1         18
P           mkmem2         18
P           mkmem3         72
P           mkmem4         72
P           mkmem5         72
P           mkmem6         72
P          mkqmem1         18
P          mkqmem2         18
P          mkqmem3         72
P          mkqmem4         72
P          mkqmem5         72
P          mkqmem6         72
P          mk1mem1         18
P          mk1mem2         18
P          mk1mem3         72
P          mk1mem4         72
P          mk1mem5         72
P          mk1mem6         72
            natom           9
            nband1         42
            nband2        100
            nband3        100
            nband4        100
            nband5        100
            nband6        100
           nbdbuf1          0
           nbdbuf2          2
           nbdbuf3          2
           nbdbuf4          2
           nbdbuf5          2
           nbdbuf6          2
           ndtset           6
            ngfft          60      60      60
          ngfftdg          90      90      90
             nkpt1        108
             nkpt2        108
             nkpt3        432
             nkpt4        432
             nkpt5        432
             nkpt6        432
            nline1          4
            nline2          4
            nline3          4
            nline4          0
            nline5          0
            nline6          0
             nqpt1          0
             nqpt2          0
             nqpt3          0
             nqpt4          1
             nqpt5          1
             nqpt6          1
            nstep1        200
            nstep2        200
            nstep3        100
            nstep4          1
            nstep5          1
            nstep6          1
             nsym           4
           ntypat           4
              occ1     2.000000  2.000000  2.000000  2.000000  2.000000  2.000000
                       2.000000  2.000000  2.000000  2.000000  2.000000  2.000000
                       2.000000  2.000000  2.000000  2.000000  2.000000  2.000000
                       2.000000  2.000000  2.000000  2.000000  2.000000  2.000000
                       2.000000  2.000000  2.000000  2.000000  2.000000  2.000000
                       2.000000  2.000000  2.000000  2.000000  2.000000  2.000000
                       0.000000  0.000000  0.000000  0.000000  0.000000  0.000000
              occ4     2.000000  2.000000  2.000000  2.000000  2.000000  2.000000
                       2.000000  2.000000  2.000000  2.000000  2.000000  2.000000
                       2.000000  2.000000  2.000000  2.000000  2.000000  2.000000
                       2.000000  2.000000  2.000000  2.000000  2.000000  2.000000
                       2.000000  2.000000  2.000000  2.000000  2.000000  2.000000
                       2.000000  2.000000  2.000000  2.000000  2.000000  2.000000
                       0.000000  0.000000  0.000000  0.000000  0.000000  0.000000
                       0.000000  0.000000  0.000000  0.000000  0.000000  0.000000
                       0.000000  0.000000  0.000000  0.000000  0.000000  0.000000
                       0.000000  0.000000  0.000000  0.000000  0.000000  0.000000
                       0.000000  0.000000  0.000000  0.000000  0.000000  0.000000
                       0.000000  0.000000  0.000000  0.000000  0.000000  0.000000
                       0.000000  0.000000  0.000000  0.000000  0.000000  0.000000
                       0.000000  0.000000  0.000000  0.000000  0.000000  0.000000
                       0.000000  0.000000  0.000000  0.000000  0.000000  0.000000
                       0.000000  0.000000  0.000000  0.000000  0.000000  0.000000
                       0.000000  0.000000  0.000000  0.000000
              occ5     2.000000  2.000000  2.000000  2.000000  2.000000  2.000000
                       2.000000  2.000000  2.000000  2.000000  2.000000  2.000000
                       2.000000  2.000000  2.000000  2.000000  2.000000  2.000000
                       2.000000  2.000000  2.000000  2.000000  2.000000  2.000000
                       2.000000  2.000000  2.000000  2.000000  2.000000  2.000000
                       2.000000  2.000000  2.000000  2.000000  2.000000  2.000000
                       0.000000  0.000000  0.000000  0.000000  0.000000  0.000000
                       0.000000  0.000000  0.000000  0.000000  0.000000  0.000000
                       0.000000  0.000000  0.000000  0.000000  0.000000  0.000000
                       0.000000  0.000000  0.000000  0.000000  0.000000  0.000000
                       0.000000  0.000000  0.000000  0.000000  0.000000  0.000000
                       0.000000  0.000000  0.000000  0.000000  0.000000  0.000000
                       0.000000  0.000000  0.000000  0.000000  0.000000  0.000000
                       0.000000  0.000000  0.000000  0.000000  0.000000  0.000000
                       0.000000  0.000000  0.000000  0.000000  0.000000  0.000000
                       0.000000  0.000000  0.000000  0.000000  0.000000  0.000000
                       0.000000  0.000000  0.000000  0.000000
              occ6     2.000000  2.000000  2.000000  2.000000  2.000000  2.000000
                       2.000000  2.000000  2.000000  2.000000  2.000000  2.000000
                       2.000000  2.000000  2.000000  2.000000  2.000000  2.000000
                       2.000000  2.000000  2.000000  2.000000  2.000000  2.000000
                       2.000000  2.000000  2.000000  2.000000  2.000000  2.000000
                       2.000000  2.000000  2.000000  2.000000  2.000000  2.000000
                       0.000000  0.000000  0.000000  0.000000  0.000000  0.000000
                       0.000000  0.000000  0.000000  0.000000  0.000000  0.000000
                       0.000000  0.000000  0.000000  0.000000  0.000000  0.000000
                       0.000000  0.000000  0.000000  0.000000  0.000000  0.000000
                       0.000000  0.000000  0.000000  0.000000  0.000000  0.000000
                       0.000000  0.000000  0.000000  0.000000  0.000000  0.000000
                       0.000000  0.000000  0.000000  0.000000  0.000000  0.000000
                       0.000000  0.000000  0.000000  0.000000  0.000000  0.000000
                       0.000000  0.000000  0.000000  0.000000  0.000000  0.000000
                       0.000000  0.000000  0.000000  0.000000  0.000000  0.000000
                       0.000000  0.000000  0.000000  0.000000
        optdriver1          0
        optdriver2          0
        optdriver3          0
        optdriver4          1
        optdriver5          1
        optdriver6          1
        pawecutdg      4.00000000E+01 Hartree
            prtwf1          1
            prtwf2          1
            prtwf3          1
            prtwf4          3
            prtwf5          3
            prtwf6          3
            rfdir1          0       0       0
            rfdir2          0       0       0
            rfdir3          0       0       0
            rfdir4          1       0       0
            rfdir5          0       1       0
            rfdir6          0       0       1
           rfelfd1          0
           rfelfd2          0
           rfelfd3          0
           rfelfd4          2
           rfelfd5          2
           rfelfd6          2
            rprim      0.0000000000E+00  6.9342247853E-01  7.2053123892E-01
                       7.0374049795E-01  0.0000000000E+00  7.1045711450E-01
                       7.1723162597E-01  6.9683484033E-01  0.0000000000E+00
           shiftk     -5.00000000E-01  5.00000000E-01  5.00000000E-01
          spgroup          42
           strten1     4.2911679868E-06  4.1678996077E-06  4.1952902227E-06
                      -3.6733232894E-14  2.0394862859E-13 -1.7483665166E-13
           symrel      1  0  0   0  1  0   0  0  1       0  1 -1   1  0 -1   0  0 -1
                       1  0  0   1  0 -1   1 -1  0       0  1 -1   0  1  0  -1  1  0
           tolwfr      1.00000000E-18
            typat      1  1  4  4  2  4  2  2  3
           useylm           1
              wtk1       0.00926    0.00926    0.00926    0.00926    0.00926    0.00926
                         0.00926    0.00926    0.00926    0.00926    0.00926    0.00926
                         0.00926    0.00926    0.00926    0.00926    0.00926    0.00926
                         0.00926    0.00926    0.00926    0.00926    0.00926    0.00926
                         0.00926    0.00926    0.00926    0.00926    0.00926    0.00926
                         0.00926    0.00926    0.00926    0.00926    0.00926    0.00926
                         0.00926    0.00926    0.00926    0.00926    0.00926    0.00926
                         0.00926    0.00926    0.00926    0.00926    0.00926    0.00926
                         0.00926    0.00926
              wtk2       0.00926    0.00926    0.00926    0.00926    0.00926    0.00926
                         0.00926    0.00926    0.00926    0.00926    0.00926    0.00926
                         0.00926    0.00926    0.00926    0.00926    0.00926    0.00926
                         0.00926    0.00926    0.00926    0.00926    0.00926    0.00926
                         0.00926    0.00926    0.00926    0.00926    0.00926    0.00926
                         0.00926    0.00926    0.00926    0.00926    0.00926    0.00926
                         0.00926    0.00926    0.00926    0.00926    0.00926    0.00926
                         0.00926    0.00926    0.00926    0.00926    0.00926    0.00926
                         0.00926    0.00926
              wtk3       0.00231    0.00231    0.00231    0.00231    0.00231    0.00231
                         0.00231    0.00231    0.00231    0.00231    0.00231    0.00231
                         0.00231    0.00231    0.00231    0.00231    0.00231    0.00231
                         0.00231    0.00231    0.00231    0.00231    0.00231    0.00231
                         0.00231    0.00231    0.00231    0.00231    0.00231    0.00231
                         0.00231    0.00231    0.00231    0.00231    0.00231    0.00231
                         0.00231    0.00231    0.00231    0.00231    0.00231    0.00231
                         0.00231    0.00231    0.00231    0.00231    0.00231    0.00231
                         0.00231    0.00231
              wtk4       0.00231    0.00231    0.00231    0.00231    0.00231    0.00231
                         0.00231    0.00231    0.00231    0.00231    0.00231    0.00231
                         0.00231    0.00231    0.00231    0.00231    0.00231    0.00231
                         0.00231    0.00231    0.00231    0.00231    0.00231    0.00231
                         0.00231    0.00231    0.00231    0.00231    0.00231    0.00231
                         0.00231    0.00231    0.00231    0.00231    0.00231    0.00231
                         0.00231    0.00231    0.00231    0.00231    0.00231    0.00231
                         0.00231    0.00231    0.00231    0.00231    0.00231    0.00231
                         0.00231    0.00231
              wtk5       0.00231    0.00231    0.00231    0.00231    0.00231    0.00231
                         0.00231    0.00231    0.00231    0.00231    0.00231    0.00231
                         0.00231    0.00231    0.00231    0.00231    0.00231    0.00231
                         0.00231    0.00231    0.00231    0.00231    0.00231    0.00231
                         0.00231    0.00231    0.00231    0.00231    0.00231    0.00231
                         0.00231    0.00231    0.00231    0.00231    0.00231    0.00231
                         0.00231    0.00231    0.00231    0.00231    0.00231    0.00231
                         0.00231    0.00231    0.00231    0.00231    0.00231    0.00231
                         0.00231    0.00231
              wtk6       0.00231    0.00231    0.00231    0.00231    0.00231    0.00231
                         0.00231    0.00231    0.00231    0.00231    0.00231    0.00231
                         0.00231    0.00231    0.00231    0.00231    0.00231    0.00231
                         0.00231    0.00231    0.00231    0.00231    0.00231    0.00231
                         0.00231    0.00231    0.00231    0.00231    0.00231    0.00231
                         0.00231    0.00231    0.00231    0.00231    0.00231    0.00231
                         0.00231    0.00231    0.00231    0.00231    0.00231    0.00231
                         0.00231    0.00231    0.00231    0.00231    0.00231    0.00231
                         0.00231    0.00231
                       outvars : Printing only first  50 k-points.
           xangst      2.9072391730E+00  2.8245624867E+00  2.9453373014E+00
                       8.7217175191E+00  8.4736874601E+00  8.8153099974E+00
                       5.8144783462E+00  8.8599452918E+00  5.9281637105E+00
                       5.8144783462E+00  5.6491249734E+00  2.5363412507E+00
                       5.8144783460E+00  5.6491249733E+00  8.9284165797E+00
                       5.8144783460E+00  2.4383046549E+00  5.9281637104E+00
                       8.7380382446E+00  5.6491249734E+00  5.8886990102E+00
                       2.8909184475E+00  5.6491249733E+00  5.8886990103E+00
                      -2.5564462499E-12 -9.5461227061E-13  1.0065099739E-01
            xcart      5.4938858398E+00  5.3376495451E+00  5.5658808686E+00
                       1.6481657520E+01  1.6012948635E+01  1.6658521672E+01
                       1.0987771680E+01  1.6742870154E+01  1.1202605884E+01
                       1.0987771680E+01  1.0675299090E+01  4.7929903434E+00
                       1.0987771680E+01  1.0675299090E+01  1.6872262136E+01
                       1.0987771680E+01  4.6077280264E+00  1.1202605884E+01
                       1.6512499221E+01  1.0675299090E+01  1.1128028408E+01
                       5.4630441384E+00  1.0675299090E+01  1.1128028409E+01
                      -4.8309832857E-12 -1.8039557545E-12  1.9020282007E-01
             xred      2.5088168667E-01  2.5088168667E-01  2.4911831333E-01
                       7.5088168667E-01  7.5088168667E-01  7.4911831333E-01
                       7.8914407191E-01  2.2076926456E-01  7.7923073544E-01
                       2.1604370089E-01  2.1604370089E-01  7.8395629911E-01
                       7.6051602299E-01  7.6051602299E-01  2.3948397701E-01
                       2.2076926456E-01  7.8914407191E-01  2.1085592809E-01
                       2.5019163812E-01  7.5299854951E-01  7.4980836188E-01
                       7.5299854951E-01  2.5019163812E-01  2.4700145049E-01
                       8.5733786682E-03  8.5733786682E-03 -8.5733786682E-03
            znucl       55.00000   53.00000   72.00000   17.00000

- Timing analysis has been suppressed with timopt=0

 Suggested references for the acknowledgment of ABINIT usage.

 Calculation completed.
.Delivered   1 WARNINGs and   0 COMMENTs to log file.