.Version 9.2.2 of ABINIT

 ABINIT is a project of the Universite Catholique de Louvain,
 Corning Inc. and other collaborators, see ~abinit/doc/developers/contributors.txt .
 acknowledgments of the ABINIT effort.

.Starting date : Wed 23 Nov 2022.
- ( at 07h53 )

- input  file    -> Cs2TiI6.in
- output file    -> Cs2TiI6.out
- root for input  files -> Cs2TiI6i
- root for output files -> Cs2TiI6o

- inpspheads : Reading pseudopotential header in XML form from
-   ../../../Psps_for_tests/ATOMICDATA/Cs.GGA_PBE-JTH.xml
- inpspheads : Reading pseudopotential header in XML form from
-   ../../../Psps_for_tests/ATOMICDATA/I.GGA_PBE-JTH.xml
- inpspheads : Reading pseudopotential header in XML form from
-   ../../../Psps_for_tests/ATOMICDATA/Zr.GGA_PBE-JTH.xml
- inpspheads : Reading pseudopotential header in XML form from
-   ../../../Psps_for_tests/ATOMICDATA/Br.GGA_PBE-JTH.xml

 DATASET    1 : space group I4 m m (#107); Bravais tI (body-center tetrag.)
     intxc =       0    ionmov =       0      iscf =      17    lmnmax =      18
     lnmax =       6     mgfft =      72  mpssoang =       3    mqgrid =    4216
     natom =       9  nloc_mem =       2    nspden =       1   nspinor =       1
    nsppol =       1      nsym =       8    n1xccc =       1    ntypat =       4
    occopt =       1   xclevel =       2
-    mband =          42        mffmem =           1         mkmem =          28
       mpw =       12943          nfft =      373248          nkpt =         163
Pmy_natom=         2
 PAW method is used; the additional fine FFT grid is defined by:
   mgfftf=       108    nfftf =   1259712
  Rough estimation (10% accuracy) of disk space for files :

[...]

 DATASET   10 : space group I4 m m (#107); Bravais tI (body-center tetrag.)
     intxc =       0    ionmov =       0      iscf =      17    lmnmax =      18
     lnmax =       6     mgfft =      60  mpssoang =       3    mqgrid =    3832
     natom =       9  nloc_mem =       2    nspden =       1   nspinor =       1
    nsppol =       1      nsym =       8    n1xccc =       1    ntypat =       4
    occopt =       1   xclevel =       2
-    mband =          42        mffmem =           1         mkmem =          28
       mpw =        9717          nfft =      216000          nkpt =         163
Pmy_natom=         2
 PAW method is used; the additional fine FFT grid is defined by:
   mgfftf=        96    nfftf =    884736
  Rough estimation (10% accuracy) of disk space for files :

------------- Echo of variables that govern the present computation ------------
-
- outvars: echo of selected default values
-   iomode0 =  0 , fftalg0 =112 , wfoptalg0 = 10
-
- outvars: echo of global parameters not present in the input file
-  max_nthreads =    0
-
 -outvars: echo values of preprocessed input variables --------
            acell1     1.5727551974E+01  1.5727551974E+01  1.5856130854E+01 Bohr
            acell2     1.5568359144E+01  1.5568359144E+01  1.5696665128E+01 Bohr
            acell3     1.5408059455E+01  1.5408059455E+01  1.5539551435E+01 Bohr
            acell4     1.5248326085E+01  1.5248326085E+01  1.5381238117E+01 Bohr
            acell5     1.5087661922E+01  1.5087661922E+01  1.5224913466E+01 Bohr
            acell6     1.4925447589E+01  1.4925447589E+01  1.5071923671E+01 Bohr
            acell7     1.4763919128E+01  1.4763919128E+01  1.4917494039E+01 Bohr
            acell8     1.4602560348E+01  1.4602560348E+01  1.4762723557E+01 Bohr
            acell9     1.4440444390E+01  1.4440444390E+01  1.4609625194E+01 Bohr
            acell10    1.4279405046E+01  1.4279405046E+01  1.4454213719E+01 Bohr
              amu      1.32905430E+02  1.26904470E+02  9.12240000E+01
                       7.99040000E+01
           diemac      1.20000000E+01
          dilatmx      1.15000000E+00
             ecut      1.60000000E+01 Hartree
           ecutsm      5.00000000E-01 Hartree
-          fftalg         112
           istwfk        2    0    0    0    0    0    3    0    0    0
                         0    0    0    0    0    0    0    0    0    0
                         0    0    0    0    0    0    0    0    0    0
                         0    0    0    0    0    0    0    0    0    0
                         0    0    7    0    0    0    0    0    0    0
                       outvar_i_n : Printing only first  50 k-points.
              ixc     -101130
           jdtset        1    2    3    4    5    6    7    8    9   10
              kpt      0.00000000E+00  0.00000000E+00  0.00000000E+00
                       8.33333333E-02  0.00000000E+00  0.00000000E+00
                       1.66666667E-01  0.00000000E+00  0.00000000E+00
                       2.50000000E-01  0.00000000E+00  0.00000000E+00
                       3.33333333E-01  0.00000000E+00  0.00000000E+00
                       4.16666667E-01  0.00000000E+00  0.00000000E+00
                       5.00000000E-01  0.00000000E+00  0.00000000E+00
                       8.33333333E-02  8.33333333E-02  0.00000000E+00
                       1.66666667E-01  8.33333333E-02  0.00000000E+00
                       2.50000000E-01  8.33333333E-02  0.00000000E+00
                       3.33333333E-01  8.33333333E-02  0.00000000E+00
                       4.16666667E-01  8.33333333E-02  0.00000000E+00
                       5.00000000E-01  8.33333333E-02  0.00000000E+00
                      -4.16666667E-01  8.33333333E-02  0.00000000E+00
                      -3.33333333E-01  8.33333333E-02  0.00000000E+00
                      -2.50000000E-01  8.33333333E-02  0.00000000E+00
                      -1.66666667E-01  8.33333333E-02  0.00000000E+00
                      -8.33333333E-02  8.33333333E-02  0.00000000E+00
                       1.66666667E-01  1.66666667E-01  0.00000000E+00
                       2.50000000E-01  1.66666667E-01  0.00000000E+00
                       3.33333333E-01  1.66666667E-01  0.00000000E+00
                       4.16666667E-01  1.66666667E-01  0.00000000E+00
                       5.00000000E-01  1.66666667E-01  0.00000000E+00
                      -4.16666667E-01  1.66666667E-01  0.00000000E+00
                      -3.33333333E-01  1.66666667E-01  0.00000000E+00
                      -2.50000000E-01  1.66666667E-01  0.00000000E+00
                      -1.66666667E-01  1.66666667E-01  0.00000000E+00
                       2.50000000E-01  2.50000000E-01  0.00000000E+00
                       3.33333333E-01  2.50000000E-01  0.00000000E+00
                       4.16666667E-01  2.50000000E-01  0.00000000E+00
                       5.00000000E-01  2.50000000E-01  0.00000000E+00
                      -4.16666667E-01  2.50000000E-01  0.00000000E+00
                      -3.33333333E-01  2.50000000E-01  0.00000000E+00
                      -2.50000000E-01  2.50000000E-01  0.00000000E+00
                       3.33333333E-01  3.33333333E-01  0.00000000E+00
                       4.16666667E-01  3.33333333E-01  0.00000000E+00
                       5.00000000E-01  3.33333333E-01  0.00000000E+00
                      -4.16666667E-01  3.33333333E-01  0.00000000E+00
                      -3.33333333E-01  3.33333333E-01  0.00000000E+00
                       4.16666667E-01  4.16666667E-01  0.00000000E+00
                       5.00000000E-01  4.16666667E-01  0.00000000E+00
                      -4.16666667E-01  4.16666667E-01  0.00000000E+00
                       5.00000000E-01  5.00000000E-01  0.00000000E+00
                       8.33333333E-02  0.00000000E+00  8.33333333E-02
                       1.66666667E-01  0.00000000E+00  8.33333333E-02
                       2.50000000E-01  0.00000000E+00  8.33333333E-02
                       3.33333333E-01  0.00000000E+00  8.33333333E-02
                       4.16666667E-01  0.00000000E+00  8.33333333E-02
                       5.00000000E-01  0.00000000E+00  8.33333333E-02
                      -4.16666667E-01  0.00000000E+00  8.33333333E-02
                       outvar_i_n : Printing only first  50 k-points.
         kptrlatt       12    0    0      0   12    0      0    0   12
          kptrlen1     1.88730624E+02
          kptrlen2     1.86820310E+02
          kptrlen3     1.84896713E+02
          kptrlen4     1.82979913E+02
          kptrlen5     1.81051943E+02
          kptrlen6     1.79105371E+02
          kptrlen7     1.77167030E+02
          kptrlen8     1.75230724E+02
          kptrlen9     1.73285333E+02
          kptrlen10    1.71352861E+02
P           mkmem          28
            natom           9
            nband          42
           ndtset          10
            ngfft1         72      72      72
            ngfft2         72      72      72
            ngfft3         72      72      72
            ngfft4         64      64      64
            ngfft5         64      64      64
            ngfft6         64      64      64
            ngfft7         64      64      64
            ngfft8         64      64      64
            ngfft9         64      64      64
            ngfft10        60      60      60
          ngfftdg1        108     108     108
          ngfftdg2        108     108     108
          ngfftdg3        108     108     108
          ngfftdg4        108     108     108
          ngfftdg5        100     100     100
          ngfftdg6        100     100     100
          ngfftdg7        100     100     100
          ngfftdg8        100     100     100
          ngfftdg9         96      96      96
          ngfftdg10        96      96      96
             nkpt         163
            nstep        2500
             nsym           8
           ntypat           4
              occ      2.000000  2.000000  2.000000  2.000000  2.000000  2.000000
                       2.000000  2.000000  2.000000  2.000000  2.000000  2.000000
                       2.000000  2.000000  2.000000  2.000000  2.000000  2.000000
                       2.000000  2.000000  2.000000  2.000000  2.000000  2.000000
                       2.000000  2.000000  2.000000  2.000000  2.000000  2.000000
                       2.000000  2.000000  2.000000  2.000000  2.000000  2.000000
                       0.000000  0.000000  0.000000  0.000000  0.000000  0.000000
        pawecutdg      4.00000000E+01 Hartree
            prtwf           0
            rprim1     0.0000000000E+00  7.1288765530E-01  7.0127825499E-01
                       7.1288765530E-01  0.0000000000E+00  7.0127825499E-01
                       7.0710678119E-01  7.0710678119E-01  0.0000000000E+00
            rprim2     0.0000000000E+00  7.1293437232E-01  7.0123076142E-01
                       7.1293437232E-01  0.0000000000E+00  7.0123076142E-01
                       7.0710678119E-01  7.0710678119E-01  0.0000000000E+00
            rprim3     0.0000000000E+00  7.1314121213E-01  7.0102040738E-01
                       7.1314121213E-01  0.0000000000E+00  7.0102040738E-01
                       7.0710678119E-01  7.0710678119E-01  0.0000000000E+00
            rprim4     0.0000000000E+00  7.1327027734E-01  7.0088908642E-01
                       7.1327027734E-01  0.0000000000E+00  7.0088908642E-01
                       7.0710678119E-01  7.0710678119E-01  0.0000000000E+00
[...]
                      -4.8084454211E-13 -4.8084454211E-13 -7.3001764040E-02
           xangst7     2.7909497069E+00  2.7909497069E+00  2.7257546440E+00
                       8.3728491206E+00  8.3728491206E+00  8.1921191912E+00
                       5.5818994137E+00  5.5818994137E+00  2.7626970976E+00
                       5.5818994137E+00  5.5818994137E+00  8.2558551981E+00
                       8.3244995326E+00  5.5818994137E+00  5.4680202166E+00
                       5.5818994137E+00  8.3244995326E+00  5.4680202166E+00
                       5.5818994137E+00  2.8392992949E+00  5.4680202166E+00
                       2.8392992949E+00  5.5818994137E+00  5.4680202166E+00
                       8.3115736746E-13  8.3115736746E-13 -7.7590618775E-02
           xangst8     2.7619933266E+00  2.7619933266E+00  2.6964893385E+00
                       8.2859799797E+00  8.2859799797E+00  8.0999500577E+00
                       5.5239866531E+00  5.5239866531E+00  2.7469246217E+00
                       5.5239866532E+00  5.5239866532E+00  8.1318298988E+00
                       8.2207433198E+00  5.5239866531E+00  5.4086573341E+00
                       5.5239866531E+00  8.2207433198E+00  5.4086573341E+00
                       5.5239866532E+00  2.8272299864E+00  5.4086573341E+00
                       2.8272299864E+00  5.5239866532E+00  5.4086573341E+00
                      -1.0264472613E-12 -1.0264472613E-12 -8.2137499127E-02
           xangst9     2.7333497869E+00  2.7333497869E+00  2.6672247515E+00
                       8.2000493608E+00  8.2000493608E+00  8.0065640471E+00
                       5.4666995739E+00  5.4666995739E+00  2.7295954023E+00
                       5.4666995739E+00  5.4666995739E+00  8.0061318388E+00
                       8.1198668344E+00  5.4666995739E+00  5.3481634491E+00
                       5.4666995739E+00  8.1198668344E+00  5.3481634491E+00
                       5.4666995739E+00  2.8135323133E+00  5.3481634491E+00
                       2.8135323133E+00  5.4666995739E+00  5.3481634491E+00
                      -5.9655828228E-13 -5.9655828228E-13 -8.7455470585E-02
           xangst10    2.7042734816E+00  2.7042734816E+00  2.6390666653E+00
                       8.1128204449E+00  8.1128204449E+00  7.9159813885E+00
                       5.4085469633E+00  5.4085469633E+00  2.7109574727E+00
                       5.4085469633E+00  5.4085469633E+00  7.8849384949E+00
                       8.0186120383E+00  5.4085469633E+00  5.2894278801E+00
                       5.4085469633E+00  8.0186120383E+00  5.2894278801E+00
                       5.4085469633E+00  2.7984818882E+00  5.2894278801E+00
                       2.7984818882E+00  5.4085469633E+00  5.2894278801E+00
                       1.5088534472E-13  1.5088534472E-13 -9.3337756249E-02
            xcart1     5.6059888252E+00  5.6059888252E+00  5.4829574066E+00
                       1.6817966475E+01  1.6817966475E+01  1.6512347610E+01
                       1.1211977650E+01  1.1211977650E+01  5.3414730076E+00
                       1.1211977650E+01  1.1211977650E+01  1.7006135355E+01
                       1.6970873037E+01  1.1211977650E+01  1.1001019171E+01
                       1.1211977650E+01  1.6970873037E+01  1.1001019171E+01
                       1.1211977650E+01  5.4530822635E+00  1.1001019171E+01
                       5.4530822635E+00  1.1211977650E+01  1.1001019171E+01
                      -2.7568225321E-13 -2.7568225321E-13 -1.1186843385E-01
            xcart2     5.5496091771E+00  5.5496091771E+00  5.4270667752E+00
                       1.6648827531E+01  1.6648827531E+01  1.6344079112E+01
                       1.1099218354E+01  1.1099218354E+01  5.3286346424E+00
                       1.1099218354E+01  1.1099218354E+01  1.6779324550E+01
                       1.6754741661E+01  1.1099218354E+01  1.0893074732E+01
                       1.1099218354E+01  1.6754741661E+01  1.0893074732E+01
                       1.1099218354E+01  5.4436950476E+00  1.0893074732E+01
                       5.4436950476E+00  1.1099218354E+01  1.0893074732E+01
                      -1.5978893806E-12 -1.5978893806E-12 -1.1530531545E-01
            xcart3     5.4940610982E+00  5.4940610982E+00  5.3722116443E+00
                       1.6482183294E+01  1.6482183294E+01  1.6173575760E+01
                       1.0988122196E+01  1.0988122196E+01  5.3122149372E+00
                       1.0988122196E+01  1.0988122196E+01  1.6546041794E+01
                       1.6544034807E+01  1.0988122196E+01  1.0781682470E+01
                       1.0988122196E+01  1.6544034807E+01  1.0781682470E+01
                       1.0988122196E+01  5.4322095854E+00  1.0781682470E+01
                       5.4322095854E+00  1.0988122196E+01  1.0781682470E+01
                       1.6359980269E-13  1.6359980269E-13 -1.1986108535E-01
            xcart4     5.4380888878E+00  5.4380888878E+00  5.3178624252E+00
                       1.6314266663E+01  1.6314266663E+01  1.6005247764E+01
                       1.0876177776E+01  1.0876177776E+01  5.2940139380E+00
                       1.0876177776E+01  1.0876177776E+01  1.6316623033E+01
                       1.6333364631E+01  1.0876177776E+01  1.0672534440E+01
                       1.0876177776E+01  1.6333364631E+01  1.0672534440E+01
                       1.0876177776E+01  5.4189909198E+00  1.0672534440E+01
                       5.4189909198E+00  1.0876177776E+01  1.0672534440E+01
                       5.8979464713E-14  5.8979464713E-14 -1.2480220760E-01
            xcart5     5.3828197775E+00  5.3828197775E+00  5.2629217477E+00
                       1.6148459332E+01  1.6148459332E+01  1.5833567293E+01
                       1.0765639555E+01  1.0765639555E+01  5.2724890576E+00
                       1.0765639555E+01  1.0765639555E+01  1.6081974449E+01
                       1.6127623767E+01  1.0765639555E+01  1.0561312422E+01
                       1.0765639555E+01  1.6127623767E+01  1.0561312422E+01
                       1.0765639555E+01  5.4036553425E+00  1.0561312422E+01
                       5.4036553425E+00  1.0765639555E+01  1.0561312422E+01
                      -1.3955177626E-12 -1.3955177626E-12 -1.3103787490E-01
            xcart6     5.3287297167E+00  5.3287297167E+00  5.2053694665E+00
                       1.5986189150E+01  1.5986189150E+01  1.5654653851E+01
                       1.0657459433E+01  1.0657459433E+01  5.2483804088E+00
                       1.0657459433E+01  1.0657459433E+01  1.5839360502E+01
                       1.5929020240E+01  1.0657459433E+01  1.0446116048E+01
                       1.0657459433E+01  1.5929020240E+01  1.0446116048E+01
                       1.0657459433E+01  5.3858986269E+00  1.0446116048E+01
                       5.3858986269E+00  1.0657459433E+01  1.0446116048E+01
                      -9.0866449708E-13 -9.0866449708E-13 -1.3795334125E-01
            xcart7     5.2741305966E+00  5.2741305966E+00  5.1509297825E+00
                       1.5822391790E+01  1.5822391790E+01  1.5480861719E+01
                       1.0548261193E+01  1.0548261193E+01  5.2207409026E+00
                       1.0548261193E+01  1.0548261193E+01  1.5601305317E+01
                       1.5731024310E+01  1.0548261193E+01  1.0333060698E+01
                       1.0548261193E+01  1.5731024310E+01  1.0333060698E+01
                       1.0548261193E+01  5.3654980766E+00  1.0333060698E+01
                       5.3654980766E+00  1.0548261193E+01  1.0333060698E+01
                       1.5706597978E-12  1.5706597978E-12 -1.4662501997E-01
            xcart8     5.2194109681E+00  5.2194109681E+00  5.0956263700E+00
                       1.5658232904E+01  1.5658232904E+01  1.5306687299E+01
                       1.0438821936E+01  1.0438821936E+01  5.1909352427E+00
                       1.0438821936E+01  1.0438821936E+01  1.5366931468E+01
                       1.5534953483E+01  1.0438821936E+01  1.0220881108E+01
                       1.0438821936E+01  1.5534953483E+01  1.0220881108E+01
                       1.0438821936E+01  5.3426903890E+00  1.0220881108E+01
                       5.3426903890E+00  1.0438821936E+01  1.0220881108E+01
                      -1.9397042138E-12 -1.9397042138E-12 -1.5521737859E-01
            xcart9     5.1652825227E+00  5.1652825227E+00  5.0403243151E+00
                       1.5495847568E+01  1.5495847568E+01  1.5130213314E+01
                       1.0330565045E+01  1.0330565045E+01  5.1581877639E+00
                       1.0330565045E+01  1.0330565045E+01  1.5129396559E+01
                       1.5344324553E+01  1.0330565045E+01  1.0106564233E+01
                       1.0330565045E+01  1.5344324553E+01  1.0106564233E+01
                       1.0330565045E+01  5.3168055382E+00  1.0106564233E+01
                       5.3168055382E+00  1.0330565045E+01  1.0106564233E+01
                      -1.1273317758E-12 -1.1273317758E-12 -1.6526688823E-01
            xcart10    5.1103362687E+00  5.1103362687E+00  4.9871132438E+00
                       1.5331008806E+01  1.5331008806E+01  1.4959036897E+01
                       1.0220672537E+01  1.0220672537E+01  5.1229671813E+00
                       1.0220672537E+01  1.0220672537E+01  1.4900374330E+01
                       1.5152980718E+01  1.0220672537E+01  9.9955700930E+00
                       1.0220672537E+01  1.5152980718E+01  9.9955700930E+00
                       1.0220672537E+01  5.2883643566E+00  9.9955700930E+00
                       5.2883643566E+00  1.0220672537E+01  9.9955700930E+00
                       2.8513197899E-13  2.8513197899E-13 -1.7638279717E-01
             xred1     2.4856122167E-01  2.4856122167E-01  2.5143877833E-01
                       7.4856122167E-01  7.4856122167E-01  7.5143877833E-01
                       2.4214724971E-01  2.4214724971E-01  7.5785275029E-01
                       7.7094630987E-01  7.7094630987E-01  2.2905369013E-01
                       2.4189495056E-01  7.5553273744E-01  7.5810504944E-01
                       7.5553273744E-01  2.4189495056E-01  7.5810504944E-01
                       2.4189495056E-01  7.5553273744E-01  2.4446726256E-01
                       7.5553273744E-01  2.4189495056E-01  2.4446726256E-01
                      -5.0713789153E-03 -5.0713789153E-03  5.0713789153E-03
             xred2     2.4856007339E-01  2.4856007339E-01  2.5143992661E-01
                       7.4856007339E-01  7.4856007339E-01  7.5143992661E-01
                       2.4405187418E-01  2.4405187418E-01  7.5594812582E-01
                       7.6849434774E-01  7.6849434774E-01  2.3150565226E-01
                       2.4413241317E-01  7.5367489861E-01  7.5586758683E-01
                       7.5367489861E-01  2.4413241317E-01  7.5586758683E-01
                       2.4413241317E-01  7.5367489861E-01  2.4632510139E-01
                       7.5367489861E-01  2.4413241317E-01  2.4632510139E-01
                      -5.2809922669E-03 -5.2809922669E-03  5.2809922669E-03
             xred3     2.4868209175E-01  2.4868209175E-01  2.5131790825E-01
                       7.4868209175E-01  7.4868209175E-01  7.5131790825E-01
                       2.4590481721E-01  2.4590481721E-01  7.5409518279E-01
                       7.6592371185E-01  7.6592371185E-01  2.3407628815E-01
                       2.4627445627E-01  7.5190339920E-01  7.5372554373E-01
                       7.5190339920E-01  2.4627445627E-01  7.5372554373E-01
                       2.4627445627E-01  7.5190339920E-01  2.4809660080E-01
                       7.5190339920E-01  2.4627445627E-01  2.4809660080E-01
                      -5.5484235168E-03 -5.5484235168E-03  5.5484235168E-03
             xred4     2.4879155455E-01  2.4879155455E-01  2.5120844545E-01
                       7.4879155455E-01  7.4879155455E-01  7.5120844545E-01
                       2.4767582388E-01  2.4767582388E-01  7.5232417612E-01
                       7.6335897485E-01  7.6335897485E-01  2.3664102515E-01
                       2.4842724123E-01  7.5018318605E-01  7.5157275877E-01
                       7.5018318605E-01  2.4842724123E-01  7.5157275877E-01
                       2.4842724123E-01  7.5018318605E-01  2.4981681395E-01
                       7.5018318605E-01  2.4842724123E-01  2.4981681395E-01
                      -5.8387624120E-03 -5.8387624120E-03  5.8387624120E-03
             xred5     2.4894041358E-01  2.4894041358E-01  2.5105958642E-01
                       7.4894041358E-01  7.4894041358E-01  7.5105958642E-01
                       2.4939295500E-01  2.4939295500E-01  7.5060704500E-01
                       7.6069027099E-01  7.6069027099E-01  2.3930972901E-01
                       2.5052622403E-01  7.4859084760E-01  7.4947377597E-01
                       7.4859084760E-01  2.5052622403E-01  7.4947377597E-01
                       2.5052622403E-01  7.4859084760E-01  2.5140915240E-01
                       7.4859084760E-01  2.5052622403E-01  2.5140915240E-01
                      -6.1981964272E-03 -6.1981964272E-03  6.1981964272E-03
             xred6     2.4907779685E-01  2.4907779685E-01  2.5092220315E-01
                       7.4907779685E-01  7.4907779685E-01  7.5092220315E-01
                       2.5113587761E-01  2.5113587761E-01  7.4886412239E-01
                       7.5791604088E-01  7.5791604088E-01  2.4208395912E-01
                       2.5253050235E-01  7.4716628675E-01  7.4746949765E-01
                       7.4716628675E-01  2.5253050235E-01  7.4746949765E-01
                       2.5253050235E-01  7.4716628675E-01  2.5283371325E-01
                       7.4716628675E-01  2.5253050235E-01  2.5283371325E-01
                      -6.6010903796E-03 -6.6010903796E-03  6.6010903796E-03
             xred7     2.4932060608E-01  2.4932060608E-01  2.5067939392E-01
                       7.4932060608E-01  7.4932060608E-01  7.5067939392E-01
                       2.5269967578E-01  2.5269967578E-01  7.4730032422E-01
                       7.5515044109E-01  7.5515044109E-01  2.4484955891E-01
                       2.5448236766E-01  7.4582051541E-01  7.4551763234E-01
                       7.4582051541E-01  2.5448236766E-01  7.4551763234E-01
                       2.5448236766E-01  7.4582051541E-01  2.5417948459E-01
                       7.4582051541E-01  2.5448236766E-01  2.5417948459E-01
                      -7.0970951630E-03 -7.0970951630E-03  7.0970951630E-03
             xred8     2.4951503107E-01  2.4951503107E-01  2.5048496893E-01
                       7.4951503107E-01  7.4951503107E-01  7.5048496893E-01
                       2.5418197378E-01  2.5418197378E-01  7.4581802622E-01
                       7.5246497766E-01  7.5246497766E-01  2.4753502234E-01
                       2.5638571301E-01  7.4457600673E-01  7.4361428699E-01
                       7.4457600673E-01  2.5638571301E-01  7.4361428699E-01
                       2.5638571301E-01  7.4457600673E-01  2.5542399327E-01
                       7.4457600673E-01  2.5638571301E-01  2.5542399327E-01
                      -7.6004530610E-03 -7.6004530610E-03  7.6004530610E-03
             xred9     2.4977104879E-01  2.4977104879E-01  2.5022895121E-01
                       7.4977104879E-01  7.4977104879E-01  7.5022895121E-01
                       2.5561172002E-01  2.5561172002E-01  7.4438827998E-01
                       7.4973057484E-01  7.4973057484E-01  2.5026942516E-01
                       2.5816005734E-01  7.4349261032E-01  7.4183994266E-01
                       7.4349261032E-01  2.5816005734E-01  7.4183994266E-01
                       2.5816005734E-01  7.4349261032E-01  2.5650738968E-01
                       7.4349261032E-01  2.5816005734E-01  2.5650738968E-01
                      -8.1897277680E-03 -8.1897277680E-03  8.1897277680E-03
             xred10    2.5005773295E-01  2.5005773295E-01  2.4994226705E-01
                       7.5005773295E-01  7.5005773295E-01  7.4994226705E-01
                       2.5686955493E-01  2.5686955493E-01  7.4313044507E-01
                       7.4711634625E-01  7.4711634625E-01  2.5288365375E-01
                       2.5989486677E-01  7.4247643494E-01  7.4010513323E-01
                       7.4247643494E-01  2.5989486677E-01  7.4010513323E-01
                       2.5989486677E-01  7.4247643494E-01  2.5752356506E-01
                       7.4247643494E-01  2.5989486677E-01  2.5752356506E-01
                      -8.8439704965E-03 -8.8439704965E-03  8.8439704965E-03
            znucl       55.00000   53.00000   40.00000   35.00000

- Timing analysis has been suppressed with timopt=0

 Suggested references for the acknowledgment of ABINIT usage.

 Calculation completed.
.Delivered   0 WARNINGs and  12 COMMENTs to log file.