.Version 9.2.2 of ABINIT

 ABINIT is a project of the Universite Catholique de Louvain,
 Corning Inc. and other collaborators, see ~abinit/doc/developers/contributors.txt .
 acknowledgments of the ABINIT effort.

.Starting date : Fri  9 Dec 2022.
- ( at 13h29 )

- The starting date is more than 2 years after the initial release
- of this version of ABINIT, namely Nov 2020.
- Note that the use beyond 3 years after the release will not be supported.
- Action: please, switch to a more recent version of ABINIT.

- input  file    -> Cs2TiI6.in
- output file    -> Cs2TiI6.out
- root for input  files -> Cs2TiI6i
- root for output files -> Cs2TiI6o

- inpspheads : Reading pseudopotential header in XML form from
-   ../../../Psps_for_tests/ATOMICDATA/Cs.GGA_PBE-JTH.xml
- inpspheads : Reading pseudopotential header in XML form from
-   ../../../Psps_for_tests/ATOMICDATA/Cl.GGA_PBE-JTH.xml
- inpspheads : Reading pseudopotential header in XML form from
-   ../../../Psps_for_tests/ATOMICDATA/Zr.GGA_PBE-JTH.xml

 DATASET    1 : space group Fm -3 m (#225); Bravais cF (face-center cubic)
     intxc =       0    ionmov =       2      iscf =      17    lmnmax =      18
     lnmax =       6     mgfft =      60  mpssoang =       3    mqgrid =    3816
     natom =       9  nloc_mem =       2    nspden =       1   nspinor =       1
    nsppol =       1      nsym =      48    n1xccc =       1    ntypat =       3
    occopt =       1   xclevel =       2
-    mband =          42        mffmem =           1         mkmem =           2
       mpw =        9588          nfft =      216000          nkpt =          10
Pmy_natom=         2
 PAW method is used; the additional fine FFT grid is defined by:
   mgfftf=        96    nfftf =    884736
  Rough estimation (10% accuracy) of disk space for files :

[...]

 DATASET   10 : space group Fm -3 m (#225); Bravais cF (face-center cubic)
     intxc =       0    ionmov =       2      iscf =      17    lmnmax =      18
     lnmax =       6     mgfft =      54  mpssoang =       3    mqgrid =    3469
     natom =       9  nloc_mem =       2    nspden =       1   nspinor =       1
    nsppol =       1      nsym =      48    n1xccc =       1    ntypat =       3
    occopt =       1   xclevel =       2
-    mband =          42        mffmem =           1         mkmem =           2
       mpw =        7213          nfft =      157464          nkpt =          10
Pmy_natom=         2
 PAW method is used; the additional fine FFT grid is defined by:
   mgfftf=        90    nfftf =    729000
  Rough estimation (10% accuracy) of disk space for files :

------------- Echo of variables that govern the present computation ------------
-
- outvars: echo of selected default values
-   iomode0 =  0 , fftalg0 =112 , wfoptalg0 = 10
-
- outvars: echo of global parameters not present in the input file
-  max_nthreads =    0
-
 -outvars: echo values of preprocessed input variables --------
            acell1     1.4272286659E+01  1.4272286659E+01  1.4272286659E+01 Bohr
            acell2     1.4128122148E+01  1.4128122148E+01  1.4128122148E+01 Bohr
            acell3     1.3983957636E+01  1.3983957636E+01  1.3983957636E+01 Bohr
            acell4     1.3839793124E+01  1.3839793124E+01  1.3839793124E+01 Bohr
            acell5     1.3695628612E+01  1.3695628612E+01  1.3695628612E+01 Bohr
            acell6     1.3551464101E+01  1.3551464101E+01  1.3551464101E+01 Bohr
            acell7     1.3407299589E+01  1.3407299589E+01  1.3407299589E+01 Bohr
            acell8     1.3263135077E+01  1.3263135077E+01  1.3263135077E+01 Bohr
            acell9     1.3118970566E+01  1.3118970566E+01  1.3118970566E+01 Bohr
            acell10    1.2974806054E+01  1.2974806054E+01  1.2974806054E+01 Bohr
              amu      1.32905430E+02  3.54527000E+01  9.12240000E+01
           diemac      1.20000000E+01
          dilatmx      1.15000000E+00
             ecut      1.60000000E+01 Hartree
           ecutsm      5.00000000E-01 Hartree
-          fftalg         112
          getxred1          0
          getxred2         -1
          getxred3         -1
          getxred4         -1
          getxred5         -1
          getxred6         -1
          getxred7         -1
          getxred8         -1
          getxred9         -1
          getxred10        -1
           ionmov           2
              ixc     -101130
           jdtset        1    2    3    4    5    6    7    8    9   10
              kpt     -1.25000000E-01 -2.50000000E-01  0.00000000E+00
                      -1.25000000E-01  5.00000000E-01  0.00000000E+00
                      -2.50000000E-01 -3.75000000E-01  0.00000000E+00
                      -1.25000000E-01 -3.75000000E-01  1.25000000E-01
                      -1.25000000E-01  2.50000000E-01  0.00000000E+00
                      -2.50000000E-01  3.75000000E-01  0.00000000E+00
                      -3.75000000E-01  5.00000000E-01  0.00000000E+00
                      -2.50000000E-01  5.00000000E-01  1.25000000E-01
                      -1.25000000E-01  0.00000000E+00  0.00000000E+00
                      -3.75000000E-01  0.00000000E+00  0.00000000E+00
         kptrlatt        4   -4    4     -4    4    4     -4   -4    4
          kptrlen1     8.07362454E+01
          kptrlen2     7.99207278E+01
          kptrlen3     7.91052102E+01
          kptrlen4     7.82896925E+01
          kptrlen5     7.74741749E+01
          kptrlen6     7.66586573E+01
          kptrlen7     7.58431397E+01
          kptrlen8     7.50276220E+01
          kptrlen9     7.42121044E+01
          kptrlen10    7.33965868E+01
P           mkmem           2
            natom           9
            nband          42
           ndtset          10
            ngfft1         60      60      60
            ngfft2         60      60      60
            ngfft3         60      60      60
            ngfft4         60      60      60
            ngfft5         60      60      60
            ngfft6         60      60      60
            ngfft7         60      60      60
            ngfft8         60      60      60
            ngfft9         60      60      60
            ngfft10        54      54      54
          ngfftdg1         96      96      96
          ngfftdg2         96      96      96
          ngfftdg3         96      96      96
          ngfftdg4         96      96      96
          ngfftdg5         90      90      90
          ngfftdg6         90      90      90
          ngfftdg7         90      90      90
          ngfftdg8         90      90      90
          ngfftdg9         90      90      90
          ngfftdg10        90      90      90
             nkpt          10
            nstep        2500
             nsym          48
            ntime        1000
           ntypat           3
              occ      2.000000  2.000000  2.000000  2.000000  2.000000  2.000000
                       2.000000  2.000000  2.000000  2.000000  2.000000  2.000000
                       2.000000  2.000000  2.000000  2.000000  2.000000  2.000000
                       2.000000  2.000000  2.000000  2.000000  2.000000  2.000000
                       2.000000  2.000000  2.000000  2.000000  2.000000  2.000000
                       2.000000  2.000000  2.000000  2.000000  2.000000  2.000000
                       0.000000  0.000000  0.000000  0.000000  0.000000  0.000000
          optcell           3
        optforces           1
        pawecutdg      4.00000000E+01 Hartree
            prtwf           0
            rprim      0.0000000000E+00  7.0710678119E-01  7.0710678119E-01
                       7.0710678119E-01  0.0000000000E+00  7.0710678119E-01
                       7.0710678119E-01  7.0710678119E-01  0.0000000000E+00
           shiftk      5.00000000E-01  5.00000000E-01  5.00000000E-01
          spgroup         225
           symrel      1  0  0   0  1  0   0  0  1      -1  0  0   0 -1  0   0  0 -1
                       0 -1  1   0 -1  0   1 -1  0       0  1 -1   0  1  0  -1  1  0
                      -1  0  0  -1  0  1  -1  1  0       1  0  0   1  0 -1   1 -1  0
                       0  1 -1   1  0 -1   0  0 -1       0 -1  1  -1  0  1   0  0  1
                      -1  0  0  -1  1  0  -1  0  1       1  0  0   1 -1  0   1  0 -1
                       0 -1  1   1 -1  0   0 -1  0       0  1 -1  -1  1  0   0  1  0
                       1  0  0   0  0  1   0  1  0      -1  0  0   0  0 -1   0 -1  0
                       0  1 -1   0  0 -1   1  0 -1       0 -1  1   0  0  1  -1  0  1
                      -1  0  1  -1  1  0  -1  0  0       1  0 -1   1 -1  0   1  0  0
                       0 -1  0   1 -1  0   0 -1  1       0  1  0  -1  1  0   0  1 -1
                       1  0 -1   0  0 -1   0  1 -1      -1  0  1   0  0  1   0 -1  1
                       0  1  0   0  0  1   1  0  0       0 -1  0   0  0 -1  -1  0  0
                       1  0 -1   0  1 -1   0  0 -1      -1  0  1   0 -1  1   0  0  1
                       0 -1  0   0 -1  1   1 -1  0       0  1  0   0  1 -1  -1  1  0
                      -1  0  1  -1  0  0  -1  1  0       1  0 -1   1  0  0   1 -1  0
                       0  1  0   1  0  0   0  0  1       0 -1  0  -1  0  0   0  0 -1
                       0  0 -1   0  1 -1   1  0 -1       0  0  1   0 -1  1  -1  0  1
                       1 -1  0   0 -1  1   0 -1  0      -1  1  0   0  1 -1   0  1  0
                       0  0  1   1  0  0   0  1  0       0  0 -1  -1  0  0   0 -1  0
                      -1  1  0  -1  0  0  -1  0  1       1 -1  0   1  0  0   1  0 -1
                       0  0  1   0  1  0   1  0  0       0  0 -1   0 -1  0  -1  0  0
                       1 -1  0   0 -1  0   0 -1  1      -1  1  0   0  1  0   0  1 -1
                       0  0 -1   1  0 -1   0  1 -1       0  0  1  -1  0  1   0 -1  1
                      -1  1  0  -1  0  1  -1  0  0       1 -1  0   1  0 -1   1  0  0
           toldff      1.00000000E-08
           tolmxf      1.00000000E-05
            typat      1  1  2  2  2  2  2  2  3
           useylm           1
              wtk        0.09375    0.09375    0.09375    0.18750    0.09375    0.09375
                         0.09375    0.18750    0.03125    0.03125
           xangst1     2.6702363121E+00  2.6702363121E+00  2.6702363121E+00
                       8.0107089363E+00  8.0107089363E+00  8.0107089363E+00
                       5.3404726242E+00  5.3404726242E+00  2.4616068866E+00
                       5.3404726242E+00  5.3404726242E+00  8.2193383618E+00
                       8.2193383618E+00  5.3404726242E+00  5.3404726242E+00
                       5.3404726242E+00  8.2193383618E+00  5.3404726242E+00
                       5.3404726242E+00  2.4616068866E+00  5.3404726242E+00
                       2.4616068866E+00  5.3404726242E+00  5.3404726242E+00
                      -1.0322880052E-18  2.8606238464E-18  3.0876688787E-18
           xangst2     2.6432642281E+00  2.6432642281E+00  2.6432642281E+00
                       7.9297926844E+00  7.9297926844E+00  7.9297926844E+00
                       5.2865284563E+00  5.2865284563E+00  2.4367421706E+00
                       5.2865284563E+00  5.2865284563E+00  8.1363147420E+00
[...]
                      -1.1123954183E-18  4.2915941617E-18  7.2673808618E-19
           xangst7     2.5084038083E+00  2.5084038083E+00  2.5084038083E+00
                       7.5252114250E+00  7.5252114250E+00  7.5252114250E+00
                       5.0168076167E+00  5.0168076167E+00  2.4647293752E+00
                       5.0168076167E+00  5.0168076167E+00  7.5688858581E+00
                       7.5688858581E+00  5.0168076167E+00  5.0168076167E+00
                       5.0168076167E+00  7.5688858581E+00  5.0168076167E+00
                       5.0168076167E+00  2.4647293752E+00  5.0168076167E+00
                       2.4647293752E+00  5.0168076167E+00  5.0168076167E+00
                      -1.2582255460E-18  4.3580665286E-18  7.4329460829E-19
           xangst8     2.4814317244E+00  2.4814317244E+00  2.4814317244E+00
                       7.4442951731E+00  7.4442951731E+00  7.4442951731E+00
                       4.9628634487E+00  4.9628634487E+00  2.4594063202E+00
                       4.9628634487E+00  4.9628634487E+00  7.4663205773E+00
                       7.4663205773E+00  4.9628634487E+00  4.9628634487E+00
                       4.9628634487E+00  7.4663205773E+00  4.9628634487E+00
                       4.9628634487E+00  2.4594063202E+00  4.9628634487E+00
                       2.4594063202E+00  4.9628634487E+00  4.9628634487E+00
                      -9.5036843759E-19  2.6527567382E-18  2.8696081057E-18
           xangst9     2.4544596404E+00  2.4544596404E+00  2.4544596404E+00
                       7.3633789212E+00  7.3633789212E+00  7.3633789212E+00
                       4.9089192808E+00  4.9089192808E+00  2.4532661910E+00
                       4.9089192808E+00  4.9089192808E+00  7.3645723706E+00
                       7.3645723706E+00  4.9089192808E+00  4.9089192808E+00
                       4.9089192808E+00  7.3645723706E+00  4.9089192808E+00
                       4.9089192808E+00  2.4532661910E+00  4.9089192808E+00
                       2.4532661910E+00  4.9089192808E+00  4.9089192808E+00
                      -8.9276913431E-19  2.0624149350E-18  2.9449875691E-18
           xangst10    2.4274875564E+00  2.4274875564E+00  2.4274875564E+00
                       7.2824626693E+00  7.2824626693E+00  7.2824626693E+00
                       4.8549751129E+00  4.8549751129E+00  2.4461623098E+00
                       4.8549751129E+00  4.8549751129E+00  7.2637879160E+00
                       7.2637879160E+00  4.8549751129E+00  4.8549751129E+00
                       4.8549751129E+00  7.2637879160E+00  4.8549751129E+00
                       4.8549751129E+00  2.4461623098E+00  4.8549751129E+00
                       2.4461623098E+00  4.8549751129E+00  4.8549751129E+00
                      -9.4003756541E-19  2.6224836625E-18  2.7990751180E-18
            xcart1     5.0460153399E+00  5.0460153399E+00  5.0460153399E+00
                       1.5138046020E+01  1.5138046020E+01  1.5138046020E+01
                       1.0092030680E+01  1.0092030680E+01  4.6951877426E+00
                       1.0092030680E+01  1.0092030680E+01  1.5488873617E+01
                       1.5488873617E+01  1.0092030680E+01  1.0092030680E+01
                       1.0092030680E+01  1.5488873617E+01  1.0092030680E+01
                       1.0092030680E+01  4.6951877426E+00  1.0092030680E+01
                       4.6951877426E+00  1.0092030680E+01  1.0092030680E+01
                       5.9234585292E-19  4.3129344681E-18  6.0083568885E-18
            xcart2     4.9950454880E+00  4.9950454880E+00  4.9950454880E+00
                       1.4985136464E+01  1.4985136464E+01  1.4985136464E+01
                       9.9900909760E+00  9.9900909760E+00  4.6910450370E+00
                       9.9900909760E+00  9.9900909760E+00  1.5289136915E+01
                       1.5289136915E+01  9.9900909760E+00  9.9900909760E+00
                       9.9900909760E+00  1.5289136915E+01  9.9900909760E+00
                       9.9900909760E+00  4.6910450370E+00  9.9900909760E+00
                       4.6910450370E+00  9.9900909760E+00  9.9900909760E+00
                      -2.0413204177E-18  5.3973454005E-18  5.7768389809E-18
            xcart3     4.9440756361E+00  4.9440756361E+00  4.9440756361E+00
                       1.4832226908E+01  1.4832226908E+01  1.4832226908E+01
                       9.8881512722E+00  9.8881512722E+00  4.6864050433E+00
                       9.8881512722E+00  9.8881512722E+00  1.5089897501E+01
                       1.5089897501E+01  9.8881512722E+00  9.8881512722E+00
                       9.8881512722E+00  1.5089897501E+01  9.8881512722E+00
                       9.8881512722E+00  4.6864050433E+00  9.8881512722E+00
                       4.6864050433E+00  9.8881512722E+00  9.8881512722E+00
                      -1.9113326985E-18  5.2965876462E-18  5.7169728411E-18
            xcart4     4.8931057842E+00  4.8931057842E+00  4.8931057842E+00
                       1.4679317353E+01  1.4679317353E+01  1.4679317353E+01
                       9.7862115684E+00  9.7862115684E+00  4.6805885247E+00
                       9.7862115684E+00  9.7862115684E+00  1.4891834612E+01
                       1.4891834612E+01  9.7862115684E+00  9.7862115684E+00
                       9.7862115684E+00  1.4891834612E+01  9.7862115684E+00
                       9.7862115684E+00  4.6805885247E+00  9.7862115684E+00
                       4.6805885247E+00  9.7862115684E+00  9.7862115684E+00
                      -3.4066700171E-18  6.4486126805E-18  4.7924092766E-18
            xcart5     4.8421359323E+00  4.8421359323E+00  4.8421359323E+00
                       1.4526407797E+01  1.4526407797E+01  1.4526407797E+01
                       9.6842718645E+00  9.6842718645E+00  4.6738000096E+00
                       9.6842718645E+00  9.6842718645E+00  1.4694743719E+01
                       1.4694743719E+01  9.6842718645E+00  9.6842718645E+00
                       9.6842718645E+00  1.4694743719E+01  9.6842718645E+00
                       9.6842718645E+00  4.6738000096E+00  9.6842718645E+00
                       4.6738000096E+00  9.6842718645E+00  9.6842718645E+00
                      -1.5510919129E-18  6.5554930880E-18  2.6530655821E-18
            xcart6     4.7911660803E+00  4.7911660803E+00  4.7911660803E+00
                       1.4373498241E+01  1.4373498241E+01  1.4373498241E+01
                       9.5823321607E+00  9.5823321607E+00  4.6662904887E+00
                       9.5823321607E+00  9.5823321607E+00  1.4498373833E+01
                       1.4498373833E+01  9.5823321607E+00  9.5823321607E+00
                       9.5823321607E+00  1.4498373833E+01  9.5823321607E+00
                       9.5823321607E+00  4.6662904887E+00  9.5823321607E+00
                       4.6662904887E+00  9.5823321607E+00  9.5823321607E+00
                      -2.1021226921E-18  8.1099376392E-18  1.3733359532E-18
            xcart7     4.7401962284E+00  4.7401962284E+00  4.7401962284E+00
                       1.4220588685E+01  1.4220588685E+01  1.4220588685E+01
                       9.4803924568E+00  9.4803924568E+00  4.6576635108E+00
                       9.4803924568E+00  9.4803924568E+00  1.4303121403E+01
                       1.4303121403E+01  9.4803924568E+00  9.4803924568E+00
                       9.4803924568E+00  1.4303121403E+01  9.4803924568E+00
                       9.4803924568E+00  4.6576635108E+00  9.4803924568E+00
                       4.6576635108E+00  9.4803924568E+00  9.4803924568E+00
                      -2.3777016954E-18  8.2355522080E-18  1.4046232457E-18
            xcart8     4.6892263765E+00  4.6892263765E+00  4.6892263765E+00
                       1.4067679130E+01  1.4067679130E+01  1.4067679130E+01
                       9.3784527530E+00  9.3784527530E+00  4.6476043947E+00
                       9.3784527530E+00  9.3784527530E+00  1.4109301111E+01
                       1.4109301111E+01  9.3784527530E+00  9.3784527530E+00
                       9.3784527530E+00  1.4109301111E+01  9.3784527530E+00
                       9.3784527530E+00  4.6476043947E+00  9.3784527530E+00
                       4.6476043947E+00  9.3784527530E+00  9.3784527530E+00
                      -1.7959360724E-18  5.0129837323E-18  5.4227734284E-18
            xcart9     4.6382565246E+00  4.6382565246E+00  4.6382565246E+00
                       1.3914769574E+01  1.3914769574E+01  1.3914769574E+01
                       9.2765130492E+00  9.2765130492E+00  4.6360012320E+00
                       9.2765130492E+00  9.2765130492E+00  1.3917024866E+01
                       1.3917024866E+01  9.2765130492E+00  9.2765130492E+00
                       9.2765130492E+00  1.3917024866E+01  9.2765130492E+00
                       9.2765130492E+00  4.6360012320E+00  9.2765130492E+00
                       4.6360012320E+00  9.2765130492E+00  9.2765130492E+00
                      -1.6870891637E-18  3.8973993994E-18  5.5652199703E-18
            xcart10    4.5872866727E+00  4.5872866727E+00  4.5872866727E+00
                       1.3761860018E+01  1.3761860018E+01  1.3761860018E+01
                       9.1745733453E+00  9.1745733453E+00  4.6225768422E+00
                       9.1745733453E+00  9.1745733453E+00  1.3726569849E+01
                       1.3726569849E+01  9.1745733453E+00  9.1745733453E+00
                       9.1745733453E+00  1.3726569849E+01  9.1745733453E+00
                       9.1745733453E+00  4.6225768422E+00  9.1745733453E+00
                       4.6225768422E+00  9.1745733453E+00  9.1745733453E+00
                      -1.7764135532E-18  4.9557759100E-18  5.2894853983E-18
             xred1     2.5000000000E-01  2.5000000000E-01  2.5000000000E-01
                       7.5000000000E-01  7.5000000000E-01  7.5000000000E-01
                       2.3261858250E-01  2.3261858250E-01  7.6738141750E-01
                       7.6738141750E-01  7.6738141750E-01  2.3261858250E-01
                       2.3261858250E-01  7.6738141750E-01  7.6738141750E-01
                       7.6738141750E-01  2.3261858250E-01  7.6738141750E-01
                       2.3261858250E-01  7.6738141750E-01  2.3261858250E-01
                       7.6738141750E-01  2.3261858250E-01  2.3261858250E-01
                       4.8201129249E-19  1.1334528926E-19 -5.4650872679E-20
             xred2     2.5000000000E-01  2.5000000000E-01  2.5000000000E-01
                       7.5000000000E-01  7.5000000000E-01  7.5000000000E-01
                       2.3478490077E-01  2.3478490077E-01  7.6521509923E-01
                       7.6521509923E-01  7.6521509923E-01  2.3478490077E-01
                       2.3478490077E-01  7.6521509923E-01  7.6521509923E-01
                       7.6521509923E-01  2.3478490077E-01  7.6521509923E-01
                       2.3478490077E-01  7.6521509923E-01  2.3478490077E-01
                       7.6521509923E-01  2.3478490077E-01  2.3478490077E-01
                       6.6143065318E-19 -8.3173758942E-20 -1.2116075839E-19
             xred3     2.5000000000E-01  2.5000000000E-01  2.5000000000E-01
                       7.5000000000E-01  7.5000000000E-01  7.5000000000E-01
                       2.3697073974E-01  2.3697073974E-01  7.6302926026E-01
                       7.6302926026E-01  7.6302926026E-01  2.3697073974E-01
                       2.3697073974E-01  7.6302926026E-01  7.6302926026E-01
                       7.6302926026E-01  2.3697073974E-01  7.6302926026E-01
                       2.3697073974E-01  7.6302926026E-01  2.3697073974E-01
                       7.6302926026E-01  2.3697073974E-01  2.3697073974E-01
                       6.5355458417E-19 -7.5390609560E-20 -1.1790464310E-19
             xred4     2.5000000000E-01  2.5000000000E-01  2.5000000000E-01
                       7.5000000000E-01  7.5000000000E-01  7.5000000000E-01
                       2.3914200567E-01  2.3914200567E-01  7.6085799433E-01
                       7.6085799433E-01  7.6085799433E-01  2.3914200567E-01
                       2.3914200567E-01  7.6085799433E-01  7.6085799433E-01
                       7.6085799433E-01  2.3914200567E-01  7.6085799433E-01
                       2.3914200567E-01  7.6085799433E-01  2.3914200567E-01
                       7.6085799433E-01  2.3914200567E-01  2.3914200567E-01
                       7.4838418687E-19 -2.5867381804E-19 -8.9435355088E-20
             xred5     2.5000000000E-01  2.5000000000E-01  2.5000000000E-01
                       7.5000000000E-01  7.5000000000E-01  7.5000000000E-01
                       2.4130879817E-01  2.4130879817E-01  7.5869120183E-01
                       7.5869120183E-01  7.5869120183E-01  2.4130879817E-01
                       2.4130879817E-01  7.5869120183E-01  7.5869120183E-01
                       7.5869120183E-01  2.4130879817E-01  7.5869120183E-01
                       2.4130879817E-01  7.5869120183E-01  2.4130879817E-01
                       7.5869120183E-01  2.4130879817E-01  2.4130879817E-01
                       5.5552191912E-19 -2.8156579530E-19  1.2139971006E-19
             xred6     2.5000000000E-01  2.5000000000E-01  2.5000000000E-01
                       7.5000000000E-01  7.5000000000E-01  7.5000000000E-01
                       2.4348407102E-01  2.4348407102E-01  7.5651592898E-01
                       7.5651592898E-01  7.5651592898E-01  2.4348407102E-01
                       2.4348407102E-01  7.5651592898E-01  7.5651592898E-01
                       7.5651592898E-01  2.4348407102E-01  7.5651592898E-01
                       2.4348407102E-01  7.5651592898E-01  2.4348407102E-01
                       7.5651592898E-01  2.4348407102E-01  2.4348407102E-01
                       6.0451861249E-19 -4.6119901866E-19  2.4182416744E-19
             xred7     2.5000000000E-01  2.5000000000E-01  2.5000000000E-01
                       7.5000000000E-01  7.5000000000E-01  7.5000000000E-01
                       2.4564718876E-01  2.4564718876E-01  7.5435281124E-01
                       7.5435281124E-01  7.5435281124E-01  2.4564718876E-01
                       2.4564718876E-01  7.5435281124E-01  7.5435281124E-01
                       7.5435281124E-01  2.4564718876E-01  7.5435281124E-01
                       2.4564718876E-01  7.5435281124E-01  2.4564718876E-01
                       7.5435281124E-01  2.4564718876E-01  2.4564718876E-01
                       6.3382804055E-19 -4.8566716513E-19  2.3486513281E-19
             xred8     2.5000000000E-01  2.5000000000E-01  2.5000000000E-01
                       7.5000000000E-01  7.5000000000E-01  7.5000000000E-01
                       2.4778097822E-01  2.4778097822E-01  7.5221902178E-01
                       7.5221902178E-01  7.5221902178E-01  2.4778097822E-01
                       2.4778097822E-01  7.5221902178E-01  7.5221902178E-01
                       7.5221902178E-01  2.4778097822E-01  7.5221902178E-01
                       2.4778097822E-01  7.5221902178E-01  2.4778097822E-01
                       7.5221902178E-01  2.4778097822E-01  2.4778097822E-01
                       6.5211680195E-19 -7.3900589615E-20 -1.1759539802E-19
             xred9     2.5000000000E-01  2.5000000000E-01  2.5000000000E-01
                       7.5000000000E-01  7.5000000000E-01  7.5000000000E-01
                       2.4987844072E-01  2.4987844072E-01  7.5012155928E-01
                       7.5012155928E-01  7.5012155928E-01  2.4987844072E-01
                       2.4987844072E-01  7.5012155928E-01  7.5012155928E-01
                       7.5012155928E-01  2.4987844072E-01  7.5012155928E-01
                       2.4987844072E-01  7.5012155928E-01  2.4987844072E-01
                       7.5012155928E-01  2.4987844072E-01  2.4987844072E-01
                       6.0096441812E-19 -1.0385687366E-21 -1.8082816878E-19
             xred10    2.5000000000E-01  2.5000000000E-01  2.5000000000E-01
                       7.5000000000E-01  7.5000000000E-01  7.5000000000E-01
                       2.5192325943E-01  2.5192325943E-01  7.4807674057E-01
                       7.4807674057E-01  7.4807674057E-01  2.5192325943E-01
                       2.5192325943E-01  7.4807674057E-01  7.4807674057E-01
                       7.4807674057E-01  2.5192325943E-01  7.4807674057E-01
                       2.5192325943E-01  7.4807674057E-01  2.5192325943E-01
                       7.4807674057E-01  2.5192325943E-01  2.5192325943E-01
                       6.5516261133E-19 -7.8625131144E-20 -1.1499842892E-19
            znucl       55.00000   17.00000   40.00000

- Timing analysis has been suppressed with timopt=0

 Suggested references for the acknowledgment of ABINIT usage.

 Calculation completed.
.Delivered   0 WARNINGs and  41 COMMENTs to log file.