.Version 9.2.2 of ABINIT

 ABINIT is a project of the Universite Catholique de Louvain,
 Corning Inc. and other collaborators, see ~abinit/doc/developers/contributors.txt .
 acknowledgments of the ABINIT effort.

.Starting date : Sun 16 Jul 2023.
- ( at 15h55 )

- The starting date is more than 2 years after the initial release
- of this version of ABINIT, namely Nov 2020.
- Note that the use beyond 3 years after the release will not be supported.
- Action: please, switch to a more recent version of ABINIT.

- input  file    -> Cs2TiI6.in
- output file    -> Cs2TiI6.out
- root for input  files -> Cs2TiI6i
- root for output files -> Cs2TiI6o

 Symmetries : space group I4 m m (#107); Bravais tI (body-center tetrag.)
     intxc =       0    ionmov =       0      iscf =      17    lmnmax =       8
     lnmax =       8     mgfft =      72  mpssoang =       4    mqgrid =    3001
     natom =       9  nloc_mem =       1    nspden =       1   nspinor =       1
    nsppol =       1      nsym =       8    n1xccc =    2501    ntypat =       4
    occopt =       1   xclevel =       2
-    mband =          42        mffmem =           1         mkmem =           1
       mpw =       12190          nfft =      373248          nkpt =           4
  Rough estimation (10% accuracy) of disk space for files :

------------- Echo of variables that govern the present computation ------------
-
- outvars: echo of selected default values
-   iomode0 =  0 , fftalg0 =112 , wfoptalg0 =  0
-
- outvars: echo of global parameters not present in the input file
-  max_nthreads =    0
-
 -outvars: echo values of preprocessed input variables --------
            acell      1.5827843700E+01  1.6020280040E+01  1.5827843700E+01 Bohr
              amu      1.32905430E+02  1.26904470E+02  1.78490000E+02
                       3.54527000E+01
           diemac      1.20000000E+01
             ecut      2.00000000E+01 Hartree
-          fftalg         112
             iscf          17
           istwfk        1    1    1    1
              ixc        -428
              kpt      0.00000000E+00  0.00000000E+00  0.00000000E+00
                       5.00000000E-01  0.00000000E+00  0.00000000E+00
                       5.00000000E-01  5.00000000E-01  0.00000000E+00
                       5.00000000E-01  0.00000000E+00  5.00000000E-01
         kptns_hf      0.00000000E+00  0.00000000E+00  0.00000000E+00
                       5.00000000E-01  0.00000000E+00  0.00000000E+00
                       0.00000000E+00  5.00000000E-01  0.00000000E+00
                       5.00000000E-01  5.00000000E-01  0.00000000E+00
                       0.00000000E+00  0.00000000E+00  5.00000000E-01
                       5.00000000E-01  0.00000000E+00  5.00000000E-01
                       0.00000000E+00  5.00000000E-01  5.00000000E-01
                       5.00000000E-01  5.00000000E-01  5.00000000E-01
         kptrlatt        2    0    0      0    2    0      0    0    2
          kptrlen      3.16556874E+01
P           mkmem           1
            natom           9
            nband          42
          nbandhf          36
            ngfft          72      72      72
             nkpt           4
           nkpthf           8
-           npkpt           4
            nstep        2500
             nsym           8
           ntypat           4
              occ      2.000000  2.000000  2.000000  2.000000  2.000000  2.000000
                       2.000000  2.000000  2.000000  2.000000  2.000000  2.000000
                       2.000000  2.000000  2.000000  2.000000  2.000000  2.000000
                       2.000000  2.000000  2.000000  2.000000  2.000000  2.000000
                       2.000000  2.000000  2.000000  2.000000  2.000000  2.000000
                       2.000000  2.000000  2.000000  2.000000  2.000000  2.000000
                       0.000000  0.000000  0.000000  0.000000  0.000000  0.000000
            rprim      0.0000000000E+00  6.9840389529E-01  7.1570384870E-01
                       7.0710678119E-01  0.0000000000E+00  7.0710678119E-01
                       7.1570384870E-01  6.9840389529E-01  0.0000000000E+00
          spgroup         107
           symrel      1  0  0   0  1  0   0  0  1       0  0  1   0  1  0   1  0  0
                       0 -1  1   0 -1  0   1 -1  0       1 -1  0   0 -1  0   0 -1  1
                       0 -1  1  -1  0  1   0  0  1       0  0  1  -1  0  1   0 -1  1
                       1  0  0   1  0 -1   1 -1  0       1 -1  0   1  0 -1   1  0  0
           toldfe      1.00000000E-08 Hartree
            typat      1  1  4  2  2  2  2  2  3
          usefock           1
              wtk        0.12500    0.50000    0.25000    0.12500
           xangst      2.9972725824E+00  2.8988453003E+00  2.9972725824E+00
                       8.9918177473E+00  8.7484906546E+00  8.9918177473E+00
                       5.9945451648E+00  9.2113872251E+00  5.9945451648E+00
                       5.9945451648E+00  5.8221380866E+00  2.8745186128E+00
                       5.9945451649E+00  5.8221380866E+00  9.1145717169E+00
                       5.9945451649E+00  2.8053877254E+00  5.9945451649E+00
                       9.1145717169E+00  5.8221380866E+00  5.9945451649E+00
                       2.8745186128E+00  5.8221380866E+00  5.9945451648E+00
                       4.4691245480E-13 -7.3322505490E-02  4.4691245480E-13
            xcart      5.6640243264E+00  5.4780237191E+00  5.6640243264E+00
                       1.6992072979E+01  1.6532251413E+01  1.6992072979E+01
                       1.1328048653E+01  1.7406999159E+01  1.1328048653E+01
                       1.1328048653E+01  1.1002246492E+01  5.4320529422E+00
                       1.1328048653E+01  1.1002246492E+01  1.7224044363E+01
                       1.1328048653E+01  5.3014144976E+00  1.1328048653E+01
                       1.7224044363E+01  1.1002246492E+01  1.1328048653E+01
                       5.4320529422E+00  1.1002246492E+01  1.1328048653E+01
                       8.4454214495E-13 -1.3855945475E-01  8.4454214495E-13
             xred      2.4777957677E-01  2.5222042323E-01  2.4777957677E-01
                       7.4777957677E-01  7.5222042323E-01  7.4777957677E-01
                       7.8734578485E-01  2.1265421515E-01  7.8734578485E-01
                       2.3741000298E-01  2.4211238509E-01  7.5788761491E-01
                       7.5788761491E-01  7.6258999702E-01  2.3741000298E-01
                       2.3979126558E-01  7.6020873442E-01  2.3979126558E-01
                       2.3741000298E-01  7.6258999702E-01  7.5788761491E-01
                       7.5788761491E-01  2.4211238509E-01  2.3741000298E-01
                      -6.2672607525E-03  6.2672607525E-03 -6.2672607525E-03
            znucl       55.00000   53.00000   72.00000   17.00000

 chkinp: Checking input parameters for consistency.

== DATASET  1 ==================================================================
-   mpi_nproc: 4, omp_nthreads: -1 (-1 if OMP is not activated)

--- !DatasetInfo
iteration_state: {dtset: 1, }
dimensions: {natom: 9, nkpt: 4, mband: 42, nsppol: 1, nspinor: 1, nspden: 1, mpw: 12190, }
cutoff_energies: {ecut:  20.0, pawecutdg:  -1.0, }
electrons: {nelect:   7.20000000E+01, charge:   0.00000000E+00, occopt:   1.00000000E+00, tsmear:   1.00000000E-02, }
meta: {optdriver: 0, ionmov: 0, optcell: 0, iscf: 17, paral_kgb: 0, }
...

 Real(R)+Recip(G) space primitive vectors, cartesian coordinates (Bohr,Bohr^-1):
 R(1)=  0.0000000 11.0542277 11.3280487  G(1)= -0.0441382  0.0452316  0.0441382
 R(2)= 11.3280487  0.0000000 11.3280487  G(2)=  0.0441382 -0.0452316  0.0441382
 R(3)= 11.3280487 11.0542277  0.0000000  G(3)=  0.0441382  0.0452316 -0.0441382
 Unit cell volume ucvol=  2.8370606E+03 bohr^3
 Angles (23,13,12)=  5.95969920E+01  6.08060160E+01  5.95969920E+01 degrees

 getcut: wavevector=  0.0000  0.0000  0.0000  ngfft=  72  72  72
         ecut(hartree)=     20.000   => boxcut(ratio)=   2.23245

 getcut : COMMENT -
  Note that boxcut > 2.2 ; recall that boxcut=Gcut(box)/Gcut(sphere) = 2
  is sufficient for exact treatment of convolution.
  Such a large boxcut is a waste : you could raise ecut
  e.g. ecut=   24.919226 Hartrees makes boxcut=2

--- Pseudopotential description ------------------------------------------------
- pspini: atom type   1  psp file is ../../../Psps_for_tests/ONCVPSP-PBE-PDv0.4/Cs-sp.psp8
- pspatm: opening atomic psp file    ../../../Psps_for_tests/ONCVPSP-PBE-PDv0.4/Cs-sp.psp8
- Cs    ONCVPSP-3.2.3.1  r_core=   2.27353   1.85623   2.01788   1.90105
- 55.00000   9.00000    170703                znucl, zion, pspdat
    8   32    3    4       600   0.00000      pspcod,pspxc,lmax,lloc,mmax,r2well
    5.99000000000000    5.00000000000000    0.00000000000000   rchrg,fchrg,qchrg
     nproj     2     2     2     2
     extension_switch     1
  pspatm : epsatm=   22.81663475
         --- l  ekb(1:nproj) -->
             0    6.176104    0.756334
             1    6.263084    0.786397
             2    3.737592    0.906929
             3   -9.272327   -2.535859
 pspatm: atomic psp has been read  and splines computed

- pspini: atom type   2  psp file is ../../../Psps_for_tests/ONCVPSP-PBE-PDv0.4/I.psp8
- pspatm: opening atomic psp file    ../../../Psps_for_tests/ONCVPSP-PBE-PDv0.4/I.psp8
- I     ONCVPSP-3.2.3.1  r_core=   2.02042   2.17032   2.27639
- 53.00000   7.00000    170510                znucl, zion, pspdat
    8   32    2    4       600   0.00000      pspcod,pspxc,lmax,lloc,mmax,r2well
    5.99000000000000    4.00000000000000    0.00000000000000   rchrg,fchrg,qchrg
     nproj     2     2     2
     extension_switch     1
  pspatm : epsatm=   19.17050482
         --- l  ekb(1:nproj) -->
             0    5.955518    0.916455
             1    4.011347    0.742302
             2    4.134838    0.711910
 pspatm: atomic psp has been read  and splines computed

- pspini: atom type   3  psp file is ../../../Psps_for_tests/ONCVPSP-PBE-PDv0.4/Hf-sp.psp8
- pspatm: opening atomic psp file    ../../../Psps_for_tests/ONCVPSP-PBE-PDv0.4/Hf-sp.psp8
- Hf    ONCVPSP-3.2.3.1  r_core=   1.71613   1.71613   1.71613   2.42541
- 72.00000  12.00000    170501                znucl, zion, pspdat
    8   32    3    4       600   0.00000      pspcod,pspxc,lmax,lloc,mmax,r2well
    5.99000000000000    5.40000000000000    0.00000000000000   rchrg,fchrg,qchrg
     nproj     2     2     2     2
     extension_switch     1
  pspatm : epsatm=   21.94432712
         --- l  ekb(1:nproj) -->
             0    5.751490   -0.631383
             1   -2.986358    2.305386
             2    1.422276    0.146986
             3    8.827595    0.343102
 pspatm: atomic psp has been read  and splines computed

- pspini: atom type   4  psp file is ../../../Psps_for_tests/ONCVPSP-PBE-PDv0.4/Cl.psp8
- pspatm: opening atomic psp file    ../../../Psps_for_tests/ONCVPSP-PBE-PDv0.4/Cl.psp8
- Cl    ONCVPSP-3.2.3.1  r_core=   1.56009   1.35202   1.75774
- 17.00000   7.00000    170504                znucl, zion, pspdat
    8   32    2    4       600   0.00000      pspcod,pspxc,lmax,lloc,mmax,r2well
    5.99000000000000    8.00000000000000    0.00000000000000   rchrg,fchrg,qchrg
     nproj     2     2     2
     extension_switch     1
  pspatm : epsatm=    9.12776994
         --- l  ekb(1:nproj) -->
             0    8.139296    0.698720
             1    3.821713    1.107519
             2   -2.938609   -0.805455
 pspatm: atomic psp has been read  and splines computed

   1.24241681E+04                                ecore*ucvol(ha*bohr**3)

_setup2: Arith. and geom. avg. npw (full set) are   12121.625   12121.577

--- !BeginCycle
iteration_state: {dtset: 1, }
solver: {iscf: 17, nstep: 2500, nline: 4, wfoptalg: 0, }
tolerances: {toldfe: 1.00E-08, }
...

     iter   Etot(hartree)      deltaE(h)  residm     nres2
 ETOT  1  -179.67637355117    -1.797E+02 1.446E-02 4.014E+00
 ETOT  2  -184.71217273305    -5.036E+00 4.170E-03 2.356E+00
 ETOT  3  -184.72086642935    -8.694E-03 2.729E-03 8.663E-01
 ETOT  4  -184.70575111569     1.512E-02 1.720E-03 9.757E-02
 ETOT  5  -184.70647047329    -7.194E-04 6.155E-04 3.633E-02
 ETOT  6  -184.70632210239     1.484E-04 7.674E-04 3.677E-03
 ETOT  7  -184.70638620084    -6.410E-05 1.274E-03 2.832E-04
 ETOT  8  -184.70639535849    -9.158E-06 1.176E-03 1.331E-04
 ETOT  9  -184.70639586499    -5.065E-07 7.396E-04 8.871E-06
 ETOT 10  -184.70639608755    -2.226E-07 2.955E-04 4.770E-06
 ETOT 11  -184.70639603310     5.445E-08 1.988E-04 2.409E-07
 ETOT 12  -184.70639604720    -1.410E-08 1.779E-04 5.948E-08
 ETOT 13  -184.70639605147    -4.263E-09 1.671E-04 8.697E-09
 ETOT 14  -184.70639605649    -5.028E-09 9.133E-05 9.569E-09

 At SCF step   14, etot is converged :
  for the second time, diff in etot=  5.028E-09 < toldfe=  1.000E-08

 Cartesian components of stress tensor (hartree/bohr^3)
  sigma(1 1)=  2.31586668E-05  sigma(3 2)=  9.55008917E-15
  sigma(2 2)=  2.57730337E-05  sigma(3 1)= -1.86377283E-14
  sigma(3 3)=  2.31586668E-05  sigma(2 1)=  9.54985391E-15

--- !ResultsGS
iteration_state: {dtset: 1, }
comment   : Summary of ground state results
lattice_vectors:
- [  0.0000000,  11.0542277,  11.3280487, ]
- [ 11.3280487,   0.0000000,  11.3280487, ]
- [ 11.3280487,  11.0542277,   0.0000000, ]
lattice_lengths: [  15.82784,   16.02028,   15.82784, ]
lattice_angles: [ 59.597,  60.806,  59.597, ] # degrees, (23, 13, 12)
lattice_volume:   2.8370606E+03
convergence: {deltae: -5.028E-09, res2:  9.569E-09, residm:  9.133E-05, diffor: null, }
etotal    :  -1.84706396E+02
entropy   :   0.00000000E+00
fermie    :   8.76132059E-03
cartesian_stress_tensor: # hartree/bohr^3
- [  2.31586668E-05,   9.54985391E-15,  -1.86377283E-14, ]
- [  9.54985391E-15,   2.57730337E-05,   9.55008917E-15, ]
- [ -1.86377283E-14,   9.55008917E-15,   2.31586668E-05, ]
pressure_GPa:  -7.0699E-01
xred      :
- [  2.4778E-01,   2.5222E-01,   2.4778E-01, Cs]
- [  7.4778E-01,   7.5222E-01,   7.4778E-01, Cs]
- [  7.8735E-01,   2.1265E-01,   7.8735E-01, Cl]
- [  2.3741E-01,   2.4211E-01,   7.5789E-01,  I]
- [  7.5789E-01,   7.6259E-01,   2.3741E-01,  I]
- [  2.3979E-01,   7.6021E-01,   2.3979E-01,  I]
- [  2.3741E-01,   7.6259E-01,   7.5789E-01,  I]
- [  7.5789E-01,   2.4211E-01,   2.3741E-01,  I]
- [ -6.2673E-03,   6.2673E-03,  -6.2673E-03, Hf]
cartesian_forces: # hartree/bohr
- [  4.90492866E-20,   3.84378900E-05,   2.04963536E-21, ]
- [  4.90492866E-20,   3.84378900E-05,   2.04963536E-21, ]
- [  1.46415446E-20,   3.51568783E-03,   3.64573773E-20, ]
- [  1.04107792E-14,  -1.46720017E-04,  -1.75033971E-03, ]
- [ -1.04108628E-14,  -1.46720017E-04,   1.75033971E-03, ]
- [ -5.29269181E-20,  -1.61639697E-03,   1.04025840E-19, ]
- [  1.75033971E-03,  -1.46720017E-04,  -1.04106680E-14, ]
- [ -1.75033971E-03,  -1.46720017E-04,   1.04107565E-14, ]
- [  3.00379039E-20,  -1.38928657E-03,   2.10610180E-20, ]
force_length_stats: {min:   3.84378900E-05, max:   3.51568783E-03, mean:   1.51379557E-03, }
...

 Integrated electronic density in atomic spheres:
 Atom  Sphere_radius  Integrated_density
    1        2.00000          4.45843601
    2        2.00000          4.45843601
    3        2.00000          5.08870963
    4        2.00000          2.88239932
    5        2.00000          2.88239932
    6        2.00000          2.88141374
    7        2.00000          2.88239932
    8        2.00000          2.88239932
    9        2.00000          8.23853653

 ----iterations are completed or convergence reached----

 Mean square residual over all n,k,spin=   85.169E-08; max=  91.326E-06
 reduced coordinates (array xred) for    9 atoms
       0.247779576770      0.252220423230      0.247779576770
       0.747779576770      0.752220423230      0.747779576770
       0.787345784850      0.212654215150      0.787345784850
       0.237410002980      0.242112385090      0.757887614910
       0.757887614910      0.762589997020      0.237410002980
       0.239791265580      0.760208734420      0.239791265580
       0.237410002980      0.762589997020      0.757887614910
       0.757887614910      0.242112385090      0.237410002980
      -0.006267260752      0.006267260752     -0.006267260752
 rms dE/dt=  1.6441E-02; max dE/dt=  2.1316E-02; dE/dt below (all hartree)
    1      -0.000558511123      0.000000000000     -0.000558511123
    2      -0.000558511123      0.000000000000     -0.000558511123
    3      -0.038996823661      0.000000000000     -0.038996823661
    4       0.021316199916      0.019827933380      0.001488266536
    5      -0.018339666844     -0.019827933380      0.001488266536
    6       0.017734410249      0.000000000000      0.017734410249
    7       0.001488266536     -0.019827933380     -0.018339666844
    8       0.001488266536      0.019827933380      0.021316199916
    9       0.015223880099      0.000000000000      0.015223880099

 cartesian coordinates (angstrom) at end:
    1      2.99727258242492     2.89884530028282     2.99727258242492
    2      8.99181774727445     8.74849065457619     8.99181774727445
    3      5.99454516482904     9.21138722514055     5.99454516482904
    4      5.99454516483114     5.82213808662950     2.87451861284229
    5      5.99454516486825     5.82213808662950     9.11457171685710
    6      5.99454516486808     2.80538772540035     5.99454516486808
    7      9.11457171685710     5.82213808662950     5.99454516486825
    8      2.87451861284229     5.82213808662950     5.99454516483114
    9      0.00000000000045    -0.07332250549001     0.00000000000045

 cartesian forces (hartree/bohr) at end:
    1      0.00000000000000     0.00003843788998     0.00000000000000
    2      0.00000000000000     0.00003843788998     0.00000000000000
    3      0.00000000000000     0.00351568782563     0.00000000000000
    4      0.00000000000001    -0.00014672001664    -0.00175033970877
    5     -0.00000000000001    -0.00014672001661     0.00175033970877
    6     -0.00000000000000    -0.00161639697301     0.00000000000000
    7      0.00175033970877    -0.00014672001661    -0.00000000000001
    8     -0.00175033970877    -0.00014672001664     0.00000000000001
    9      0.00000000000000    -0.00138928656608     0.00000000000000
 frms,max,avg= 1.0407749E-03 3.5156878E-03   0.000E+00  1.209E-05  0.000E+00 h/b

 cartesian forces (eV/Angstrom) at end:
    1      0.00000000000000     0.00197655560764     0.00000000000000
    2      0.00000000000000     0.00197655560764     0.00000000000000
    3      0.00000000000000     0.18078392153355     0.00000000000000
    4      0.00000000000054    -0.00754464596702    -0.09000607911236
    5     -0.00000000000054    -0.00754464596592     0.09000607911236
    6     -0.00000000000000    -0.08311846728980     0.00000000000000
    7      0.09000607911236    -0.00754464596592    -0.00000000000054
    8     -0.09000607911236    -0.00754464596702     0.00000000000054
    9      0.00000000000000    -0.07143998159317     0.00000000000000
 frms,max,avg= 5.3518794E-02 1.8078392E-01   0.000E+00  6.215E-04  0.000E+00 e/A
 length scales= 15.827843700000 16.020280040000 15.827843700000 bohr
              =  8.375734147165  8.477567072397  8.375734147165 angstroms
 prteigrs : about to open file Cs2TiI6o_EIG
 Fermi (or HOMO) energy (hartree) =   0.00876   Average Vxc (hartree)=  -0.23504
 Eigenvalues (hartree) for nkpt=   4  k points:
 kpt#   1, nband= 42, wtk=  0.12500, kpt=  0.0000  0.0000  0.0000 (reduced coord)
  -2.42044   -1.20663   -1.20572   -1.20572   -0.79971   -0.79960   -0.57103   -0.45179
  -0.43406   -0.43406   -0.43081   -0.42774   -0.28054   -0.27985   -0.27985   -0.27851
  -0.27851   -0.27851   -0.15344   -0.10889   -0.10849   -0.10849   -0.07849   -0.07849
  -0.07601   -0.06991   -0.06335   -0.03885   -0.03885   -0.02057   -0.00810   -0.00786
  -0.00786    0.00828    0.00876    0.00876    0.12536    0.13386    0.13386    0.18697
   0.19948    0.21056
 prteigrs : prtvol=0 or 1, do not print more k-points.

--- !EnergyTerms
iteration_state     : {dtset: 1, }
comment             : Components of total free energy in Hartree
kinetic             :  4.57360123242924E+01
hartree             :  4.04976633634815E+01
xc                  : -4.74431240427512E+01
Ewald energy        : -1.11549604109011E+02
psp_core            :  4.37923959717583E+00
local_psp           : -1.32624378172167E+02
non_local_psp+x     :  1.62977539409787E+01
total_energy        : -1.84706437098001E+02
...

--- !EnergyTermsDC
iteration_state     : {dtset: 1, }
comment             : '"Double-counting" decomposition of free energy'
band_energy         : -2.61285377569724E+01
Ewald energy        : -1.11549604109011E+02
psp_core            :  4.37923959717583E+00
xc_dc               : -5.14074937876864E+01
total_energy_dc     : -1.84706396056494E+02
...

 Cartesian components of stress tensor (hartree/bohr^3)
  sigma(1 1)=  2.31586668E-05  sigma(3 2)=  9.55008917E-15
  sigma(2 2)=  2.57730337E-05  sigma(3 1)= -1.86377283E-14
  sigma(3 3)=  2.31586668E-05  sigma(2 1)=  9.54985391E-15

-Cartesian components of stress tensor (GPa)         [Pressure= -7.0699E-01 GPa]
- sigma(1 1)=  6.81351386E-01  sigma(3 2)=  2.80973277E-10
- sigma(2 2)=  7.58268703E-01  sigma(3 1)= -5.48340804E-10
- sigma(3 3)=  6.81351386E-01  sigma(2 1)=  2.80966355E-10

== END DATASET(S) ==============================================================

 -outvars: echo values of variables after computation  --------
            acell      1.5827843700E+01  1.6020280040E+01  1.5827843700E+01 Bohr
              amu      1.32905430E+02  1.26904470E+02  1.78490000E+02
                       3.54527000E+01
           diemac      1.20000000E+01
             ecut      2.00000000E+01 Hartree
           etotal     -1.8470639606E+02
            fcart      4.9049286557E-20  3.8437889982E-05  2.0496353603E-21
                       4.9049286557E-20  3.8437889982E-05  2.0496353603E-21
                       1.4641544633E-20  3.5156878256E-03  3.6457377284E-20
                       1.0410779179E-14 -1.4672001664E-04 -1.7503397088E-03
                      -1.0410862758E-14 -1.4672001661E-04  1.7503397088E-03
                      -5.2926918071E-20 -1.6163969730E-03  1.0402583999E-19
                       1.7503397088E-03 -1.4672001661E-04 -1.0410667961E-14
                      -1.7503397088E-03 -1.4672001664E-04  1.0410756497E-14
                       3.0037903938E-20 -1.3892865661E-03  2.1061017979E-20
-          fftalg         112
             iscf          17
           istwfk        1    1    1    1
              ixc        -428
              kpt      0.00000000E+00  0.00000000E+00  0.00000000E+00
                       5.00000000E-01  0.00000000E+00  0.00000000E+00
                       5.00000000E-01  5.00000000E-01  0.00000000E+00
                       5.00000000E-01  0.00000000E+00  5.00000000E-01
         kptns_hf      0.00000000E+00  0.00000000E+00  0.00000000E+00
                       5.00000000E-01  0.00000000E+00  0.00000000E+00
                       0.00000000E+00  5.00000000E-01  0.00000000E+00
                       5.00000000E-01  5.00000000E-01  0.00000000E+00
                       0.00000000E+00  0.00000000E+00  5.00000000E-01
                       5.00000000E-01  0.00000000E+00  5.00000000E-01
                       0.00000000E+00  5.00000000E-01  5.00000000E-01
                       5.00000000E-01  5.00000000E-01  5.00000000E-01
         kptrlatt        2    0    0      0    2    0      0    0    2
          kptrlen      3.16556874E+01
P           mkmem           1
            natom           9
            nband          42
          nbandhf          36
            ngfft          72      72      72
             nkpt           4
           nkpthf           8
-           npkpt           4
            nstep        2500
             nsym           8
           ntypat           4
              occ      2.000000  2.000000  2.000000  2.000000  2.000000  2.000000
                       2.000000  2.000000  2.000000  2.000000  2.000000  2.000000
                       2.000000  2.000000  2.000000  2.000000  2.000000  2.000000
                       2.000000  2.000000  2.000000  2.000000  2.000000  2.000000
                       2.000000  2.000000  2.000000  2.000000  2.000000  2.000000
                       2.000000  2.000000  2.000000  2.000000  2.000000  2.000000
                       0.000000  0.000000  0.000000  0.000000  0.000000  0.000000
            rprim      0.0000000000E+00  6.9840389529E-01  7.1570384870E-01
                       7.0710678119E-01  0.0000000000E+00  7.0710678119E-01
                       7.1570384870E-01  6.9840389529E-01  0.0000000000E+00
          spgroup         107
           strten      2.3158666792E-05  2.5773033706E-05  2.3158666792E-05
                       9.5500891683E-15 -1.8637728250E-14  9.5498539119E-15
           symrel      1  0  0   0  1  0   0  0  1       0  0  1   0  1  0   1  0  0
                       0 -1  1   0 -1  0   1 -1  0       1 -1  0   0 -1  0   0 -1  1
                       0 -1  1  -1  0  1   0  0  1       0  0  1  -1  0  1   0 -1  1
                       1  0  0   1  0 -1   1 -1  0       1 -1  0   1  0 -1   1  0  0
           toldfe      1.00000000E-08 Hartree
            typat      1  1  4  2  2  2  2  2  3
          usefock           1
              wtk        0.12500    0.50000    0.25000    0.12500
           xangst      2.9972725824E+00  2.8988453003E+00  2.9972725824E+00
                       8.9918177473E+00  8.7484906546E+00  8.9918177473E+00
                       5.9945451648E+00  9.2113872251E+00  5.9945451648E+00
                       5.9945451648E+00  5.8221380866E+00  2.8745186128E+00
                       5.9945451649E+00  5.8221380866E+00  9.1145717169E+00
                       5.9945451649E+00  2.8053877254E+00  5.9945451649E+00
                       9.1145717169E+00  5.8221380866E+00  5.9945451649E+00
                       2.8745186128E+00  5.8221380866E+00  5.9945451648E+00
                       4.4691245480E-13 -7.3322505490E-02  4.4691245480E-13
            xcart      5.6640243264E+00  5.4780237191E+00  5.6640243264E+00
                       1.6992072979E+01  1.6532251413E+01  1.6992072979E+01
                       1.1328048653E+01  1.7406999159E+01  1.1328048653E+01
                       1.1328048653E+01  1.1002246492E+01  5.4320529422E+00
                       1.1328048653E+01  1.1002246492E+01  1.7224044363E+01
                       1.1328048653E+01  5.3014144976E+00  1.1328048653E+01
                       1.7224044363E+01  1.1002246492E+01  1.1328048653E+01
                       5.4320529422E+00  1.1002246492E+01  1.1328048653E+01
                       8.4454214495E-13 -1.3855945475E-01  8.4454214495E-13
             xred      2.4777957677E-01  2.5222042323E-01  2.4777957677E-01
                       7.4777957677E-01  7.5222042323E-01  7.4777957677E-01
                       7.8734578485E-01  2.1265421515E-01  7.8734578485E-01
                       2.3741000298E-01  2.4211238509E-01  7.5788761491E-01
                       7.5788761491E-01  7.6258999702E-01  2.3741000298E-01
                       2.3979126558E-01  7.6020873442E-01  2.3979126558E-01
                       2.3741000298E-01  7.6258999702E-01  7.5788761491E-01
                       7.5788761491E-01  2.4211238509E-01  2.3741000298E-01
                      -6.2672607525E-03  6.2672607525E-03 -6.2672607525E-03
            znucl       55.00000   53.00000   72.00000   17.00000

- Timing analysis has been suppressed with timopt=0

 Suggested references for the acknowledgment of ABINIT usage.

 Calculation completed.
.Delivered   0 WARNINGs and   2 COMMENTs to log file.