.Version 9.2.2 of ABINIT

 ABINIT is a project of the Universite Catholique de Louvain,
 Corning Inc. and other collaborators, see ~abinit/doc/developers/contributors.txt .
 acknowledgments of the ABINIT effort.

.Starting date : Fri 14 Jul 2023.
- ( at 23h36 )

- The starting date is more than 2 years after the initial release
- of this version of ABINIT, namely Nov 2020.
- Note that the use beyond 3 years after the release will not be supported.
- Action: please, switch to a more recent version of ABINIT.

- input  file    -> Cs2TiI6.in
- output file    -> Cs2TiI6.out
- root for input  files -> Cs2TiI6i
- root for output files -> Cs2TiI6o

 Symmetries : space group Im m 2 (# 44); Bravais oI (body-center ortho.)
     intxc =       0    ionmov =       0      iscf =      17    lmnmax =       8
     lnmax =       8     mgfft =      64  mpssoang =       4    mqgrid =    3001
     natom =       9  nloc_mem =       1    nspden =       1   nspinor =       1
    nsppol =       1      nsym =       4    n1xccc =    2501    ntypat =       4
    occopt =       1   xclevel =       2
-    mband =          42        mffmem =           1         mkmem =          70
       mpw =       11760          nfft =      262144          nkpt =         280
  Rough estimation (10% accuracy) of disk space for files :

------------- Echo of variables that govern the present computation ------------
-
- outvars: echo of selected default values
-   iomode0 =  0 , fftalg0 =112 , wfoptalg0 =  0
-
- outvars: echo of global parameters not present in the input file
-  max_nthreads =    0
-
 -outvars: echo values of preprocessed input variables --------
            acell      1.5496161884E+01  1.5743530264E+01  1.5743530264E+01 Bohr
              amu      1.32905430E+02  1.26904470E+02  9.12240000E+01
                       3.54527000E+01
           diemac      1.20000000E+01
             ecut      2.00000000E+01 Hartree
-          fftalg         112
             iscf          17
           istwfk        2    0    0    0    0    0    3    0    0    0
                         0    0    0    0    0    0    0    0    0    0
                         0    0    0    0    0    0    0    0    0    0
                         0    0    0    0    0    0    0    0    0    0
                         0    0    0    0    0    0    0    0    0    0
                       outvar_i_n : Printing only first  50 k-points.
              ixc          32
              kpt      0.00000000E+00  0.00000000E+00  0.00000000E+00
                       8.33333333E-02  0.00000000E+00  0.00000000E+00
                       1.66666667E-01  0.00000000E+00  0.00000000E+00
                       2.50000000E-01  0.00000000E+00  0.00000000E+00
                       3.33333333E-01  0.00000000E+00  0.00000000E+00
                       4.16666667E-01  0.00000000E+00  0.00000000E+00
                       5.00000000E-01  0.00000000E+00  0.00000000E+00
                       0.00000000E+00  8.33333333E-02  0.00000000E+00
                       8.33333333E-02  8.33333333E-02  0.00000000E+00
                       1.66666667E-01  8.33333333E-02  0.00000000E+00
                       2.50000000E-01  8.33333333E-02  0.00000000E+00
                       3.33333333E-01  8.33333333E-02  0.00000000E+00
                       4.16666667E-01  8.33333333E-02  0.00000000E+00
                       5.00000000E-01  8.33333333E-02  0.00000000E+00
                      -4.16666667E-01  8.33333333E-02  0.00000000E+00
                      -3.33333333E-01  8.33333333E-02  0.00000000E+00
                      -2.50000000E-01  8.33333333E-02  0.00000000E+00
                      -1.66666667E-01  8.33333333E-02  0.00000000E+00
                      -8.33333333E-02  8.33333333E-02  0.00000000E+00
                       0.00000000E+00  1.66666667E-01  0.00000000E+00
                       8.33333333E-02  1.66666667E-01  0.00000000E+00
                       1.66666667E-01  1.66666667E-01  0.00000000E+00
                       2.50000000E-01  1.66666667E-01  0.00000000E+00
                       3.33333333E-01  1.66666667E-01  0.00000000E+00
                       4.16666667E-01  1.66666667E-01  0.00000000E+00
                       5.00000000E-01  1.66666667E-01  0.00000000E+00
                      -4.16666667E-01  1.66666667E-01  0.00000000E+00
                      -3.33333333E-01  1.66666667E-01  0.00000000E+00
                      -2.50000000E-01  1.66666667E-01  0.00000000E+00
                      -1.66666667E-01  1.66666667E-01  0.00000000E+00
                      -8.33333333E-02  1.66666667E-01  0.00000000E+00
                       0.00000000E+00  2.50000000E-01  0.00000000E+00
                       8.33333333E-02  2.50000000E-01  0.00000000E+00
                       1.66666667E-01  2.50000000E-01  0.00000000E+00
                       2.50000000E-01  2.50000000E-01  0.00000000E+00
                       3.33333333E-01  2.50000000E-01  0.00000000E+00
                       4.16666667E-01  2.50000000E-01  0.00000000E+00
                       5.00000000E-01  2.50000000E-01  0.00000000E+00
                      -4.16666667E-01  2.50000000E-01  0.00000000E+00
                      -3.33333333E-01  2.50000000E-01  0.00000000E+00
                      -2.50000000E-01  2.50000000E-01  0.00000000E+00
                      -1.66666667E-01  2.50000000E-01  0.00000000E+00
                      -8.33333333E-02  2.50000000E-01  0.00000000E+00
                       0.00000000E+00  3.33333333E-01  0.00000000E+00
                       8.33333333E-02  3.33333333E-01  0.00000000E+00
                       1.66666667E-01  3.33333333E-01  0.00000000E+00
                       2.50000000E-01  3.33333333E-01  0.00000000E+00
                       3.33333333E-01  3.33333333E-01  0.00000000E+00
                       4.16666667E-01  3.33333333E-01  0.00000000E+00
                       5.00000000E-01  3.33333333E-01  0.00000000E+00
                       outvar_i_n : Printing only first  50 k-points.
         kptrlatt       12    0    0      0   12    0      0    0   12
          kptrlen      1.85953943E+02
P           mkmem          70
            natom           9
            nband          42
            ngfft          64      64      64
             nkpt         280
            nstep        2500
             nsym           4
           ntypat           4
              occ      2.000000  2.000000  2.000000  2.000000  2.000000  2.000000
                       2.000000  2.000000  2.000000  2.000000  2.000000  2.000000
                       2.000000  2.000000  2.000000  2.000000  2.000000  2.000000
                       2.000000  2.000000  2.000000  2.000000  2.000000  2.000000
                       2.000000  2.000000  2.000000  2.000000  2.000000  2.000000
                       2.000000  2.000000  2.000000  2.000000  2.000000  2.000000
                       0.000000  0.000000  0.000000  0.000000  0.000000  0.000000
            rprim      0.0000000000E+00  7.0710678119E-01  7.0710678119E-01
                       7.1143424933E-01 -6.7240479235E-03  7.0272049640E-01
                       7.1143424933E-01  7.0272049640E-01 -6.7240479235E-03
          spgroup          44
           symrel      1  0  0   0  1  0   0  0  1       1  0  0   1  0 -1   1 -1  0
                       1  0  0   0  0  1   0  1  0       1  0  0   1 -1  0   1  0 -1
           toldfe      1.00000000E-08 Hartree
            typat      1  1  2  4  2  4  2  2  3
              wtk        0.00058    0.00231    0.00231    0.00231    0.00231    0.00231
                         0.00116    0.00231    0.00231    0.00463    0.00463    0.00463
                         0.00463    0.00463    0.00463    0.00463    0.00463    0.00463
                         0.00463    0.00231    0.00463    0.00231    0.00463    0.00463
                         0.00463    0.00463    0.00463    0.00463    0.00463    0.00463
                         0.00463    0.00231    0.00463    0.00463    0.00231    0.00463
                         0.00463    0.00463    0.00463    0.00463    0.00463    0.00463
                         0.00463    0.00231    0.00463    0.00463    0.00463    0.00231
                         0.00463    0.00463
                       outvars : Printing only first  50 k-points.
           xangst      2.9301318090E+00  2.8855394416E+00  2.8855394416E+00
                       8.9239526959E+00  8.6839675629E+00  8.6839675629E+00
                       5.9270422525E+00  5.8027069879E+00  2.7602068983E+00
                       5.9270422525E+00  5.6874757071E+00  9.1127578310E+00
                       8.9548940797E+00  5.7749461688E+00  5.7749461688E+00
                       5.9270422525E+00  9.1127578310E+00  5.6874757071E+00
                       5.9270422525E+00  2.7602068983E+00  5.8027069879E+00
                       2.8991904252E+00  5.7749461689E+00  5.7749461689E+00
                      -2.3074152259E-34 -9.5121796276E-02 -9.5121796276E-02
            xcart      5.5371466523E+00  5.4528792903E+00  5.4528792903E+00
                       1.6863826618E+01  1.6410320441E+01  1.6410320441E+01
                       1.1200486635E+01  1.0965527037E+01  5.2160351078E+00
                       1.1200486635E+01  1.0747771474E+01  1.7220616616E+01
                       1.6922297360E+01  1.0913066691E+01  1.0913066691E+01
                       1.1200486635E+01  1.7220616616E+01  1.0747771474E+01
                       1.1200486635E+01  5.2160351078E+00  1.0965527037E+01
                       5.4786759108E+00  1.0913066691E+01  1.0913066691E+01
                      -4.3603828518E-34 -1.7975414423E-01 -1.7975414423E-01
             xred      2.5045836096E-01  2.4718330697E-01  2.4718330697E-01
                       7.4482497490E-01  7.5281669303E-01  7.5281669303E-01
                       2.3838234321E-01  2.4261757029E-01  7.5738242971E-01
                       7.7622807669E-01  7.8976414446E-01  2.1023585554E-01
                       2.4052340941E-01  7.5542688058E-01  7.5542688058E-01
                       7.7622807669E-01  2.1023585554E-01  7.8976414446E-01
                       2.3838234321E-01  7.5738242971E-01  2.4261757029E-01
                       7.5137717057E-01  2.4457311942E-01  2.4457311942E-01
                      -1.6404755614E-02 -7.3202751594E-19  7.3202751594E-19
            znucl       55.00000   53.00000   40.00000   17.00000

 chkinp: Checking input parameters for consistency.

== DATASET  1 ==================================================================
-   mpi_nproc: 4, omp_nthreads: -1 (-1 if OMP is not activated)

--- !DatasetInfo
iteration_state: {dtset: 1, }
dimensions: {natom: 9, nkpt: 280, mband: 42, nsppol: 1, nspinor: 1, nspden: 1, mpw: 11760, }
cutoff_energies: {ecut:  20.0, pawecutdg:  -1.0, }
electrons: {nelect:   7.20000000E+01, charge:   0.00000000E+00, occopt:   1.00000000E+00, tsmear:   1.00000000E-02, }
meta: {optdriver: 0, ionmov: 0, optcell: 0, iscf: 17, paral_kgb: 0, }
...

 Exchange-correlation functional for the present dataset will be:
  Meta-GGA fake2 - ixc=32

 Real(R)+Recip(G) space primitive vectors, cartesian coordinates (Bohr,Bohr^-1):
[...]
- [ -4.81183431E-14,  -2.17147064E-04,  -2.71104215E-03, ]
- [  8.52888764E-14,  -5.77627802E-04,   5.76779347E-03, ]
- [  3.23824013E-03,  -4.45579787E-04,  -4.45579787E-04, ]
- [  8.52892009E-14,   5.76779347E-03,  -5.77627802E-04, ]
- [ -4.81184299E-14,  -2.71104215E-03,  -2.17147064E-04, ]
- [ -3.23824013E-03,  -4.45579787E-04,  -4.45579787E-04, ]
- [ -5.99002417E-14,  -1.82258163E-03,  -1.82258163E-03, ]
force_length_stats: {min:   4.77882674E-04, max:   5.79664519E-03, mean:   3.01822096E-03, }
...

 Integrated electronic density in atomic spheres:
 Atom  Sphere_radius  Integrated_density
    1        2.00000          4.43947923
    2        2.00000          4.43947923
    3        2.00000          2.84540381
    4        2.00000          5.03521304
    5        2.00000          2.84228519
    6        2.00000          5.03521304
    7        2.00000          2.84540381
    8        2.00000          2.84228519
    9        2.00000          8.21644201

 ----iterations are completed or convergence reached----

 Mean square residual over all n,k,spin=   15.517E-07; max=  12.864E-04
 reduced coordinates (array xred) for    9 atoms
       0.250458360960      0.247183306970      0.247183306970
       0.744824974900      0.752816693030      0.752816693030
       0.238382343210      0.242617570290      0.757382429710
       0.776228076690      0.789764144460      0.210235855540
       0.240523409410      0.755426880580      0.755426880580
       0.776228076690      0.210235855540      0.789764144460
       0.238382343210      0.757382429710      0.242617570290
       0.751377170570      0.244573119420      0.244573119420
      -0.016404755614     -0.000000000000      0.000000000000
 rms dE/dt=  3.1428E-02; max dE/dt=  4.1153E-02; dE/dt below (all hartree)
    1      -0.004949336203      0.001506252712      0.001506252712
    2      -0.004949336203     -0.006455588915     -0.006455588915
    3       0.032086310340      0.029970513843      0.002115796497
    4      -0.056870085530     -0.063871560760      0.007001475229
    5       0.009765677951     -0.031387026363     -0.031387026363
    6      -0.056870085530      0.007001475229     -0.063871560760
    7       0.032086310340      0.002115796497      0.029970513843
    8       0.009765677951      0.041152704314      0.041152704314
    9       0.039942511171      0.019971255586      0.019971255586

 cartesian coordinates (angstrom) at end:
    1      2.93013180902323     2.88553944163803     2.88553944163803
    2      8.92395269587764     8.68396756290027     8.68396756290027
    3      5.92704225245044     5.80270698792280     2.76020689825261
    4      5.92704225245044     5.68747570708038     9.11275783102369
    5      8.95489407966898     5.77494616880825     5.77494616880825
    6      5.92704225245044     9.11275783102369     5.68747570708038
    7      5.92704225245044     2.76020689825261     5.80270698792280
    8      2.89919042523189     5.77494616890776     5.77494616890776
    9     -0.00000000000000    -0.09512179627627    -0.09512179627627

 cartesian forces (hartree/bohr) at end:
    1     -0.00035542391533     0.00022588237073     0.00022588237073
    2      0.00035542391534     0.00022588237073     0.00022588237073
    3     -0.00000000000005    -0.00021714706411    -0.00271104214852
    4      0.00000000000009    -0.00057762780250     0.00576779347292
    5      0.00323824013361    -0.00044557978690    -0.00044557978690
    6      0.00000000000009     0.00576779347292    -0.00057762780250
    7     -0.00000000000005    -0.00271104214852    -0.00021714706411
    8     -0.00323824013364    -0.00044557978690    -0.00044557978690
    9     -0.00000000000006    -0.00182258162546    -0.00182258162546
 frms,max,avg= 2.0263350E-03 5.7677935E-03   0.000E+00 -3.876E-08 -3.876E-08 h/b

 cartesian forces (eV/Angstrom) at end:
    1     -0.01827663103401     0.01161533754149     0.01161533754149
    2      0.01827663103478     0.01161533754149     0.01161533754149
    3     -0.00000000000247    -0.01116615005261    -0.13940738067773
    4      0.00000000000439    -0.02970281336152     0.29659184044407
    5      0.16651698878198    -0.02291263195900    -0.02291263195900
    6      0.00000000000439     0.29659184044407    -0.02970281336152
    7     -0.00000000000247    -0.13940738067773    -0.01116615005261
    8     -0.16651698878349    -0.02291263195900    -0.02291263195900
    9     -0.00000000000308    -0.09372090751719    -0.09372090751719
 frms,max,avg= 1.0419833E-01 2.9659184E-01   0.000E+00 -1.993E-06 -1.993E-06 e/A
 length scales= 15.496161884000 15.743530264000 15.743530264000 bohr
              =  8.200215689634  8.331117398456  8.331117398456 angstroms
 prteigrs : about to open file Cs2TiI6o_EIG
 Fermi (or HOMO) energy (hartree) =   0.02682   Average Vxc (hartree)=  -0.29044
 Eigenvalues (hartree) for nkpt= 280  k points:
 kpt#   1, nband= 42, wtk=  0.00058, kpt=  0.0000  0.0000  0.0000 (reduced coord)
  -1.79244   -0.98022   -0.97996   -0.97870   -0.72792   -0.72780   -0.49851   -0.49370
  -0.39326   -0.38294   -0.37804   -0.37710   -0.24604   -0.24574   -0.24528   -0.24411
  -0.24380   -0.24378   -0.11320   -0.09369   -0.08715   -0.07987   -0.07536   -0.06782
  -0.05969   -0.05552   -0.04613   -0.02868   -0.02671   -0.01151   -0.00346    0.00596
   0.00628    0.02078    0.02239    0.02682    0.09617    0.09631    0.10222    0.15669
   0.18039    0.18330
 prteigrs : prtvol=0 or 1, do not print more k-points.

--- !EnergyTerms
iteration_state     : {dtset: 1, }
comment             : Components of total free energy in Hartree
kinetic             :  4.77667150891764E+01
hartree             :  4.23983201302630E+01
xc                  : -4.87920557179645E+01
Ewald energy        : -1.11977089455955E+02
psp_core            :  4.18544155584090E+00
local_psp           : -1.40386312509773E+02
non_local_psp       :  2.41446582639103E+01
total_energy        : -1.82660322644502E+02
...

--- !EnergyTermsDC
iteration_state     : {dtset: 1, }
comment             : '"Double-counting" decomposition of free energy'
band_energy         : -2.18103923636068E+01
Ewald energy        : -1.11977089455955E+02
psp_core            :  4.18544155584090E+00
xc_dc               : -5.30583278139329E+01
total_energy_dc     : -1.82660368077654E+02
...

 Cartesian components of stress tensor (hartree/bohr^3)
  sigma(1 1)= -3.90572265E-04  sigma(3 2)=  7.17286761E-07
  sigma(2 2)= -3.86589204E-04  sigma(3 1)=  1.87462564E-14
  sigma(3 3)= -3.86589204E-04  sigma(2 1)=  1.87464513E-14

-Cartesian components of stress tensor (GPa)         [Pressure=  1.1413E+01 GPa]
- sigma(1 1)= -1.14910308E+01  sigma(3 2)=  2.11033015E-02
- sigma(2 2)= -1.13738451E+01  sigma(3 1)=  5.51533813E-10
- sigma(3 3)= -1.13738451E+01  sigma(2 1)=  5.51539546E-10

== END DATASET(S) ==============================================================

 -outvars: echo values of variables after computation  --------
            acell      1.5496161884E+01  1.5743530264E+01  1.5743530264E+01 Bohr
              amu      1.32905430E+02  1.26904470E+02  9.12240000E+01
                       3.54527000E+01
           diemac      1.20000000E+01
             ecut      2.00000000E+01 Hartree
           etotal     -1.8266036808E+02
            fcart     -3.5542391533E-04  2.2588237073E-04  2.2588237073E-04
                       3.5542391534E-04  2.2588237073E-04  2.2588237073E-04
                      -4.8118343113E-14 -2.1714706411E-04 -2.7110421485E-03
                       8.5288876368E-14 -5.7762780250E-04  5.7677934729E-03
                       3.2382401336E-03 -4.4557978690E-04 -4.4557978690E-04
                       8.5289200934E-14  5.7677934729E-03 -5.7762780250E-04
                      -4.8118429914E-14 -2.7110421485E-03 -2.1714706411E-04
                      -3.2382401336E-03 -4.4557978690E-04 -4.4557978690E-04
                      -5.9900241654E-14 -1.8225816255E-03 -1.8225816255E-03
-          fftalg         112
             iscf          17
           istwfk        2    0    0    0    0    0    3    0    0    0
                         0    0    0    0    0    0    0    0    0    0
                         0    0    0    0    0    0    0    0    0    0
                         0    0    0    0    0    0    0    0    0    0
                         0    0    0    0    0    0    0    0    0    0
                       outvar_i_n : Printing only first  50 k-points.
              ixc          32
              kpt      0.00000000E+00  0.00000000E+00  0.00000000E+00
                       8.33333333E-02  0.00000000E+00  0.00000000E+00
                       1.66666667E-01  0.00000000E+00  0.00000000E+00
                       2.50000000E-01  0.00000000E+00  0.00000000E+00
                       3.33333333E-01  0.00000000E+00  0.00000000E+00
                       4.16666667E-01  0.00000000E+00  0.00000000E+00
                       5.00000000E-01  0.00000000E+00  0.00000000E+00
                       0.00000000E+00  8.33333333E-02  0.00000000E+00
                       8.33333333E-02  8.33333333E-02  0.00000000E+00
                       1.66666667E-01  8.33333333E-02  0.00000000E+00
                       2.50000000E-01  8.33333333E-02  0.00000000E+00
                       3.33333333E-01  8.33333333E-02  0.00000000E+00
                       4.16666667E-01  8.33333333E-02  0.00000000E+00
                       5.00000000E-01  8.33333333E-02  0.00000000E+00
                      -4.16666667E-01  8.33333333E-02  0.00000000E+00
                      -3.33333333E-01  8.33333333E-02  0.00000000E+00
                      -2.50000000E-01  8.33333333E-02  0.00000000E+00
                      -1.66666667E-01  8.33333333E-02  0.00000000E+00
                      -8.33333333E-02  8.33333333E-02  0.00000000E+00
                       0.00000000E+00  1.66666667E-01  0.00000000E+00
                       8.33333333E-02  1.66666667E-01  0.00000000E+00
                       1.66666667E-01  1.66666667E-01  0.00000000E+00
                       2.50000000E-01  1.66666667E-01  0.00000000E+00
                       3.33333333E-01  1.66666667E-01  0.00000000E+00
                       4.16666667E-01  1.66666667E-01  0.00000000E+00
                       5.00000000E-01  1.66666667E-01  0.00000000E+00
                      -4.16666667E-01  1.66666667E-01  0.00000000E+00
                      -3.33333333E-01  1.66666667E-01  0.00000000E+00
                      -2.50000000E-01  1.66666667E-01  0.00000000E+00
                      -1.66666667E-01  1.66666667E-01  0.00000000E+00
                      -8.33333333E-02  1.66666667E-01  0.00000000E+00
                       0.00000000E+00  2.50000000E-01  0.00000000E+00
                       8.33333333E-02  2.50000000E-01  0.00000000E+00
                       1.66666667E-01  2.50000000E-01  0.00000000E+00
                       2.50000000E-01  2.50000000E-01  0.00000000E+00
                       3.33333333E-01  2.50000000E-01  0.00000000E+00
                       4.16666667E-01  2.50000000E-01  0.00000000E+00
                       5.00000000E-01  2.50000000E-01  0.00000000E+00
                      -4.16666667E-01  2.50000000E-01  0.00000000E+00
                      -3.33333333E-01  2.50000000E-01  0.00000000E+00
                      -2.50000000E-01  2.50000000E-01  0.00000000E+00
                      -1.66666667E-01  2.50000000E-01  0.00000000E+00
                      -8.33333333E-02  2.50000000E-01  0.00000000E+00
                       0.00000000E+00  3.33333333E-01  0.00000000E+00
                       8.33333333E-02  3.33333333E-01  0.00000000E+00
                       1.66666667E-01  3.33333333E-01  0.00000000E+00
                       2.50000000E-01  3.33333333E-01  0.00000000E+00
                       3.33333333E-01  3.33333333E-01  0.00000000E+00
                       4.16666667E-01  3.33333333E-01  0.00000000E+00
                       5.00000000E-01  3.33333333E-01  0.00000000E+00
                       outvar_i_n : Printing only first  50 k-points.
         kptrlatt       12    0    0      0   12    0      0    0   12
          kptrlen      1.85953943E+02
P           mkmem          70
            natom           9
            nband          42
            ngfft          64      64      64
             nkpt         280
            nstep        2500
             nsym           4
           ntypat           4
              occ      2.000000  2.000000  2.000000  2.000000  2.000000  2.000000
                       2.000000  2.000000  2.000000  2.000000  2.000000  2.000000
                       2.000000  2.000000  2.000000  2.000000  2.000000  2.000000
                       2.000000  2.000000  2.000000  2.000000  2.000000  2.000000
                       2.000000  2.000000  2.000000  2.000000  2.000000  2.000000
                       2.000000  2.000000  2.000000  2.000000  2.000000  2.000000
                       0.000000  0.000000  0.000000  0.000000  0.000000  0.000000
            rprim      0.0000000000E+00  7.0710678119E-01  7.0710678119E-01
                       7.1143424933E-01 -6.7240479235E-03  7.0272049640E-01
                       7.1143424933E-01  7.0272049640E-01 -6.7240479235E-03
          spgroup          44
           strten     -3.9057226538E-04 -3.8658920394E-04 -3.8658920394E-04
                       7.1728676102E-07  1.8746256428E-14  1.8746451298E-14
           symrel      1  0  0   0  1  0   0  0  1       1  0  0   1  0 -1   1 -1  0
                       1  0  0   0  0  1   0  1  0       1  0  0   1 -1  0   1  0 -1
           toldfe      1.00000000E-08 Hartree
            typat      1  1  2  4  2  4  2  2  3
              wtk        0.00058    0.00231    0.00231    0.00231    0.00231    0.00231
                         0.00116    0.00231    0.00231    0.00463    0.00463    0.00463
                         0.00463    0.00463    0.00463    0.00463    0.00463    0.00463
                         0.00463    0.00231    0.00463    0.00231    0.00463    0.00463
                         0.00463    0.00463    0.00463    0.00463    0.00463    0.00463
                         0.00463    0.00231    0.00463    0.00463    0.00231    0.00463
                         0.00463    0.00463    0.00463    0.00463    0.00463    0.00463
                         0.00463    0.00231    0.00463    0.00463    0.00463    0.00231
                         0.00463    0.00463
                       outvars : Printing only first  50 k-points.
           xangst      2.9301318090E+00  2.8855394416E+00  2.8855394416E+00
                       8.9239526959E+00  8.6839675629E+00  8.6839675629E+00
                       5.9270422525E+00  5.8027069879E+00  2.7602068983E+00
                       5.9270422525E+00  5.6874757071E+00  9.1127578310E+00
                       8.9548940797E+00  5.7749461688E+00  5.7749461688E+00
                       5.9270422525E+00  9.1127578310E+00  5.6874757071E+00
                       5.9270422525E+00  2.7602068983E+00  5.8027069879E+00
                       2.8991904252E+00  5.7749461689E+00  5.7749461689E+00
                      -2.3074152259E-34 -9.5121796276E-02 -9.5121796276E-02
            xcart      5.5371466523E+00  5.4528792903E+00  5.4528792903E+00
                       1.6863826618E+01  1.6410320441E+01  1.6410320441E+01
                       1.1200486635E+01  1.0965527037E+01  5.2160351078E+00
                       1.1200486635E+01  1.0747771474E+01  1.7220616616E+01
                       1.6922297360E+01  1.0913066691E+01  1.0913066691E+01
                       1.1200486635E+01  1.7220616616E+01  1.0747771474E+01
                       1.1200486635E+01  5.2160351078E+00  1.0965527037E+01
                       5.4786759108E+00  1.0913066691E+01  1.0913066691E+01
                      -4.3603828518E-34 -1.7975414423E-01 -1.7975414423E-01
             xred      2.5045836096E-01  2.4718330697E-01  2.4718330697E-01
                       7.4482497490E-01  7.5281669303E-01  7.5281669303E-01
                       2.3838234321E-01  2.4261757029E-01  7.5738242971E-01
                       7.7622807669E-01  7.8976414446E-01  2.1023585554E-01
                       2.4052340941E-01  7.5542688058E-01  7.5542688058E-01
                       7.7622807669E-01  2.1023585554E-01  7.8976414446E-01
                       2.3838234321E-01  7.5738242971E-01  2.4261757029E-01
                       7.5137717057E-01  2.4457311942E-01  2.4457311942E-01
                      -1.6404755614E-02 -7.3202751594E-19  7.3202751594E-19
            znucl       55.00000   53.00000   40.00000   17.00000

- Timing analysis has been suppressed with timopt=0

 Suggested references for the acknowledgment of ABINIT usage.

 Calculation completed.
.Delivered   0 WARNINGs and   0 COMMENTs to log file.