.Version 9.2.2 of ABINIT

 ABINIT is a project of the Universite Catholique de Louvain,
 Corning Inc. and other collaborators, see ~abinit/doc/developers/contributors.txt .
 acknowledgments of the ABINIT effort.

.Starting date : Sat 15 Oct 2022.
- ( at 23h47 )

- input  file    -> Cs2TiI6.in
- output file    -> Cs2TiI6.out
- root for input  files -> Cs2TiI6i
- root for output files -> Cs2TiI6o

- inpspheads : Reading pseudopotential header in XML form from
-   ../../../Psps_for_tests/ATOMICDATA/Cs.GGA_PBE-JTH.xml
- inpspheads : Reading pseudopotential header in XML form from
-   ../../../Psps_for_tests/ATOMICDATA/I.GGA_PBE-JTH.xml
- inpspheads : Reading pseudopotential header in XML form from
-   ../../../Psps_for_tests/ATOMICDATA/Hf.GGA_PBE-JTH.xml
- inpspheads : Reading pseudopotential header in XML form from
-   ../../../Psps_for_tests/ATOMICDATA/Br.GGA_PBE-JTH.xml

 Symmetries : space group I4 m m (#107); Bravais tI (body-center tetrag.)
     intxc =       0    ionmov =       0      iscf =      17    lmnmax =      18
     lnmax =       6     mgfft =      54  mpssoang =       3    mqgrid =    3368
     natom =       9  nloc_mem =       2    nspden =       1   nspinor =       1
    nsppol =       1      nsym =       8    n1xccc =       1    ntypat =       4
    occopt =       1   xclevel =       2
-    mband =          42        mffmem =           1         mkmem =          28
       mpw =        6606          nfft =      157464          nkpt =         163
Pmy_natom=         2
 PAW method is used; the additional fine FFT grid is defined by:
   mgfftf=        90    nfftf =    729000
  Rough estimation (10% accuracy) of disk space for files :

------------- Echo of variables that govern the present computation ------------
-
- outvars: echo of selected default values
-   iomode0 =  0 , fftalg0 =112 , wfoptalg0 = 10
-
- outvars: echo of global parameters not present in the input file
-  max_nthreads =    0
-
 -outvars: echo values of preprocessed input variables --------
            acell      1.4433984642E+01  1.4601037711E+01  1.4433984642E+01 Bohr
              amu      1.32905430E+02  1.26904470E+02  1.78490000E+02
                       7.99040000E+01
           diemac      1.20000000E+01
             ecut      1.60000000E+01 Hartree
-          fftalg         112
           istwfk        2    0    0    0    0    0    3    0    0    0
                         0    0    0    0    0    0    0    0    0    0
                         0    0    0    0    0    0    0    0    0    0
                         0    0    0    0    0    0    0    0    0    0
                         0    0    7    0    0    0    0    0    0    0
                       outvar_i_n : Printing only first  50 k-points.
              ixc     -101130
              kpt      0.00000000E+00  0.00000000E+00  0.00000000E+00
                       8.33333333E-02  0.00000000E+00  0.00000000E+00
                       1.66666667E-01  0.00000000E+00  0.00000000E+00
                       2.50000000E-01  0.00000000E+00  0.00000000E+00
                       3.33333333E-01  0.00000000E+00  0.00000000E+00
                       4.16666667E-01  0.00000000E+00  0.00000000E+00
                       5.00000000E-01  0.00000000E+00  0.00000000E+00
                       8.33333333E-02  8.33333333E-02  0.00000000E+00
                       1.66666667E-01  8.33333333E-02  0.00000000E+00
                       2.50000000E-01  8.33333333E-02  0.00000000E+00
                       3.33333333E-01  8.33333333E-02  0.00000000E+00
                       4.16666667E-01  8.33333333E-02  0.00000000E+00
                       5.00000000E-01  8.33333333E-02  0.00000000E+00
                      -4.16666667E-01  8.33333333E-02  0.00000000E+00
                      -3.33333333E-01  8.33333333E-02  0.00000000E+00
                      -2.50000000E-01  8.33333333E-02  0.00000000E+00
                      -1.66666667E-01  8.33333333E-02  0.00000000E+00
                      -8.33333333E-02  8.33333333E-02  0.00000000E+00
                       1.66666667E-01  1.66666667E-01  0.00000000E+00
                       2.50000000E-01  1.66666667E-01  0.00000000E+00
                       3.33333333E-01  1.66666667E-01  0.00000000E+00
                       4.16666667E-01  1.66666667E-01  0.00000000E+00
                       5.00000000E-01  1.66666667E-01  0.00000000E+00
                      -4.16666667E-01  1.66666667E-01  0.00000000E+00
                      -3.33333333E-01  1.66666667E-01  0.00000000E+00
                      -2.50000000E-01  1.66666667E-01  0.00000000E+00
                      -1.66666667E-01  1.66666667E-01  0.00000000E+00
                       2.50000000E-01  2.50000000E-01  0.00000000E+00
                       3.33333333E-01  2.50000000E-01  0.00000000E+00
                       4.16666667E-01  2.50000000E-01  0.00000000E+00
                       5.00000000E-01  2.50000000E-01  0.00000000E+00
                      -4.16666667E-01  2.50000000E-01  0.00000000E+00
                      -3.33333333E-01  2.50000000E-01  0.00000000E+00
                      -2.50000000E-01  2.50000000E-01  0.00000000E+00
                       3.33333333E-01  3.33333333E-01  0.00000000E+00
                       4.16666667E-01  3.33333333E-01  0.00000000E+00
                       5.00000000E-01  3.33333333E-01  0.00000000E+00
                      -4.16666667E-01  3.33333333E-01  0.00000000E+00
                      -3.33333333E-01  3.33333333E-01  0.00000000E+00
                       4.16666667E-01  4.16666667E-01  0.00000000E+00
                       5.00000000E-01  4.16666667E-01  0.00000000E+00
                      -4.16666667E-01  4.16666667E-01  0.00000000E+00
                       5.00000000E-01  5.00000000E-01  0.00000000E+00
                       8.33333333E-02  0.00000000E+00  8.33333333E-02
                       1.66666667E-01  0.00000000E+00  8.33333333E-02
                       2.50000000E-01  0.00000000E+00  8.33333333E-02
                       3.33333333E-01  0.00000000E+00  8.33333333E-02
                       4.16666667E-01  0.00000000E+00  8.33333333E-02
                       5.00000000E-01  0.00000000E+00  8.33333333E-02
                      -4.16666667E-01  0.00000000E+00  8.33333333E-02
                       outvar_i_n : Printing only first  50 k-points.
         kptrlatt       12    0    0      0   12    0      0    0   12
          kptrlen      1.73207816E+02
P           mkmem          28
            natom           9
            nband          42
            ngfft          54      54      54
          ngfftdg          90      90      90
             nkpt         163
            nstep        2500
             nsym           8
           ntypat           4
              occ      2.000000  2.000000  2.000000  2.000000  2.000000  2.000000
                       2.000000  2.000000  2.000000  2.000000  2.000000  2.000000
                       2.000000  2.000000  2.000000  2.000000  2.000000  2.000000
                       2.000000  2.000000  2.000000  2.000000  2.000000  2.000000
                       2.000000  2.000000  2.000000  2.000000  2.000000  2.000000
                       2.000000  2.000000  2.000000  2.000000  2.000000  2.000000
                       0.000000  0.000000  0.000000  0.000000  0.000000  0.000000
        pawecutdg      4.00000000E+01 Hartree
            prtwf           0
            rprim      0.0000000000E+00  6.9882718365E-01  7.1529054753E-01
                       7.0710678119E-01  0.0000000000E+00  7.0710678119E-01
                       7.1529054753E-01  6.9882718365E-01  0.0000000000E+00
          spgroup         107
           symrel      1  0  0   0  1  0   0  0  1       0  0  1   0  1  0   1  0  0
                       0 -1  1   0 -1  0   1 -1  0       1 -1  0   0 -1  0   0 -1  1
                       0 -1  1  -1  0  1   0  0  1       0  0  1  -1  0  1   0 -1  1
                       1  0  0   1  0 -1   1 -1  0       1 -1  0   1  0 -1   1  0  0
           toldfe      1.00000000E-08 Hartree
            typat      1  1  4  2  2  2  2  2  3
           useylm           1
              wtk        0.00058    0.00463    0.00463    0.00463    0.00463    0.00463
                         0.00231    0.00231    0.00926    0.00926    0.00926    0.00926
                         0.00926    0.00926    0.00926    0.00926    0.00926    0.00463
                         0.00231    0.00926    0.00926    0.00926    0.00926    0.00926
                         0.00926    0.00926    0.00463    0.00231    0.00926    0.00926
                         0.00926    0.00926    0.00926    0.00463    0.00231    0.00926
                         0.00926    0.00926    0.00463    0.00231    0.00926    0.00463
                         0.00116    0.00116    0.00463    0.00463    0.00463    0.00463
                         0.00463    0.00463
                       outvars : Printing only first  50 k-points.
           xangst      2.7317431341E+00  2.6643138606E+00  2.7317431341E+00
                       8.1952294023E+00  8.0020507213E+00  8.1952294023E+00
                       5.4634862682E+00  8.0270062163E+00  5.4634862682E+00
                       5.4634862682E+00  5.3424369740E+00  2.7989697199E+00
                       5.4634862683E+00  5.3424369740E+00  8.1280028165E+00
                       5.4634862683E+00  2.7189451949E+00  5.4634862683E+00
                       8.1280028165E+00  5.3424369740E+00  5.4634862683E+00
                       2.7989697199E+00  5.3424369740E+00  5.4634862682E+00
                       9.6613761924E-13 -8.0134841429E-02  9.6613761924E-13
            xcart      5.1622463889E+00  5.0348235285E+00  5.1622463889E+00
                       1.5486739167E+01  1.5121684365E+01  1.5486739167E+01
                       1.0324492778E+01  1.5168843416E+01  1.0324492778E+01
                       1.0324492778E+01  1.0095742763E+01  5.2892862249E+00
                       1.0324492778E+01  1.0095742763E+01  1.5359699331E+01
                       1.0324492778E+01  5.1380617886E+00  1.0324492778E+01
                       1.5359699331E+01  1.0095742763E+01  1.0324492778E+01
                       5.2892862249E+00  1.0095742763E+01  1.0324492778E+01
                       1.8257355070E-12 -1.5143290400E-01  1.8257355070E-12
             xred      2.4957336134E-01  2.5042663866E-01  2.4957336134E-01
                       7.4957336134E-01  7.5042663866E-01  7.4957336134E-01
                       7.5191100889E-01  2.4808899111E-01  7.5191100889E-01
                       2.5659262451E-01  2.5571208031E-01  7.4428791969E-01
                       7.4428791969E-01  7.4340737549E-01  2.5659262451E-01
                       2.5469082364E-01  7.4530917636E-01  2.5469082364E-01
                       2.5659262451E-01  7.4340737549E-01  7.4428791969E-01
                       7.4428791969E-01  2.5571208031E-01  2.5659262451E-01
                      -7.5064436033E-03  7.5064436033E-03 -7.5064436033E-03
            znucl       55.00000   53.00000   72.00000   35.00000

 chkinp: Checking input parameters for consistency.

== DATASET  1 ==================================================================
[...]
   0.00000   0.00000   0.00000   0.00000  -0.00206   0.00000   0.00000   0.04565   0.52366   0.00000   0.00000   0.00000 ...
   0.00000   0.00000   0.00000  -0.00206   0.00000   0.00000   0.04565   0.00000   0.00000   0.52366   0.00000   0.00000 ...
   0.00001  -0.00911   0.00067   0.00000   0.00000   0.03830   0.00000   0.00000   0.00000   0.00000   1.48775   0.00000 ...
   0.00000   0.00000   0.00000   0.00000   0.00000   0.00000   0.00000   0.00000   0.00000   0.00000   0.00000   0.50695 ...
   ...  only 12  components have been written...

 ----iterations are completed or convergence reached----

 Mean square residual over all n,k,spin=   23.684E-07; max=  78.456E-05
 reduced coordinates (array xred) for    9 atoms
       0.249573361340      0.250426638660      0.249573361340
       0.749573361340      0.750426638660      0.749573361340
       0.751911008890      0.248088991110      0.751911008890
       0.256592624510      0.255712080310      0.744287919690
       0.744287919690      0.743407375490      0.256592624510
       0.254690823640      0.745309176360      0.254690823640
       0.256592624510      0.743407375490      0.744287919690
       0.744287919690      0.255712080310      0.256592624510
      -0.007506443603      0.007506443603     -0.007506443603
 rms dE/dt=  1.5435E-04; max dE/dt=  3.6557E-04; dE/dt below (all hartree)
    1       0.000055196109      0.000000000000      0.000055196109
    2       0.000055196109      0.000000000000      0.000055196109
    3      -0.000078194734      0.000000000000     -0.000078194734
    4      -0.000290894925     -0.000155815815     -0.000135079110
    5       0.000020736706      0.000155815815     -0.000135079110
    6       0.000075387720      0.000000000000      0.000075387720
    7      -0.000135079110      0.000155815815      0.000020736706
    8      -0.000135079110     -0.000155815815     -0.000290894925
    9       0.000365566636      0.000000000000      0.000365566636

 cartesian coordinates (angstrom) at end:
    1      2.73174313411540     2.66431386056894     2.73174313411540
    2      8.19522940234610     8.00205072131363     8.19522940234610
    3      5.46348626819827     8.02700621630376     5.46348626819827
    4      5.46348626819925     5.34243697397854     2.79896971993399
    5      5.46348626826202     5.34243697397854     8.12800281652728
    6      5.46348626826227     2.71894519487331     5.46348626826227
    7      8.12800281652728     5.34243697397854     5.46348626826202
    8      2.79896971993399     5.34243697397854     5.46348626819925
    9      0.00000000000097    -0.08013484142887     0.00000000000097

 cartesian forces (hartree/bohr) at end:
    1     -0.00000000000000    -0.00000621192686     0.00000000000000
    2      0.00000000000000    -0.00000621192686    -0.00000000000000
    3     -0.00000000000000     0.00000701229072     0.00000000000000
    4     -0.00000000000000     0.00001265174353     0.00001509186151
    5      0.00000000000000     0.00001265174353    -0.00001509186151
    6      0.00000000000000    -0.00000821370040    -0.00000000000000
    7     -0.00001509186151     0.00001265174353     0.00000000000000
    8      0.00001509186151     0.00001265174353    -0.00000000000000
    9      0.00000000000000    -0.00003698171073    -0.00000000000000
 frms,max,avg= 1.0737238E-05 3.6981711E-05   0.000E+00  7.398E-07  0.000E+00 h/b

 cartesian forces (eV/Angstrom) at end:
    1     -0.00000000000000    -0.00031943009546     0.00000000000000
    2      0.00000000000000    -0.00031943009546    -0.00000000000000
    3     -0.00000000000000     0.00036058645628     0.00000000000000
    4     -0.00000000000001     0.00065057875540     0.00077605465610
    5      0.00000000000001     0.00065057875538    -0.00077605465610
    6      0.00000000000000    -0.00042236542084    -0.00000000000000
    7     -0.00077605465610     0.00065057875538     0.00000000000001
    8      0.00077605465610     0.00065057875540    -0.00000000000001
    9      0.00000000000000    -0.00190167586607    -0.00000000000000
 frms,max,avg= 5.5213094E-04 1.9016759E-03   0.000E+00  3.804E-05  0.000E+00 e/A
 length scales= 14.433984642000 14.601037711000 14.433984642000 bohr
              =  7.638135701684  7.726536378424  7.638135701684 angstroms
 prteigrs : about to open file Cs2TiI6o_EIG
 Fermi (or HOMO) energy (hartree) =  -0.09116   Average Vxc (hartree)=  -0.32798
 Eigenvalues (hartree) for nkpt= 163  k points:
 kpt#   1, nband= 42, wtk=  0.00058, kpt=  0.0000  0.0000  0.0000 (reduced coord)
  -2.39290   -1.23895   -1.23864   -1.23864   -0.84647   -0.84594   -0.62219   -0.54933
  -0.52435   -0.52435   -0.51646   -0.51551   -0.37360   -0.37168   -0.37168   -0.36703
  -0.36690   -0.36690   -0.27773   -0.20991   -0.20839   -0.20839   -0.20252   -0.20252
  -0.19590   -0.18141   -0.16845   -0.14571   -0.14571   -0.13523   -0.10870   -0.10870
  -0.10468   -0.09369   -0.09116   -0.09116   -0.02848   -0.02351   -0.02351    0.04085
   0.04986    0.06045
 prteigrs : prtvol=0 or 1, do not print more k-points.

--- !EnergyTerms
iteration_state     : {dtset: 1, }
comment             : Components of total free energy in Hartree
kinetic             :  3.80712124060946E+01
hartree             :  2.74991019315893E+01
xc                  : -6.07496848470679E+01
Ewald energy        : -1.29502705683465E+02
psp_core            :  2.15103018292496E+01
local_psp           : -5.32223330881234E+01
spherical_terms     : -6.87034507014414E+00
total_energy        : -1.63264452521867E+02
total_energy_eV     : -4.44265168826527E+03
...

--- !EnergyTermsDC
iteration_state     : {dtset: 1, }
comment             : '"Double-counting" decomposition of free energy'
band_energy         : -3.25870863918932E+01
Ewald energy        : -1.29502705683465E+02
psp_core            :  2.15103018292496E+01
xc_dc               : -5.05614676090167E+01
spherical_terms     :  2.78765179631000E+01
total_energy_dc     : -1.63264439892025E+02
total_energy_dc_eV  : -4.44265134458980E+03
...

 Cartesian components of stress tensor (hartree/bohr^3)
  sigma(1 1)= -1.71552752E-04  sigma(3 2)=  1.18531380E-13
  sigma(2 2)= -1.71658066E-04  sigma(3 1)= -2.31605027E-13
  sigma(3 3)= -1.71552752E-04  sigma(2 1)=  1.18531237E-13

-Cartesian components of stress tensor (GPa)         [Pressure=  5.0483E+00 GPa]
- sigma(1 1)= -5.04725536E+00  sigma(3 2)=  3.48731302E-09
- sigma(2 2)= -5.05035382E+00  sigma(3 1)= -6.81405401E-09
- sigma(3 3)= -5.04725536E+00  sigma(2 1)=  3.48730881E-09

== END DATASET(S) ==============================================================

 -outvars: echo values of variables after computation  --------
            acell      1.4433984642E+01  1.4601037711E+01  1.4433984642E+01 Bohr
              amu      1.32905430E+02  1.26904470E+02  1.78490000E+02
                       7.99040000E+01
           diemac      1.20000000E+01
             ecut      1.60000000E+01 Hartree
           etotal     -1.6326443989E+02
            fcart     -2.9116169667E-22 -6.2119268584E-06  4.0400858946E-22
                       3.6516726050E-22 -6.2119268584E-06 -2.5232036771E-22
                      -7.4667560474E-23  7.0122907153E-06  1.8751445327E-22
                      -1.7776649039E-16  1.2651743532E-05  1.5091861507E-05
                       1.7776627186E-16  1.2651743532E-05 -1.5091861507E-05
                       1.3775727985E-22 -8.2137003967E-06 -2.4910387049E-23
                      -1.5091861507E-05  1.2651743532E-05  1.7776752900E-16
                       1.5091861507E-05  1.2651743532E-05 -1.7776511022E-16
                       8.4824133551E-22 -3.6981710729E-05 -7.3539444271E-22
-          fftalg         112
           istwfk        2    0    0    0    0    0    3    0    0    0
                         0    0    0    0    0    0    0    0    0    0
                         0    0    0    0    0    0    0    0    0    0
                         0    0    0    0    0    0    0    0    0    0
                         0    0    7    0    0    0    0    0    0    0
                       outvar_i_n : Printing only first  50 k-points.
              ixc     -101130
              kpt      0.00000000E+00  0.00000000E+00  0.00000000E+00
                       8.33333333E-02  0.00000000E+00  0.00000000E+00
                       1.66666667E-01  0.00000000E+00  0.00000000E+00
                       2.50000000E-01  0.00000000E+00  0.00000000E+00
                       3.33333333E-01  0.00000000E+00  0.00000000E+00
                       4.16666667E-01  0.00000000E+00  0.00000000E+00
                       5.00000000E-01  0.00000000E+00  0.00000000E+00
                       8.33333333E-02  8.33333333E-02  0.00000000E+00
                       1.66666667E-01  8.33333333E-02  0.00000000E+00
                       2.50000000E-01  8.33333333E-02  0.00000000E+00
                       3.33333333E-01  8.33333333E-02  0.00000000E+00
                       4.16666667E-01  8.33333333E-02  0.00000000E+00
                       5.00000000E-01  8.33333333E-02  0.00000000E+00
                      -4.16666667E-01  8.33333333E-02  0.00000000E+00
                      -3.33333333E-01  8.33333333E-02  0.00000000E+00
                      -2.50000000E-01  8.33333333E-02  0.00000000E+00
                      -1.66666667E-01  8.33333333E-02  0.00000000E+00
                      -8.33333333E-02  8.33333333E-02  0.00000000E+00
                       1.66666667E-01  1.66666667E-01  0.00000000E+00
                       2.50000000E-01  1.66666667E-01  0.00000000E+00
                       3.33333333E-01  1.66666667E-01  0.00000000E+00
                       4.16666667E-01  1.66666667E-01  0.00000000E+00
                       5.00000000E-01  1.66666667E-01  0.00000000E+00
                      -4.16666667E-01  1.66666667E-01  0.00000000E+00
                      -3.33333333E-01  1.66666667E-01  0.00000000E+00
                      -2.50000000E-01  1.66666667E-01  0.00000000E+00
                      -1.66666667E-01  1.66666667E-01  0.00000000E+00
                       2.50000000E-01  2.50000000E-01  0.00000000E+00
                       3.33333333E-01  2.50000000E-01  0.00000000E+00
                       4.16666667E-01  2.50000000E-01  0.00000000E+00
                       5.00000000E-01  2.50000000E-01  0.00000000E+00
                      -4.16666667E-01  2.50000000E-01  0.00000000E+00
                      -3.33333333E-01  2.50000000E-01  0.00000000E+00
                      -2.50000000E-01  2.50000000E-01  0.00000000E+00
                       3.33333333E-01  3.33333333E-01  0.00000000E+00
                       4.16666667E-01  3.33333333E-01  0.00000000E+00
                       5.00000000E-01  3.33333333E-01  0.00000000E+00
                      -4.16666667E-01  3.33333333E-01  0.00000000E+00
                      -3.33333333E-01  3.33333333E-01  0.00000000E+00
                       4.16666667E-01  4.16666667E-01  0.00000000E+00
                       5.00000000E-01  4.16666667E-01  0.00000000E+00
                      -4.16666667E-01  4.16666667E-01  0.00000000E+00
                       5.00000000E-01  5.00000000E-01  0.00000000E+00
                       8.33333333E-02  0.00000000E+00  8.33333333E-02
                       1.66666667E-01  0.00000000E+00  8.33333333E-02
                       2.50000000E-01  0.00000000E+00  8.33333333E-02
                       3.33333333E-01  0.00000000E+00  8.33333333E-02
                       4.16666667E-01  0.00000000E+00  8.33333333E-02
                       5.00000000E-01  0.00000000E+00  8.33333333E-02
                      -4.16666667E-01  0.00000000E+00  8.33333333E-02
                       outvar_i_n : Printing only first  50 k-points.
         kptrlatt       12    0    0      0   12    0      0    0   12
          kptrlen      1.73207816E+02
P           mkmem          28
            natom           9
            nband          42
            ngfft          54      54      54
          ngfftdg          90      90      90
             nkpt         163
            nstep        2500
             nsym           8
           ntypat           4
              occ      2.000000  2.000000  2.000000  2.000000  2.000000  2.000000
                       2.000000  2.000000  2.000000  2.000000  2.000000  2.000000
                       2.000000  2.000000  2.000000  2.000000  2.000000  2.000000
                       2.000000  2.000000  2.000000  2.000000  2.000000  2.000000
                       2.000000  2.000000  2.000000  2.000000  2.000000  2.000000
                       2.000000  2.000000  2.000000  2.000000  2.000000  2.000000
                       0.000000  0.000000  0.000000  0.000000  0.000000  0.000000
        pawecutdg      4.00000000E+01 Hartree
            prtwf           0
            rprim      0.0000000000E+00  6.9882718365E-01  7.1529054753E-01
                       7.0710678119E-01  0.0000000000E+00  7.0710678119E-01
                       7.1529054753E-01  6.9882718365E-01  0.0000000000E+00
          spgroup         107
           strten     -1.7155275160E-04 -1.7165806626E-04 -1.7155275160E-04
                       1.1853138040E-13 -2.3160502722E-13  1.1853123721E-13
           symrel      1  0  0   0  1  0   0  0  1       0  0  1   0  1  0   1  0  0
                       0 -1  1   0 -1  0   1 -1  0       1 -1  0   0 -1  0   0 -1  1
                       0 -1  1  -1  0  1   0  0  1       0  0  1  -1  0  1   0 -1  1
                       1  0  0   1  0 -1   1 -1  0       1 -1  0   1  0 -1   1  0  0
           toldfe      1.00000000E-08 Hartree
            typat      1  1  4  2  2  2  2  2  3
           useylm           1
              wtk        0.00058    0.00463    0.00463    0.00463    0.00463    0.00463
                         0.00231    0.00231    0.00926    0.00926    0.00926    0.00926
                         0.00926    0.00926    0.00926    0.00926    0.00926    0.00463
                         0.00231    0.00926    0.00926    0.00926    0.00926    0.00926
                         0.00926    0.00926    0.00463    0.00231    0.00926    0.00926
                         0.00926    0.00926    0.00926    0.00463    0.00231    0.00926
                         0.00926    0.00926    0.00463    0.00231    0.00926    0.00463
                         0.00116    0.00116    0.00463    0.00463    0.00463    0.00463
                         0.00463    0.00463
                       outvars : Printing only first  50 k-points.
           xangst      2.7317431341E+00  2.6643138606E+00  2.7317431341E+00
                       8.1952294023E+00  8.0020507213E+00  8.1952294023E+00
                       5.4634862682E+00  8.0270062163E+00  5.4634862682E+00
                       5.4634862682E+00  5.3424369740E+00  2.7989697199E+00
                       5.4634862683E+00  5.3424369740E+00  8.1280028165E+00
                       5.4634862683E+00  2.7189451949E+00  5.4634862683E+00
                       8.1280028165E+00  5.3424369740E+00  5.4634862683E+00
                       2.7989697199E+00  5.3424369740E+00  5.4634862682E+00
                       9.6613761924E-13 -8.0134841429E-02  9.6613761924E-13
            xcart      5.1622463889E+00  5.0348235285E+00  5.1622463889E+00
                       1.5486739167E+01  1.5121684365E+01  1.5486739167E+01
                       1.0324492778E+01  1.5168843416E+01  1.0324492778E+01
                       1.0324492778E+01  1.0095742763E+01  5.2892862249E+00
                       1.0324492778E+01  1.0095742763E+01  1.5359699331E+01
                       1.0324492778E+01  5.1380617886E+00  1.0324492778E+01
                       1.5359699331E+01  1.0095742763E+01  1.0324492778E+01
                       5.2892862249E+00  1.0095742763E+01  1.0324492778E+01
                       1.8257355070E-12 -1.5143290400E-01  1.8257355070E-12
             xred      2.4957336134E-01  2.5042663866E-01  2.4957336134E-01
                       7.4957336134E-01  7.5042663866E-01  7.4957336134E-01
                       7.5191100889E-01  2.4808899111E-01  7.5191100889E-01
                       2.5659262451E-01  2.5571208031E-01  7.4428791969E-01
                       7.4428791969E-01  7.4340737549E-01  2.5659262451E-01
                       2.5469082364E-01  7.4530917636E-01  2.5469082364E-01
                       2.5659262451E-01  7.4340737549E-01  7.4428791969E-01
                       7.4428791969E-01  2.5571208031E-01  2.5659262451E-01
                      -7.5064436033E-03  7.5064436033E-03 -7.5064436033E-03
            znucl       55.00000   53.00000   72.00000   35.00000

- Timing analysis has been suppressed with timopt=0

 Suggested references for the acknowledgment of ABINIT usage.

 Calculation completed.
.Delivered   0 WARNINGs and   0 COMMENTs to log file.