.Version 9.2.2 of ABINIT

 ABINIT is a project of the Universite Catholique de Louvain,
 Corning Inc. and other collaborators, see ~abinit/doc/developers/contributors.txt .
 acknowledgments of the ABINIT effort.

.Starting date : Sun 26 Feb 2023.
- ( at 00h58 )

- The starting date is more than 2 years after the initial release
- of this version of ABINIT, namely Nov 2020.
- Note that the use beyond 3 years after the release will not be supported.
- Action: please, switch to a more recent version of ABINIT.

- input  file    -> Cs2TiI6.in
- output file    -> Cs2TiI6.out
- root for input  files -> Cs2TiI6i
- root for output files -> Cs2TiI6o

- inpspheads : Reading pseudopotential header in XML form from
-   ../../../Psps_for_tests/ATOMICDATA/Cs.GGA_PBE-JTH.xml
- inpspheads : Reading pseudopotential header in XML form from
-   ../../../Psps_for_tests/ATOMICDATA/I.GGA_PBE-JTH.xml
- inpspheads : Reading pseudopotential header in XML form from
-   ../../../Psps_for_tests/ATOMICDATA/Zr.GGA_PBE-JTH.xml
- inpspheads : Reading pseudopotential header in XML form from
-   ../../../Psps_for_tests/ATOMICDATA/Br.GGA_PBE-JTH.xml

 DATASET    1 : space group I4 m m (#107); Bravais tI (body-center tetrag.)
     intxc =       0    ionmov =       0      iscf =      17    lmnmax =      18
     lnmax =       6     mgfft =      54  mpssoang =       3    mqgrid =    3263
     natom =       9  nloc_mem =       2    nspden =       1   nspinor =       1
    nsppol =       1      nsym =       8    n1xccc =       1    ntypat =       4
    occopt =       1   xclevel =       2
-    mband =          42        mffmem =           1         mkmem =          11
       mpw =        5996          nfft =      157464          nkpt =          63
Pmy_natom=         2
 PAW method is used; the additional fine FFT grid is defined by:
   mgfftf=        80    nfftf =    512000
  Rough estimation (10% accuracy) of disk space for files :

[...]

 DATASET    3 : space group I4 m m (#107); Bravais tI (body-center tetrag.)
     intxc =       0    ionmov =       0      iscf =      -2    lmnmax =      18
     lnmax =       6     mgfft =      54  mpssoang =       3    mqgrid =    3263
     natom =       9  nloc_mem =       2    nspden =       1   nspinor =       1
    nsppol =       1      nsym =       8    n1xccc =       1    ntypat =       4
    occopt =       1   xclevel =       2
-    mband =         100        mffmem =           1         mkmem =          72
       mpw =        5996          nfft =      157464          nkpt =         432
Pmy_natom=         2
 PAW method is used; the additional fine FFT grid is defined by:
   mgfftf=        80    nfftf =    512000
  Rough estimation (10% accuracy) of disk space for files :

 DATASET    4 : space group I4 m m (#107); Bravais tI (body-center tetrag.)
     intxc =       0      iscf =      -3    lmnmax =      18     lnmax =       6
     mgfft =      54  mpssoang =       3    mqgrid =    3001     natom =       9
  nloc_mem =       2    nspden =       1   nspinor =       1    nsppol =       1
      nsym =       8    n1xccc =       1    ntypat =       4    occopt =       1
   xclevel =       2
-    mband =         100        mffmem =           1         mkmem =          72
-   mkqmem =          72        mk1mem =          72           mpw =        5996
      nfft =      157464          nkpt =         432
Pmy_natom=         2
  Rough estimation (10% accuracy) of disk space for files :

[...]

 DATASET    6 : space group I4 m m (#107); Bravais tI (body-center tetrag.)
     intxc =       0      iscf =      -3    lmnmax =      18     lnmax =       6
     mgfft =      54  mpssoang =       3    mqgrid =    3001     natom =       9
  nloc_mem =       2    nspden =       1   nspinor =       1    nsppol =       1
      nsym =       8    n1xccc =       1    ntypat =       4    occopt =       1
   xclevel =       2
-    mband =         100        mffmem =           1         mkmem =          72
-   mkqmem =          72        mk1mem =          72           mpw =        5996
      nfft =      157464          nkpt =         432
Pmy_natom=         2
  Rough estimation (10% accuracy) of disk space for files :

------------- Echo of variables that govern the present computation ------------
-
- outvars: echo of selected default values
-   iomode0 =  0 , fftalg0 =112 , wfoptalg0 = 10
-
- outvars: echo of global parameters not present in the input file
-  max_nthreads =    0
-
 -outvars: echo values of preprocessed input variables --------
            acell      1.4037830533E+01  1.4037830533E+01  1.4031614709E+01 Bohr
              amu      1.32905430E+02  1.26904470E+02  9.12240000E+01
                       7.99040000E+01
           diemac      1.20000000E+01
             ecut      1.60000000E+01 Hartree
-          fftalg         112
           getden1          0
           getden2          1
           getden3          1
           getden4          0
           getden5          0
           getden6          0
           getwfk1          0
           getwfk2          1
           getwfk3          2
           getwfk4          3
           getwfk5          3
           getwfk6          3
             iscf1         17
             iscf2         -2
             iscf3         -2
             iscf4         -3
             iscf5         -3
             iscf6         -3
              ixc     -101130
           jdtset        1    2    3    4    5    6
              kpt1     0.00000000E+00 -8.33333333E-02  0.00000000E+00
                       0.00000000E+00 -2.50000000E-01  0.00000000E+00
                       8.33333333E-02 -1.66666667E-01  0.00000000E+00
                       0.00000000E+00 -1.66666667E-01  8.33333333E-02
                       8.33333333E-02 -8.33333333E-02  8.33333333E-02
                       0.00000000E+00 -4.16666667E-01  0.00000000E+00
                       8.33333333E-02 -3.33333333E-01  0.00000000E+00
                       1.66666667E-01 -2.50000000E-01  0.00000000E+00
                       0.00000000E+00 -3.33333333E-01  8.33333333E-02
                       8.33333333E-02 -2.50000000E-01  8.33333333E-02
                       1.66666667E-01 -1.66666667E-01  8.33333333E-02
                       0.00000000E+00 -2.50000000E-01  1.66666667E-01
                       8.33333333E-02 -1.66666667E-01  1.66666667E-01
                       1.66666667E-01 -8.33333333E-02  1.66666667E-01
                       8.33333333E-02  5.00000000E-01  0.00000000E+00
                       1.66666667E-01 -4.16666667E-01  0.00000000E+00
                       2.50000000E-01 -3.33333333E-01  0.00000000E+00
                       0.00000000E+00  5.00000000E-01  8.33333333E-02
                       1.66666667E-01 -3.33333333E-01  8.33333333E-02
                       2.50000000E-01 -2.50000000E-01  8.33333333E-02
                       0.00000000E+00 -4.16666667E-01  1.66666667E-01
                       8.33333333E-02 -3.33333333E-01  1.66666667E-01
                       1.66666667E-01 -2.50000000E-01  1.66666667E-01
                       2.50000000E-01 -1.66666667E-01  1.66666667E-01
                       0.00000000E+00 -3.33333333E-01  2.50000000E-01
                       8.33333333E-02 -2.50000000E-01  2.50000000E-01
                       1.66666667E-01 -1.66666667E-01  2.50000000E-01
                       2.50000000E-01 -8.33333333E-02  2.50000000E-01
                       8.33333333E-02  3.33333333E-01  0.00000000E+00
                       1.66666667E-01  4.16666667E-01  0.00000000E+00
                       2.50000000E-01  5.00000000E-01  0.00000000E+00
                       3.33333333E-01 -4.16666667E-01  0.00000000E+00
                       1.66666667E-01  5.00000000E-01  8.33333333E-02
                       2.50000000E-01 -4.16666667E-01  8.33333333E-02
                       3.33333333E-01 -3.33333333E-01  8.33333333E-02
                       2.50000000E-01 -3.33333333E-01  1.66666667E-01
                       3.33333333E-01 -2.50000000E-01  1.66666667E-01
                       0.00000000E+00  5.00000000E-01  2.50000000E-01
                       8.33333333E-02 -4.16666667E-01  2.50000000E-01
                       3.33333333E-01 -1.66666667E-01  2.50000000E-01
                       0.00000000E+00 -4.16666667E-01  3.33333333E-01
                       8.33333333E-02 -3.33333333E-01  3.33333333E-01
                       1.66666667E-01 -2.50000000E-01  3.33333333E-01
                       2.50000000E-01 -1.66666667E-01  3.33333333E-01
                       3.33333333E-01 -8.33333333E-02  3.33333333E-01
                       8.33333333E-02  1.66666667E-01  0.00000000E+00
                       1.66666667E-01  2.50000000E-01  0.00000000E+00
                       2.50000000E-01  3.33333333E-01  0.00000000E+00
                       3.33333333E-01  4.16666667E-01  0.00000000E+00
                       4.16666667E-01  5.00000000E-01  0.00000000E+00
              kpt2     0.00000000E+00 -8.33333333E-02  0.00000000E+00
                       0.00000000E+00 -2.50000000E-01  0.00000000E+00
                       8.33333333E-02 -1.66666667E-01  0.00000000E+00
                       0.00000000E+00 -1.66666667E-01  8.33333333E-02
                       8.33333333E-02 -8.33333333E-02  8.33333333E-02
                       0.00000000E+00 -4.16666667E-01  0.00000000E+00
                       8.33333333E-02 -3.33333333E-01  0.00000000E+00
                       1.66666667E-01 -2.50000000E-01  0.00000000E+00
                       0.00000000E+00 -3.33333333E-01  8.33333333E-02
                       8.33333333E-02 -2.50000000E-01  8.33333333E-02
                       1.66666667E-01 -1.66666667E-01  8.33333333E-02
                       0.00000000E+00 -2.50000000E-01  1.66666667E-01
                       8.33333333E-02 -1.66666667E-01  1.66666667E-01
                       1.66666667E-01 -8.33333333E-02  1.66666667E-01
                       8.33333333E-02  5.00000000E-01  0.00000000E+00
                       1.66666667E-01 -4.16666667E-01  0.00000000E+00
                       2.50000000E-01 -3.33333333E-01  0.00000000E+00
                       0.00000000E+00  5.00000000E-01  8.33333333E-02
                       1.66666667E-01 -3.33333333E-01  8.33333333E-02
                       2.50000000E-01 -2.50000000E-01  8.33333333E-02
                       0.00000000E+00 -4.16666667E-01  1.66666667E-01
                       8.33333333E-02 -3.33333333E-01  1.66666667E-01
                       1.66666667E-01 -2.50000000E-01  1.66666667E-01
                       2.50000000E-01 -1.66666667E-01  1.66666667E-01
                       0.00000000E+00 -3.33333333E-01  2.50000000E-01
                       8.33333333E-02 -2.50000000E-01  2.50000000E-01
                       1.66666667E-01 -1.66666667E-01  2.50000000E-01
                       2.50000000E-01 -8.33333333E-02  2.50000000E-01
                       8.33333333E-02  3.33333333E-01  0.00000000E+00
                       1.66666667E-01  4.16666667E-01  0.00000000E+00
                       2.50000000E-01  5.00000000E-01  0.00000000E+00
                       3.33333333E-01 -4.16666667E-01  0.00000000E+00
[...]
                       4.16666667E-01 -8.33333333E-02  8.33333333E-02
                       0.00000000E+00 -4.16666667E-01  1.66666667E-01
                       8.33333333E-02 -3.33333333E-01  1.66666667E-01
                       1.66666667E-01 -2.50000000E-01  1.66666667E-01
                       2.50000000E-01 -1.66666667E-01  1.66666667E-01
                       3.33333333E-01 -8.33333333E-02  1.66666667E-01
                       0.00000000E+00 -3.33333333E-01  2.50000000E-01
                       8.33333333E-02 -2.50000000E-01  2.50000000E-01
                       1.66666667E-01 -1.66666667E-01  2.50000000E-01
                       2.50000000E-01 -8.33333333E-02  2.50000000E-01
                       0.00000000E+00 -2.50000000E-01  3.33333333E-01
                       8.33333333E-02 -1.66666667E-01  3.33333333E-01
                       1.66666667E-01 -8.33333333E-02  3.33333333E-01
                       0.00000000E+00 -1.66666667E-01  4.16666667E-01
                       8.33333333E-02 -8.33333333E-02  4.16666667E-01
                       0.00000000E+00 -8.33333333E-02  5.00000000E-01
                       8.33333333E-02  3.33333333E-01  0.00000000E+00
                       outvar_i_n : Printing only first  50 k-points.
           kptopt1          1
           kptopt2          1
           kptopt3          2
           kptopt4          2
           kptopt5          2
           kptopt6          2
         kptrlatt        6    6   -6     -6    6    6      6   -6    6
          kptrlen      1.19062199E+02
P           mkmem1         11
P           mkmem2         11
P           mkmem3         72
P           mkmem4         72
P           mkmem5         72
P           mkmem6         72
P          mkqmem1         11
P          mkqmem2         11
P          mkqmem3         72
P          mkqmem4         72
P          mkqmem5         72
P          mkqmem6         72
P          mk1mem1         11
P          mk1mem2         11
P          mk1mem3         72
P          mk1mem4         72
P          mk1mem5         72
P          mk1mem6         72
            natom           9
            nband1         42
            nband2        100
            nband3        100
            nband4        100
            nband5        100
            nband6        100
           nbdbuf1          0
           nbdbuf2          2
           nbdbuf3          2
           nbdbuf4          2
           nbdbuf5          2
           nbdbuf6          2
           ndtset           6
            ngfft          54      54      54
          ngfftdg          80      80      80
             nkpt1         63
             nkpt2         63
             nkpt3        432
             nkpt4        432
             nkpt5        432
             nkpt6        432
            nline1          4
            nline2          4
            nline3          4
            nline4          0
            nline5          0
            nline6          0
             nqpt1          0
             nqpt2          0
             nqpt3          0
             nqpt4          1
             nqpt5          1
             nqpt6          1
            nstep1        200
            nstep2        200
            nstep3        100
            nstep4          1
            nstep5          1
            nstep6          1
             nsym           8
           ntypat           4
              occ1     2.000000  2.000000  2.000000  2.000000  2.000000  2.000000
                       2.000000  2.000000  2.000000  2.000000  2.000000  2.000000
                       2.000000  2.000000  2.000000  2.000000  2.000000  2.000000
                       2.000000  2.000000  2.000000  2.000000  2.000000  2.000000
                       2.000000  2.000000  2.000000  2.000000  2.000000  2.000000
                       2.000000  2.000000  2.000000  2.000000  2.000000  2.000000
                       0.000000  0.000000  0.000000  0.000000  0.000000  0.000000
              occ4     2.000000  2.000000  2.000000  2.000000  2.000000  2.000000
                       2.000000  2.000000  2.000000  2.000000  2.000000  2.000000
                       2.000000  2.000000  2.000000  2.000000  2.000000  2.000000
                       2.000000  2.000000  2.000000  2.000000  2.000000  2.000000
                       2.000000  2.000000  2.000000  2.000000  2.000000  2.000000
                       2.000000  2.000000  2.000000  2.000000  2.000000  2.000000
                       0.000000  0.000000  0.000000  0.000000  0.000000  0.000000
                       0.000000  0.000000  0.000000  0.000000  0.000000  0.000000
                       0.000000  0.000000  0.000000  0.000000  0.000000  0.000000
                       0.000000  0.000000  0.000000  0.000000  0.000000  0.000000
                       0.000000  0.000000  0.000000  0.000000  0.000000  0.000000
                       0.000000  0.000000  0.000000  0.000000  0.000000  0.000000
                       0.000000  0.000000  0.000000  0.000000  0.000000  0.000000
                       0.000000  0.000000  0.000000  0.000000  0.000000  0.000000
                       0.000000  0.000000  0.000000  0.000000  0.000000  0.000000
                       0.000000  0.000000  0.000000  0.000000  0.000000  0.000000
                       0.000000  0.000000  0.000000  0.000000
              occ5     2.000000  2.000000  2.000000  2.000000  2.000000  2.000000
                       2.000000  2.000000  2.000000  2.000000  2.000000  2.000000
                       2.000000  2.000000  2.000000  2.000000  2.000000  2.000000
                       2.000000  2.000000  2.000000  2.000000  2.000000  2.000000
                       2.000000  2.000000  2.000000  2.000000  2.000000  2.000000
                       2.000000  2.000000  2.000000  2.000000  2.000000  2.000000
                       0.000000  0.000000  0.000000  0.000000  0.000000  0.000000
                       0.000000  0.000000  0.000000  0.000000  0.000000  0.000000
                       0.000000  0.000000  0.000000  0.000000  0.000000  0.000000
                       0.000000  0.000000  0.000000  0.000000  0.000000  0.000000
                       0.000000  0.000000  0.000000  0.000000  0.000000  0.000000
                       0.000000  0.000000  0.000000  0.000000  0.000000  0.000000
                       0.000000  0.000000  0.000000  0.000000  0.000000  0.000000
                       0.000000  0.000000  0.000000  0.000000  0.000000  0.000000
                       0.000000  0.000000  0.000000  0.000000  0.000000  0.000000
                       0.000000  0.000000  0.000000  0.000000  0.000000  0.000000
                       0.000000  0.000000  0.000000  0.000000
              occ6     2.000000  2.000000  2.000000  2.000000  2.000000  2.000000
                       2.000000  2.000000  2.000000  2.000000  2.000000  2.000000
                       2.000000  2.000000  2.000000  2.000000  2.000000  2.000000
                       2.000000  2.000000  2.000000  2.000000  2.000000  2.000000
                       2.000000  2.000000  2.000000  2.000000  2.000000  2.000000
                       2.000000  2.000000  2.000000  2.000000  2.000000  2.000000
                       0.000000  0.000000  0.000000  0.000000  0.000000  0.000000
                       0.000000  0.000000  0.000000  0.000000  0.000000  0.000000
                       0.000000  0.000000  0.000000  0.000000  0.000000  0.000000
                       0.000000  0.000000  0.000000  0.000000  0.000000  0.000000
                       0.000000  0.000000  0.000000  0.000000  0.000000  0.000000
                       0.000000  0.000000  0.000000  0.000000  0.000000  0.000000
                       0.000000  0.000000  0.000000  0.000000  0.000000  0.000000
                       0.000000  0.000000  0.000000  0.000000  0.000000  0.000000
                       0.000000  0.000000  0.000000  0.000000  0.000000  0.000000
                       0.000000  0.000000  0.000000  0.000000  0.000000  0.000000
                       0.000000  0.000000  0.000000  0.000000
        optdriver1          0
        optdriver2          0
        optdriver3          0
        optdriver4          1
        optdriver5          1
        optdriver6          1
        pawecutdg      4.00000000E+01 Hartree
            prtwf1          1
            prtwf2          1
            prtwf3          1
            prtwf4          3
            prtwf5          3
            prtwf6          3
            rfdir1          0       0       0
            rfdir2          0       0       0
            rfdir3          0       0       0
            rfdir4          1       0       0
            rfdir5          0       1       0
            rfdir6          0       0       1
           rfelfd1          0
           rfelfd2          0
           rfelfd3          0
           rfelfd4          2
           rfelfd5          2
           rfelfd6          2
            rprim      0.0000000000E+00  7.0679368072E-01  7.0741974308E-01
                       7.0679368072E-01  0.0000000000E+00  7.0741974308E-01
                       7.0710678119E-01  7.0710678119E-01  0.0000000000E+00
           shiftk     -5.00000000E-01  5.00000000E-01  5.00000000E-01
          spgroup         107
           strten1    -1.3986024902E-04 -1.3986024902E-04 -1.3987005369E-04
                       1.2011363028E-14  1.2011051259E-14 -2.4043892055E-14
           symrel      1  0  0   0  1  0   0  0  1       1  0 -1   0  1 -1   0  0 -1
                       0  1 -1   1  0 -1   0  0 -1       0  1  0   1  0  0   0  0  1
                       0  1 -1   0  1  0  -1  1  0       1  0 -1   1  0  0   1 -1  0
                       1  0  0   1  0 -1   1 -1  0       0  1  0   0  1 -1  -1  1  0
           tolwfr      1.00000000E-18
            typat      1  1  4  2  4  4  4  4  3
           useylm           1
              wtk1       0.00926    0.00926    0.00926    0.01852    0.01852    0.00926
                         0.00926    0.00926    0.01852    0.01852    0.01852    0.01852
                         0.01852    0.01852    0.00926    0.00926    0.00926    0.01852
                         0.01852    0.01852    0.01852    0.01852    0.01852    0.01852
                         0.01852    0.01852    0.01852    0.01852    0.00926    0.00926
                         0.00926    0.00926    0.01852    0.01852    0.01852    0.01852
                         0.01852    0.01852    0.01852    0.01852    0.01852    0.01852
                         0.01852    0.01852    0.01852    0.00926    0.00926    0.00926
                         0.00926    0.00926
              wtk2       0.00926    0.00926    0.00926    0.01852    0.01852    0.00926
                         0.00926    0.00926    0.01852    0.01852    0.01852    0.01852
                         0.01852    0.01852    0.00926    0.00926    0.00926    0.01852
                         0.01852    0.01852    0.01852    0.01852    0.01852    0.01852
                         0.01852    0.01852    0.01852    0.01852    0.00926    0.00926
                         0.00926    0.00926    0.01852    0.01852    0.01852    0.01852
                         0.01852    0.01852    0.01852    0.01852    0.01852    0.01852
                         0.01852    0.01852    0.01852    0.00926    0.00926    0.00926
                         0.00926    0.00926
              wtk3       0.00231    0.00231    0.00231    0.00231    0.00231    0.00231
                         0.00231    0.00231    0.00231    0.00231    0.00231    0.00231
                         0.00231    0.00231    0.00231    0.00231    0.00231    0.00231
                         0.00231    0.00231    0.00231    0.00231    0.00231    0.00231
                         0.00231    0.00231    0.00231    0.00231    0.00231    0.00231
                         0.00231    0.00231    0.00231    0.00231    0.00231    0.00231
                         0.00231    0.00231    0.00231    0.00231    0.00231    0.00231
                         0.00231    0.00231    0.00231    0.00231    0.00231    0.00231
                         0.00231    0.00231
              wtk4       0.00231    0.00231    0.00231    0.00231    0.00231    0.00231
                         0.00231    0.00231    0.00231    0.00231    0.00231    0.00231
                         0.00231    0.00231    0.00231    0.00231    0.00231    0.00231
                         0.00231    0.00231    0.00231    0.00231    0.00231    0.00231
                         0.00231    0.00231    0.00231    0.00231    0.00231    0.00231
                         0.00231    0.00231    0.00231    0.00231    0.00231    0.00231
                         0.00231    0.00231    0.00231    0.00231    0.00231    0.00231
                         0.00231    0.00231    0.00231    0.00231    0.00231    0.00231
                         0.00231    0.00231
              wtk5       0.00231    0.00231    0.00231    0.00231    0.00231    0.00231
                         0.00231    0.00231    0.00231    0.00231    0.00231    0.00231
                         0.00231    0.00231    0.00231    0.00231    0.00231    0.00231
                         0.00231    0.00231    0.00231    0.00231    0.00231    0.00231
                         0.00231    0.00231    0.00231    0.00231    0.00231    0.00231
                         0.00231    0.00231    0.00231    0.00231    0.00231    0.00231
                         0.00231    0.00231    0.00231    0.00231    0.00231    0.00231
                         0.00231    0.00231    0.00231    0.00231    0.00231    0.00231
                         0.00231    0.00231
              wtk6       0.00231    0.00231    0.00231    0.00231    0.00231    0.00231
                         0.00231    0.00231    0.00231    0.00231    0.00231    0.00231
                         0.00231    0.00231    0.00231    0.00231    0.00231    0.00231
                         0.00231    0.00231    0.00231    0.00231    0.00231    0.00231
                         0.00231    0.00231    0.00231    0.00231    0.00231    0.00231
                         0.00231    0.00231    0.00231    0.00231    0.00231    0.00231
                         0.00231    0.00231    0.00231    0.00231    0.00231    0.00231
                         0.00231    0.00231    0.00231    0.00231    0.00231    0.00231
                         0.00231    0.00231
                       outvars : Printing only first  50 k-points.
           xangst      2.6252084202E+00  2.6252084202E+00  2.6477077494E+00
                       7.8756252605E+00  7.8756252605E+00  7.9027752939E+00
                       5.2504168404E+00  5.2504168404E+00  2.6744806294E+00
                       5.2504168404E+00  5.2504168404E+00  7.7421315979E+00
                       7.8923739076E+00  5.2504168404E+00  5.2515754707E+00
                       5.2504168404E+00  7.8923739076E+00  5.2515754707E+00
                       5.2504168403E+00  2.6084597731E+00  5.2515754707E+00
                       2.6084597731E+00  5.2504168403E+00  5.2515754707E+00
                      -1.2366371612E-13 -1.2366371612E-13  6.7143203470E-02
            xcart      4.9609249559E+00  4.9609249559E+00  5.0034425262E+00
                       1.4882774868E+01  1.4882774868E+01  1.4934080995E+01
                       9.9218499118E+00  9.9218499118E+00  5.0540359373E+00
                       9.9218499118E+00  9.9218499118E+00  1.4630508405E+01
                       1.4914425224E+01  9.9218499118E+00  9.9240394058E+00
                       9.9218499118E+00  1.4914425224E+01  9.9240394058E+00
                       9.9218499118E+00  4.9292745998E+00  9.9240394058E+00
                       4.9292745998E+00  9.9218499118E+00  9.9240394058E+00
                      -2.3369055603E-13 -2.3369055603E-13  1.2688226624E-01
             xred      2.5191947838E-01  2.5191947838E-01  2.4808052162E-01
                       7.5191947838E-01  7.5191947838E-01  7.4808052162E-01
                       2.5446681767E-01  2.5446681767E-01  7.4553318233E-01
                       7.3663483221E-01  7.3663483221E-01  2.6336516779E-01
                       2.4807275964E-01  7.5126272485E-01  7.5192724036E-01
                       7.5126272485E-01  2.4807275964E-01  7.5192724036E-01
                       2.4807275964E-01  7.5126272485E-01  2.4873727515E-01
                       7.5126272485E-01  2.4807275964E-01  2.4873727515E-01
                       6.3884244018E-03  6.3884244018E-03 -6.3884244018E-03
            znucl       55.00000   53.00000   40.00000   35.00000

- Timing analysis has been suppressed with timopt=0

 Suggested references for the acknowledgment of ABINIT usage.

 Calculation completed.
.Delivered   1 WARNINGs and   0 COMMENTs to log file.