.Version 9.2.2 of ABINIT

 ABINIT is a project of the Universite Catholique de Louvain,
 Corning Inc. and other collaborators, see ~abinit/doc/developers/contributors.txt .
 acknowledgments of the ABINIT effort.

.Starting date : Tue 22 Nov 2022.
- ( at 23h06 )

- input  file    -> Cs2TiI6.in
- output file    -> Cs2TiI6.out
- root for input  files -> Cs2TiI6i
- root for output files -> Cs2TiI6o

- inpspheads : Reading pseudopotential header in XML form from
-   ../../../Psps_for_tests/ATOMICDATA/Cs.GGA_PBE-JTH.xml
- inpspheads : Reading pseudopotential header in XML form from
-   ../../../Psps_for_tests/ATOMICDATA/I.GGA_PBE-JTH.xml
- inpspheads : Reading pseudopotential header in XML form from
-   ../../../Psps_for_tests/ATOMICDATA/Hf.GGA_PBE-JTH.xml
- inpspheads : Reading pseudopotential header in XML form from
-   ../../../Psps_for_tests/ATOMICDATA/Cl.GGA_PBE-JTH.xml

 DATASET    1 : space group I4 m m (#107); Bravais tI (body-center tetrag.)
     intxc =       0    ionmov =       0      iscf =      17    lmnmax =      18
     lnmax =       6     mgfft =      64  mpssoang =       3    mqgrid =    3989
     natom =       9  nloc_mem =       2    nspden =       1   nspinor =       1
    nsppol =       1      nsym =       8    n1xccc =       1    ntypat =       4
    occopt =       1   xclevel =       2
-    mband =          42        mffmem =           1         mkmem =          28
       mpw =       10959          nfft =      262144          nkpt =         163
Pmy_natom=         2
 PAW method is used; the additional fine FFT grid is defined by:
   mgfftf=       100    nfftf =   1000000
  Rough estimation (10% accuracy) of disk space for files :

[...]

 DATASET   10 : space group I4 m m (#107); Bravais tI (body-center tetrag.)
     intxc =       0    ionmov =       0      iscf =      17    lmnmax =      18
     lnmax =       6     mgfft =      64  mpssoang =       3    mqgrid =    3953
     natom =       9  nloc_mem =       2    nspden =       1   nspinor =       1
    nsppol =       1      nsym =       8    n1xccc =       1    ntypat =       4
    occopt =       1   xclevel =       2
-    mband =          42        mffmem =           1         mkmem =          28
       mpw =       10668          nfft =      262144          nkpt =         163
Pmy_natom=         2
 PAW method is used; the additional fine FFT grid is defined by:
   mgfftf=       100    nfftf =   1000000
  Rough estimation (10% accuracy) of disk space for files :

------------- Echo of variables that govern the present computation ------------
-
- outvars: echo of selected default values
-   iomode0 =  0 , fftalg0 =112 , wfoptalg0 = 10
-
- outvars: echo of global parameters not present in the input file
-  max_nthreads =    0
-
 -outvars: echo values of preprocessed input variables --------
            acell1     1.4854096076E+01  1.5064252337E+01  1.4854096076E+01 Bohr
            acell2     1.4839128794E+01  1.5049391079E+01  1.4839128794E+01 Bohr
            acell3     1.4824117981E+01  1.5034626441E+01  1.4824117981E+01 Bohr
            acell4     1.4808957113E+01  1.5020194939E+01  1.4808957113E+01 Bohr
            acell5     1.4793450287E+01  1.5006532335E+01  1.4793450287E+01 Bohr
            acell6     1.4777747762E+01  1.4993306676E+01  1.4777747762E+01 Bohr
            acell7     1.4762460915E+01  1.4979157619E+01  1.4762460915E+01 Bohr
            acell8     1.4747209083E+01  1.4964931196E+01  1.4747209083E+01 Bohr
            acell9     1.4731976284E+01  1.4950662892E+01  1.4731976284E+01 Bohr
            acell10    1.4716738496E+01  1.4936406227E+01  1.4716738496E+01 Bohr
              amu      1.32905430E+02  1.26904470E+02  1.78490000E+02
                       3.54527000E+01
           diemac      1.20000000E+01
          dilatmx      1.15000000E+00
             ecut      1.60000000E+01 Hartree
           ecutsm      5.00000000E-01 Hartree
-          fftalg         112
           istwfk        2    0    0    0    0    0    3    0    0    0
                         0    0    0    0    0    0    0    0    0    0
                         0    0    0    0    0    0    0    0    0    0
                         0    0    0    0    0    0    0    0    0    0
                         0    0    7    0    0    0    0    0    0    0
                       outvar_i_n : Printing only first  50 k-points.
              ixc     -101130
           jdtset        1    2    3    4    5    6    7    8    9   10
              kpt      0.00000000E+00  0.00000000E+00  0.00000000E+00
                       8.33333333E-02  0.00000000E+00  0.00000000E+00
                       1.66666667E-01  0.00000000E+00  0.00000000E+00
                       2.50000000E-01  0.00000000E+00  0.00000000E+00
                       3.33333333E-01  0.00000000E+00  0.00000000E+00
                       4.16666667E-01  0.00000000E+00  0.00000000E+00
                       5.00000000E-01  0.00000000E+00  0.00000000E+00
                       8.33333333E-02  8.33333333E-02  0.00000000E+00
                       1.66666667E-01  8.33333333E-02  0.00000000E+00
                       2.50000000E-01  8.33333333E-02  0.00000000E+00
                       3.33333333E-01  8.33333333E-02  0.00000000E+00
                       4.16666667E-01  8.33333333E-02  0.00000000E+00
                       5.00000000E-01  8.33333333E-02  0.00000000E+00
                      -4.16666667E-01  8.33333333E-02  0.00000000E+00
                      -3.33333333E-01  8.33333333E-02  0.00000000E+00
                      -2.50000000E-01  8.33333333E-02  0.00000000E+00
                      -1.66666667E-01  8.33333333E-02  0.00000000E+00
                      -8.33333333E-02  8.33333333E-02  0.00000000E+00
                       1.66666667E-01  1.66666667E-01  0.00000000E+00
                       2.50000000E-01  1.66666667E-01  0.00000000E+00
                       3.33333333E-01  1.66666667E-01  0.00000000E+00
                       4.16666667E-01  1.66666667E-01  0.00000000E+00
                       5.00000000E-01  1.66666667E-01  0.00000000E+00
                      -4.16666667E-01  1.66666667E-01  0.00000000E+00
                      -3.33333333E-01  1.66666667E-01  0.00000000E+00
                      -2.50000000E-01  1.66666667E-01  0.00000000E+00
                      -1.66666667E-01  1.66666667E-01  0.00000000E+00
                       2.50000000E-01  2.50000000E-01  0.00000000E+00
                       3.33333333E-01  2.50000000E-01  0.00000000E+00
                       4.16666667E-01  2.50000000E-01  0.00000000E+00
                       5.00000000E-01  2.50000000E-01  0.00000000E+00
                      -4.16666667E-01  2.50000000E-01  0.00000000E+00
                      -3.33333333E-01  2.50000000E-01  0.00000000E+00
                      -2.50000000E-01  2.50000000E-01  0.00000000E+00
                       3.33333333E-01  3.33333333E-01  0.00000000E+00
                       4.16666667E-01  3.33333333E-01  0.00000000E+00
                       5.00000000E-01  3.33333333E-01  0.00000000E+00
                      -4.16666667E-01  3.33333333E-01  0.00000000E+00
                      -3.33333333E-01  3.33333333E-01  0.00000000E+00
                       4.16666667E-01  4.16666667E-01  0.00000000E+00
                       5.00000000E-01  4.16666667E-01  0.00000000E+00
                      -4.16666667E-01  4.16666667E-01  0.00000000E+00
                       5.00000000E-01  5.00000000E-01  0.00000000E+00
                       8.33333333E-02  0.00000000E+00  8.33333333E-02
                       1.66666667E-01  0.00000000E+00  8.33333333E-02
                       2.50000000E-01  0.00000000E+00  8.33333333E-02
                       3.33333333E-01  0.00000000E+00  8.33333333E-02
                       4.16666667E-01  0.00000000E+00  8.33333333E-02
                       5.00000000E-01  0.00000000E+00  8.33333333E-02
                      -4.16666667E-01  0.00000000E+00  8.33333333E-02
                       outvar_i_n : Printing only first  50 k-points.
         kptrlatt       12    0    0      0   12    0      0    0   12
          kptrlen1     1.78249153E+02
          kptrlen2     1.78069546E+02
          kptrlen3     1.77889416E+02
          kptrlen4     1.77707485E+02
          kptrlen5     1.77521403E+02
          kptrlen6     1.77332973E+02
          kptrlen7     1.77149531E+02
          kptrlen8     1.76966509E+02
          kptrlen9     1.76783715E+02
          kptrlen10    1.76600862E+02
P           mkmem          28
            natom           9
            nband          42
           ndtset          10
            ngfft          64      64      64
          ngfftdg         100     100     100
             nkpt         163
            nstep        2500
             nsym           8
           ntypat           4
              occ      2.000000  2.000000  2.000000  2.000000  2.000000  2.000000
                       2.000000  2.000000  2.000000  2.000000  2.000000  2.000000
                       2.000000  2.000000  2.000000  2.000000  2.000000  2.000000
                       2.000000  2.000000  2.000000  2.000000  2.000000  2.000000
                       2.000000  2.000000  2.000000  2.000000  2.000000  2.000000
                       2.000000  2.000000  2.000000  2.000000  2.000000  2.000000
                       0.000000  0.000000  0.000000  0.000000  0.000000  0.000000
        pawecutdg      4.00000000E+01 Hartree
            prtwf           0
            rprim1     0.0000000000E+00  6.9695902478E-01  7.1711095221E-01
                       7.0710678119E-01  0.0000000000E+00  7.0710678119E-01
                       7.1711095221E-01  6.9695902478E-01  0.0000000000E+00
            rprim2     0.0000000000E+00  6.9694344384E-01  7.1712609497E-01
                       7.0710678119E-01  0.0000000000E+00  7.0710678119E-01
                       7.1712609497E-01  6.9694344384E-01  0.0000000000E+00
            rprim3     0.0000000000E+00  6.9692092129E-01  7.1714798296E-01
                       7.0710678119E-01  0.0000000000E+00  7.0710678119E-01
                       7.1714798296E-01  6.9692092129E-01  0.0000000000E+00
            rprim4     0.0000000000E+00  6.9687450314E-01  7.1719308897E-01
                       7.0710678119E-01  0.0000000000E+00  7.0710678119E-01
                       7.1719308897E-01  6.9687450314E-01  0.0000000000E+00
            rprim5     0.0000000000E+00  6.9677288626E-01  7.1729181298E-01
                       7.0710678119E-01  0.0000000000E+00  7.0710678119E-01
                       7.1729181298E-01  6.9677288626E-01  0.0000000000E+00
            rprim6     0.0000000000E+00  6.9663971367E-01  7.1742115200E-01
                       7.0710678119E-01  0.0000000000E+00  7.0710678119E-01
                       7.1742115200E-01  6.9663971367E-01  0.0000000000E+00
            rprim7     0.0000000000E+00  6.9657258328E-01  7.1748633173E-01
                       7.0710678119E-01  0.0000000000E+00  7.0710678119E-01
                       7.1748633173E-01  6.9657258328E-01  0.0000000000E+00
            rprim8     0.0000000000E+00  6.9651087798E-01  7.1754623325E-01
[...]
                      -1.5291844849E-12 -9.8834999997E-02 -1.5291844849E-12
           xangst7     2.8024864939E+00  2.7076114639E+00  2.8024864939E+00
                       8.4074594816E+00  8.1492071302E+00  8.4074594816E+00
                       5.6049729878E+00  8.3681875555E+00  5.6049729878E+00
                       5.6049729878E+00  5.4374208401E+00  2.8306801483E+00
                       5.6049729877E+00  5.4374208401E+00  8.3792658272E+00
                       5.6049729877E+00  2.7336411002E+00  5.6049729877E+00
                       8.3792658272E+00  5.4374208401E+00  5.6049729877E+00
                       2.8306801483E+00  5.4374208401E+00  5.6049729878E+00
                      -1.4559549906E-12 -9.9119795809E-02 -1.4559549906E-12
           xangst8     2.7998248382E+00  2.7048382995E+00  2.7998248382E+00
                       8.3994745147E+00  8.1403304417E+00  8.3994745147E+00
                       5.5996496764E+00  8.3555639598E+00  5.5996496764E+00
                       5.5996496764E+00  5.4317971713E+00  2.8297151387E+00
                       5.5996496765E+00  5.4317971713E+00  8.3695842142E+00
                       5.5996496765E+00  2.7320971769E+00  5.5996496765E+00
                       8.3695842142E+00  5.4317971713E+00  5.5996496765E+00
                       2.8297151387E+00  5.4317971713E+00  5.5996496764E+00
                       1.3423902583E-12 -9.9721686205E-02  1.3423902583E-12
           xangst9     2.7971553471E+00  2.7023481329E+00  2.7971553471E+00
                       8.3914660414E+00  8.1317672762E+00  8.3914660414E+00
                       5.5943106943E+00  8.3428178481E+00  5.5943106943E+00
                       5.5943106943E+00  5.4261716413E+00  2.8287385780E+00
                       5.5943106942E+00  5.4261716413E+00  8.3598828105E+00
                       5.5943106942E+00  2.7304493620E+00  5.5943106942E+00
                       8.3598828105E+00  5.4261716413E+00  5.5943106942E+00
                       2.8287385780E+00  5.4261716413E+00  5.5943106943E+00
                      -1.5792844924E-12 -1.0044161308E-01 -1.5792844924E-12
           xangst10    2.7944880335E+00  2.6994294848E+00  2.7944880335E+00
                       8.3834641006E+00  8.1227672748E+00  8.3834641006E+00
                       5.5889760671E+00  8.3303516234E+00  5.5889760671E+00
                       5.5889760671E+00  5.4205521199E+00  2.8277736230E+00
                       5.5889760670E+00  5.4205521199E+00  8.3501785111E+00
                       5.5889760670E+00  2.7290072406E+00  5.5889760670E+00
                       8.3501785111E+00  5.4205521199E+00  5.5889760670E+00
                       2.8277736230E+00  5.4205521199E+00  5.5889760671E+00
                      -2.6001906790E-12 -1.0087279203E-01 -2.6001906790E-12
            xcart1     5.3260174906E+00  5.1485496627E+00  5.3260174906E+00
                       1.5978052472E+01  1.5501245978E+01  1.5978052472E+01
                       1.0652034981E+01  1.5957138333E+01  1.0652034981E+01
                       1.0652034981E+01  1.0339794421E+01  5.3596416832E+00
                       1.0652034981E+01  1.0339794421E+01  1.5944428279E+01
                       1.0652034981E+01  5.1823389107E+00  1.0652034981E+01
                       1.5944428279E+01  1.0339794421E+01  1.0652034981E+01
                       5.3596416832E+00  1.0339794421E+01  1.0652034981E+01
                      -2.0082979616E-12 -1.8144166140E-01 -2.0082979616E-12
            xcart2     5.3207632424E+00  5.1435338487E+00  5.3207632424E+00
                       1.5962289727E+01  1.5485567374E+01  1.5962289727E+01
                       1.0641526485E+01  1.5935205604E+01  1.0641526485E+01
                       1.0641526485E+01  1.0329934118E+01  5.3579061272E+00
                       1.0641526485E+01  1.0329934118E+01  1.5925146842E+01
                       1.0641526485E+01  5.1798342164E+00  1.0641526485E+01
                       1.5925146842E+01  1.0329934118E+01  1.0641526485E+01
                       5.3579061272E+00  1.0329934118E+01  1.0641526485E+01
                      -5.0168120025E-13 -1.8232072331E-01 -5.0168120025E-13
            xcart3     5.3155431546E+00  5.1382591436E+00  5.3155431546E+00
                       1.5946629464E+01  1.5469497104E+01  1.5946629464E+01
                       1.0631086309E+01  1.5912987577E+01  1.0631086309E+01
                       1.0631086309E+01  1.0319988864E+01  5.3561597640E+00
                       1.0631086309E+01  1.0319988864E+01  1.5906012854E+01
                       1.0631086309E+01  5.1773633723E+00  1.0631086309E+01
                       1.5906012854E+01  1.0319988864E+01  1.0631086309E+01
                       5.3561597640E+00  1.0319988864E+01  1.0631086309E+01
                      -1.2900322459E-12 -1.8302203896E-01 -1.2900322459E-12
            xcart4     5.3104408481E+00  5.1331852572E+00  5.3104408481E+00
                       1.5931322544E+01  1.5453169887E+01  1.5931322544E+01
                       1.0620881696E+01  1.5889579087E+01  1.0620881696E+01
                       1.0620881696E+01  1.0309652127E+01  5.3543677537E+00
                       1.0620881696E+01  1.0309652127E+01  1.5887395639E+01
                       1.0620881696E+01  5.1745430899E+00  1.0620881696E+01
                       1.5887395639E+01  1.0309652127E+01  1.0620881696E+01
                       5.3543677537E+00  1.0309652127E+01  1.0620881696E+01
                      -1.1970181088E-12 -1.8422995002E-01 -1.1970181088E-12
            xcart5     5.3056103882E+00  5.1282230348E+00  5.3056103882E+00
                       1.5916831165E+01  1.5435898089E+01  1.5916831165E+01
                       1.0611220777E+01  1.5864163274E+01  1.0611220777E+01
                       1.0611220776E+01  1.0297955585E+01  5.3526850968E+00
                       1.0611220776E+01  1.0297955585E+01  1.5869756456E+01
                       1.0611220776E+01  5.1714614543E+00  1.0611220776E+01
                       1.5869756456E+01  1.0297955585E+01  1.0611220776E+01
                       5.3526850968E+00  1.0297955585E+01  1.0611220776E+01
                      -3.2929154705E-12 -1.8536185019E-01 -3.2929154705E-12
            xcart6     5.3009344116E+00  5.1226513822E+00  5.3009344116E+00
                       1.5902803235E+01  1.5417417352E+01  1.5902803235E+01
                       1.0601868823E+01  1.5837229331E+01  1.0601868823E+01
                       1.0601868823E+01  1.0285970407E+01  5.3509768127E+00
                       1.0601868823E+01  1.0285970407E+01  1.5852760834E+01
                       1.0601868823E+01  5.1683437056E+00  1.0601868823E+01
                       1.5852760834E+01  1.0285970407E+01  1.0601868823E+01
                       5.3509768127E+00  1.0285970407E+01  1.0601868823E+01
                      -2.8897398832E-12 -1.8677108234E-01 -2.8897398832E-12
            xcart7     5.2959319645E+00  5.1166441410E+00  5.2959319645E+00
                       1.5887795894E+01  1.5399769676E+01  1.5887795894E+01
                       1.0591863929E+01  1.5813582708E+01  1.0591863929E+01
                       1.0591863929E+01  1.0275236257E+01  5.3492102501E+00
                       1.0591863929E+01  1.0275236257E+01  1.5834517608E+01
                       1.0591863929E+01  5.1658330249E+00  1.0591863929E+01
                       1.5834517608E+01  1.0275236257E+01  1.0591863929E+01
                       5.3492102501E+00  1.0275236257E+01  1.0591863929E+01
                      -2.7513561941E-12 -1.8730926843E-01 -2.7513561941E-12
            xcart8     5.2909021643E+00  5.1114036198E+00  5.2909021643E+00
                       1.5872706493E+01  1.5382995166E+01  1.5872706493E+01
                       1.0581804329E+01  1.5789727570E+01  1.0581804329E+01
                       1.0581804329E+01  1.0264609063E+01  5.3473866463E+00
                       1.0581804329E+01  1.0264609063E+01  1.5816222011E+01
                       1.0581804329E+01  5.1629154328E+00  1.0581804329E+01
                       1.5816222011E+01  1.0264609063E+01  1.0581804329E+01
                       5.3473866463E+00  1.0264609063E+01  1.0581804329E+01
                       2.5367499517E-12 -1.8844667644E-01  2.5367499517E-12
            xcart9     5.2858575572E+00  5.1066978868E+00  5.2858575572E+00
                       1.5857572672E+01  1.5366813128E+01  1.5857572672E+01
                       1.0571715114E+01  1.5765640909E+01  1.0571715114E+01
                       1.0571715114E+01  1.0253978352E+01  5.3455412140E+00
                       1.0571715114E+01  1.0253978352E+01  1.5797889015E+01
                       1.0571715114E+01  5.1598015139E+00  1.0571715114E+01
                       1.5797889015E+01  1.0253978352E+01  1.0571715114E+01
                       5.3455412140E+00  1.0253978352E+01  1.0571715114E+01
                      -2.9844151765E-12 -1.8980714107E-01 -2.9844151765E-12
            xcart10    5.2808170650E+00  5.1011824413E+00  5.2808170650E+00
                       1.5842451195E+01  1.5349805591E+01  1.5842451195E+01
                       1.0561634130E+01  1.5742083159E+01  1.0561634130E+01
                       1.0561634130E+01  1.0243358996E+01  5.3437177133E+00
                       1.0561634130E+01  1.0243358996E+01  1.5779550547E+01
                       1.0561634130E+01  5.1570762995E+00  1.0561634130E+01
                       1.5779550547E+01  1.0243358996E+01  1.0561634130E+01
                       5.3437177133E+00  1.0243358996E+01  1.0561634130E+01
                      -4.9136482765E-12 -1.9062195119E-01 -4.9136482765E-12
             xred1     2.4865742730E-01  2.5134257270E-01  2.4865742730E-01
                       7.4865742730E-01  7.5134257270E-01  7.4865742730E-01
                       7.7067547658E-01  2.2932452342E-01  7.7067547658E-01
                       2.5095518142E-01  2.5220141661E-01  7.4779858339E-01
                       7.4779858339E-01  7.4904481858E-01  2.5095518142E-01
                       2.5028933299E-01  7.4971066701E-01  2.5028933299E-01
                       2.5095518142E-01  7.4904481858E-01  7.4779858339E-01
                       7.4779858339E-01  2.5220141661E-01  2.5095518142E-01
                      -8.7630147684E-03  8.7630147684E-03 -8.7630147684E-03
             xred2     2.4867130029E-01  2.5132869971E-01  2.4867130029E-01
                       7.4867130029E-01  7.5132869971E-01  7.4867130029E-01
                       7.7040968610E-01  2.2959031390E-01  7.7040968610E-01
                       2.5116022326E-01  2.5233014862E-01  7.4766985138E-01
                       7.4766985138E-01  7.4883977674E-01  2.5116022326E-01
                       2.5042629207E-01  7.4957370793E-01  2.5042629207E-01
                       2.5116022326E-01  7.4883977674E-01  7.4766985138E-01
                       7.4766985138E-01  2.5233014862E-01  2.5116022326E-01
                      -8.8145490373E-03  8.8145490373E-03 -8.8145490373E-03
             xred3     2.4867586843E-01  2.5132413157E-01  2.4867586843E-01
                       7.4867586843E-01  7.5132413157E-01  7.4867586843E-01
                       7.7013943719E-01  2.2986056281E-01  7.7013943719E-01
                       2.5136585408E-01  2.5245469711E-01  7.4754530289E-01
                       7.4754530289E-01  7.4863414592E-01  2.5136585408E-01
                       2.5056839229E-01  7.4943160771E-01  2.5056839229E-01
                       2.5136585408E-01  7.4863414592E-01  7.4754530289E-01
                       7.4754530289E-01  2.5245469711E-01  2.5136585408E-01
                      -8.8577012580E-03  8.8577012580E-03 -8.8577012580E-03
             xred4     2.4870120650E-01  2.5129879350E-01  2.4870120650E-01
                       7.4870120650E-01  7.5129879350E-01  7.4870120650E-01
                       7.6984509456E-01  2.3015490544E-01  7.6984509456E-01
                       2.5156734354E-01  2.5256855655E-01  7.4743144345E-01
                       7.4743144345E-01  7.4843265646E-01  2.5156734354E-01
                       2.5070498045E-01  7.4929501955E-01  2.5070498045E-01
                       2.5156734354E-01  7.4843265646E-01  7.4743144345E-01
                       7.4743144345E-01  2.5256855655E-01  2.5156734354E-01
                      -8.9258829652E-03  8.9258829652E-03 -8.9258829652E-03
             xred5     2.4875750389E-01  2.5124249611E-01  2.4875750389E-01
                       7.4875750389E-01  7.5124249611E-01  7.4875750389E-01
                       7.6953159613E-01  2.3046840387E-01  7.6953159613E-01
                       2.5174668950E-01  2.5268962462E-01  7.4731037538E-01
                       7.4731037538E-01  7.4825331050E-01  2.5174668950E-01
                       2.5085489342E-01  7.4914510658E-01  2.5085489342E-01
                       2.5174668950E-01  7.4825331050E-01  7.4731037538E-01
                       7.4731037538E-01  2.5268962462E-01  2.5174668950E-01
                      -8.9914480820E-03  8.9914480820E-03 -8.9914480820E-03
             xred6     2.4879882638E-01  2.5120117362E-01  2.4879882638E-01
                       7.4879882638E-01  7.5120117362E-01  7.4879882638E-01
                       7.6918840983E-01  2.3081159017E-01  7.6918840983E-01
                       2.5193288837E-01  2.5278726068E-01  7.4721273932E-01
                       7.4721273932E-01  7.4806711163E-01  2.5193288837E-01
                       2.5101802804E-01  7.4898197196E-01  2.5101802804E-01
                       2.5193288837E-01  7.4806711163E-01  7.4721273932E-01
                       7.4721273932E-01  2.5278726068E-01  2.5193288837E-01
                      -9.0711669838E-03  9.0711669838E-03 -9.0711669838E-03
             xred7     2.4878837293E-01  2.5121162707E-01  2.4878837293E-01
                       7.4878837293E-01  7.5121162707E-01  7.4878837293E-01
                       7.6890934835E-01  2.3109065165E-01  7.6890934835E-01
                       2.5213145400E-01  2.5289866024E-01  7.4710133976E-01
                       7.4710133976E-01  7.4786854600E-01  2.5213145400E-01
                       2.5118010119E-01  7.4881989881E-01  2.5118010119E-01
                       2.5213145400E-01  7.4786854600E-01  7.4710133976E-01
                       7.4710133976E-01  2.5289866024E-01  2.5213145400E-01
                      -9.1076038986E-03  9.1076038986E-03 -9.1076038986E-03
             xred8     2.4881264003E-01  2.5118735997E-01  2.4881264003E-01
                       7.4881264003E-01  7.5118735997E-01  7.4881264003E-01
                       7.6861153887E-01  2.3138846113E-01  7.6861153887E-01
                       2.5232905085E-01  2.5300883674E-01  7.4699116326E-01
                       7.4699116326E-01  7.4767094915E-01  2.5232905085E-01
                       2.5132012939E-01  7.4867987061E-01  2.5132012939E-01
                       2.5232905085E-01  7.4767094915E-01  7.4699116326E-01
                       7.4699116326E-01  2.5300883674E-01  2.5232905085E-01
                      -9.1731975318E-03  9.1731975318E-03 -9.1731975318E-03
             xred9     2.4886162419E-01  2.5113837581E-01  2.4886162419E-01
                       7.4886162419E-01  7.5113837581E-01  7.4886162419E-01
                       7.6829745759E-01  2.3170254241E-01  7.6829745759E-01
                       2.5252373381E-01  2.5312186448E-01  7.4687813552E-01
                       7.4687813552E-01  7.4747626619E-01  2.5252373381E-01
                       2.5144949118E-01  7.4855050882E-01  2.5144949118E-01
                       2.5252373381E-01  7.4747626619E-01  7.4687813552E-01
                       7.4687813552E-01  2.5312186448E-01  2.5252373381E-01
                      -9.2497567814E-03  9.2497567814E-03 -9.2497567814E-03
             xred10    2.4887159802E-01  2.5112840198E-01  2.4887159802E-01
                       7.4887159802E-01  7.5112840198E-01  7.4887159802E-01
                       7.6800965991E-01  2.3199034009E-01  7.6800965991E-01
                       2.5272096711E-01  2.5323461207E-01  7.4676538793E-01
                       7.4676538793E-01  7.4727903289E-01  2.5272096711E-01
                       2.5159849398E-01  7.4840150602E-01  2.5159849398E-01
                       2.5272096711E-01  7.4727903289E-01  7.4676538793E-01
                       7.4676538793E-01  2.5323461207E-01  2.5272096711E-01
                      -9.2998809895E-03  9.2998809895E-03 -9.2998809895E-03
            znucl       55.00000   53.00000   72.00000   17.00000

- Timing analysis has been suppressed with timopt=0

 Suggested references for the acknowledgment of ABINIT usage.

 Calculation completed.
.Delivered   0 WARNINGs and  10 COMMENTs to log file.