.Version 9.2.2 of ABINIT

 ABINIT is a project of the Universite Catholique de Louvain,
 Corning Inc. and other collaborators, see ~abinit/doc/developers/contributors.txt .
 acknowledgments of the ABINIT effort.

.Starting date : Wed  9 Nov 2022.
- ( at 16h13 )

- input  file    -> Cs2TiI6.in
- output file    -> Cs2TiI6.out
- root for input  files -> Cs2TiI6i
- root for output files -> Cs2TiI6o

- inpspheads : Reading pseudopotential header in XML form from
-   ../../../Psps_for_tests/ATOMICDATA/Cs.GGA_PBE-JTH.xml
- inpspheads : Reading pseudopotential header in XML form from
-   ../../../Psps_for_tests/ATOMICDATA/I.GGA_PBE-JTH.xml
- inpspheads : Reading pseudopotential header in XML form from
-   ../../../Psps_for_tests/ATOMICDATA/Hf.GGA_PBE-JTH.xml
- inpspheads : Reading pseudopotential header in XML form from
-   ../../../Psps_for_tests/ATOMICDATA/Br.GGA_PBE-JTH.xml

 DATASET    1 : space group I4 m m (#107); Bravais tI (body-center tetrag.)
     intxc =       0    ionmov =       0      iscf =      17    lmnmax =      18
     lnmax =       6     mgfft =      60  mpssoang =       3    mqgrid =    3475
     natom =       9  nloc_mem =       2    nspden =       1   nspinor =       1
    nsppol =       1      nsym =       8    n1xccc =       1    ntypat =       4
    occopt =       1   xclevel =       2
-    mband =          42        mffmem =           1         mkmem =          28
       mpw =        7258          nfft =      216000          nkpt =         163
Pmy_natom=         2
 PAW method is used; the additional fine FFT grid is defined by:
   mgfftf=        90    nfftf =    729000
  Rough estimation (10% accuracy) of disk space for files :

[...]

 DATASET   10 : space group I4 m m (#107); Bravais tI (body-center tetrag.)
     intxc =       0    ionmov =       0      iscf =      17    lmnmax =      18
     lnmax =       6     mgfft =      54  mpssoang =       3    mqgrid =    3444
     natom =       9  nloc_mem =       2    nspden =       1   nspinor =       1
    nsppol =       1      nsym =       8    n1xccc =       1    ntypat =       4
    occopt =       1   xclevel =       2
-    mband =          42        mffmem =           1         mkmem =          28
       mpw =        7057          nfft =      157464          nkpt =         163
Pmy_natom=         2
 PAW method is used; the additional fine FFT grid is defined by:
   mgfftf=        90    nfftf =    729000
  Rough estimation (10% accuracy) of disk space for files :

------------- Echo of variables that govern the present computation ------------
-
- outvars: echo of selected default values
-   iomode0 =  0 , fftalg0 =112 , wfoptalg0 = 10
-
- outvars: echo of global parameters not present in the input file
-  max_nthreads =    0
-
 -outvars: echo values of preprocessed input variables --------
            acell1     1.4900887330E+01  1.5045529276E+01  1.4900887330E+01 Bohr
            acell2     1.4885954599E+01  1.5030504996E+01  1.4885954599E+01 Bohr
            acell3     1.4870684189E+01  1.5016205252E+01  1.4870684189E+01 Bohr
            acell4     1.4855053973E+01  1.5002678802E+01  1.4855053973E+01 Bohr
            acell5     1.4839927689E+01  1.4988070535E+01  1.4839927689E+01 Bohr
            acell6     1.4824941959E+01  1.4973160254E+01  1.4824941959E+01 Bohr
            acell7     1.4809879038E+01  1.4958415949E+01  1.4809879038E+01 Bohr
            acell8     1.4794733672E+01  1.4943849036E+01  1.4794733672E+01 Bohr
            acell9     1.4779621832E+01  1.4929210171E+01  1.4779621832E+01 Bohr
            acell10    1.4764225413E+01  1.4915184063E+01  1.4764225413E+01 Bohr
              amu      1.32905430E+02  1.26904470E+02  1.78490000E+02
                       7.99040000E+01
           diemac      1.20000000E+01
             ecut      1.60000000E+01 Hartree
-          fftalg         112
           istwfk        2    0    0    0    0    0    3    0    0    0
                         0    0    0    0    0    0    0    0    0    0
                         0    0    0    0    0    0    0    0    0    0
                         0    0    0    0    0    0    0    0    0    0
                         0    0    7    0    0    0    0    0    0    0
                       outvar_i_n : Printing only first  50 k-points.
              ixc     -101130
           jdtset        1    2    3    4    5    6    7    8    9   10
              kpt      0.00000000E+00  0.00000000E+00  0.00000000E+00
                       8.33333333E-02  0.00000000E+00  0.00000000E+00
                       1.66666667E-01  0.00000000E+00  0.00000000E+00
                       2.50000000E-01  0.00000000E+00  0.00000000E+00
                       3.33333333E-01  0.00000000E+00  0.00000000E+00
                       4.16666667E-01  0.00000000E+00  0.00000000E+00
                       5.00000000E-01  0.00000000E+00  0.00000000E+00
                       8.33333333E-02  8.33333333E-02  0.00000000E+00
                       1.66666667E-01  8.33333333E-02  0.00000000E+00
                       2.50000000E-01  8.33333333E-02  0.00000000E+00
                       3.33333333E-01  8.33333333E-02  0.00000000E+00
                       4.16666667E-01  8.33333333E-02  0.00000000E+00
                       5.00000000E-01  8.33333333E-02  0.00000000E+00
                      -4.16666667E-01  8.33333333E-02  0.00000000E+00
                      -3.33333333E-01  8.33333333E-02  0.00000000E+00
                      -2.50000000E-01  8.33333333E-02  0.00000000E+00
                      -1.66666667E-01  8.33333333E-02  0.00000000E+00
                      -8.33333333E-02  8.33333333E-02  0.00000000E+00
                       1.66666667E-01  1.66666667E-01  0.00000000E+00
                       2.50000000E-01  1.66666667E-01  0.00000000E+00
                       3.33333333E-01  1.66666667E-01  0.00000000E+00
                       4.16666667E-01  1.66666667E-01  0.00000000E+00
                       5.00000000E-01  1.66666667E-01  0.00000000E+00
                      -4.16666667E-01  1.66666667E-01  0.00000000E+00
                      -3.33333333E-01  1.66666667E-01  0.00000000E+00
                      -2.50000000E-01  1.66666667E-01  0.00000000E+00
                      -1.66666667E-01  1.66666667E-01  0.00000000E+00
                       2.50000000E-01  2.50000000E-01  0.00000000E+00
                       3.33333333E-01  2.50000000E-01  0.00000000E+00
                       4.16666667E-01  2.50000000E-01  0.00000000E+00
                       5.00000000E-01  2.50000000E-01  0.00000000E+00
                      -4.16666667E-01  2.50000000E-01  0.00000000E+00
                      -3.33333333E-01  2.50000000E-01  0.00000000E+00
                      -2.50000000E-01  2.50000000E-01  0.00000000E+00
                       3.33333333E-01  3.33333333E-01  0.00000000E+00
                       4.16666667E-01  3.33333333E-01  0.00000000E+00
                       5.00000000E-01  3.33333333E-01  0.00000000E+00
                      -4.16666667E-01  3.33333333E-01  0.00000000E+00
                      -3.33333333E-01  3.33333333E-01  0.00000000E+00
                       4.16666667E-01  4.16666667E-01  0.00000000E+00
                       5.00000000E-01  4.16666667E-01  0.00000000E+00
                      -4.16666667E-01  4.16666667E-01  0.00000000E+00
                       5.00000000E-01  5.00000000E-01  0.00000000E+00
                       8.33333333E-02  0.00000000E+00  8.33333333E-02
                       1.66666667E-01  0.00000000E+00  8.33333333E-02
                       2.50000000E-01  0.00000000E+00  8.33333333E-02
                       3.33333333E-01  0.00000000E+00  8.33333333E-02
                       4.16666667E-01  0.00000000E+00  8.33333333E-02
                       5.00000000E-01  0.00000000E+00  8.33333333E-02
                      -4.16666667E-01  0.00000000E+00  8.33333333E-02
                       outvar_i_n : Printing only first  50 k-points.
         kptrlatt       12    0    0      0   12    0      0    0   12
          kptrlen1     1.78810648E+02
          kptrlen2     1.78631455E+02
          kptrlen3     1.78448210E+02
          kptrlen4     1.78260648E+02
          kptrlen5     1.78079132E+02
          kptrlen6     1.77899304E+02
          kptrlen7     1.77718548E+02
          kptrlen8     1.77536804E+02
          kptrlen9     1.77355462E+02
          kptrlen10    1.77170705E+02
P           mkmem          28
            natom           9
            nband          42
           ndtset          10
            ngfft1         60      60      60
            ngfft2         60      60      60
            ngfft3         60      60      60
            ngfft4         60      60      60
            ngfft5         54      54      54
            ngfft6         54      54      54
            ngfft7         54      54      54
            ngfft8         54      54      54
            ngfft9         54      54      54
            ngfft10        54      54      54
          ngfftdg          90      90      90
             nkpt         163
            nstep        2500
             nsym           8
           ntypat           4
              occ      2.000000  2.000000  2.000000  2.000000  2.000000  2.000000
                       2.000000  2.000000  2.000000  2.000000  2.000000  2.000000
                       2.000000  2.000000  2.000000  2.000000  2.000000  2.000000
                       2.000000  2.000000  2.000000  2.000000  2.000000  2.000000
                       2.000000  2.000000  2.000000  2.000000  2.000000  2.000000
                       2.000000  2.000000  2.000000  2.000000  2.000000  2.000000
                       0.000000  0.000000  0.000000  0.000000  0.000000  0.000000
        pawecutdg      4.00000000E+01 Hartree
            prtwf           0
            rprim1     0.0000000000E+00  7.0017565844E-01  7.1397062077E-01
                       7.0710678119E-01  0.0000000000E+00  7.0710678119E-01
                       7.1397062077E-01  7.0017565844E-01  0.0000000000E+00
            rprim2     0.0000000000E+00  7.0017307178E-01  7.1397315745E-01
                       7.0710678119E-01  0.0000000000E+00  7.0710678119E-01
                       7.1397315745E-01  7.0017307178E-01  0.0000000000E+00
            rprim3     0.0000000000E+00  7.0011881250E-01  7.1402636393E-01
                       7.0710678119E-01  0.0000000000E+00  7.0710678119E-01
                       7.1402636393E-01  7.0011881250E-01  0.0000000000E+00
            rprim4     0.0000000000E+00  7.0000924098E-01  7.1413378476E-01
                       7.0710678119E-01  0.0000000000E+00  7.0710678119E-01
                       7.1413378476E-01  7.0000924098E-01  0.0000000000E+00
            rprim5     0.0000000000E+00  6.9997675137E-01  7.1416563033E-01
                       7.0710678119E-01  0.0000000000E+00  7.0710678119E-01
                       7.1416563033E-01  6.9997675137E-01  0.0000000000E+00
            rprim6     0.0000000000E+00  6.9996579955E-01  7.1417636440E-01
                       7.0710678119E-01  0.0000000000E+00  7.0710678119E-01
                       7.1417636440E-01  6.9996579955E-01  0.0000000000E+00
[...]
                       2.4801912658E-12 -7.0671595007E-02  2.4801912658E-12
           xangst7     2.7986058851E+00  2.7334754181E+00  2.7986058851E+00
                       8.3958176552E+00  8.2189635585E+00  8.3958176552E+00
                       5.5972117701E+00  8.3178298313E+00  5.5972117701E+00
                       5.5972117701E+00  5.4825284813E+00  2.8266795180E+00
                       5.5972117702E+00  5.4825284813E+00  8.3677440223E+00
                       5.5972117702E+00  2.7548740701E+00  5.5972117702E+00
                       8.3677440223E+00  5.4825284813E+00  5.5972117702E+00
                       2.8266795180E+00  5.4825284813E+00  5.5972117701E+00
                       5.2472637953E-13 -7.1316572845E-02  5.2472637953E-13
           xangst8     2.7958805264E+00  2.7304740234E+00  2.7958805264E+00
                       8.3876415792E+00  8.2100735458E+00  8.3876415792E+00
                       5.5917610527E+00  8.3062543916E+00  5.5917610527E+00
                       5.5917610527E+00  5.4769848361E+00  2.8256851022E+00
                       5.5917610528E+00  5.4769848361E+00  8.3578370033E+00
                       5.5917610528E+00  2.7536820360E+00  5.5917610528E+00
                       8.3578370033E+00  5.4769848361E+00  5.5917610528E+00
                       2.8256851022E+00  5.4769848361E+00  5.5917610527E+00
                       1.1494003642E-12 -7.1592092444E-02  1.1494003642E-12
           xangst9     2.7931417060E+00  2.7284100952E+00  2.7931417060E+00
                       8.3794251181E+00  8.2021737979E+00  8.3794251181E+00
                       5.5862834120E+00  8.2942065906E+00  5.5862834120E+00
                       5.5862834120E+00  5.4714137998E+00  2.8246762488E+00
                       5.5862834121E+00  5.4714137998E+00  8.3478905754E+00
                       5.5862834121E+00  2.7520567382E+00  5.5862834121E+00
                       8.3478905754E+00  5.4714137998E+00  5.5862834121E+00
                       2.8246762488E+00  5.4714137998E+00  5.5862834120E+00
                       1.4659945903E-12 -7.2357767981E-02  1.4659945903E-12
           xangst10    2.7905175279E+00  2.7251828027E+00  2.7905175279E+00
                       8.3715525837E+00  8.1926614464E+00  8.3715525837E+00
                       5.5810350558E+00  8.2818137498E+00  5.5810350558E+00
                       5.5810350558E+00  5.4654951226E+00  2.8236727957E+00
                       5.5810350558E+00  5.4654951226E+00  8.3383973159E+00
                       5.5810350558E+00  2.7508017039E+00  5.5810350558E+00
                       8.3383973159E+00  5.4654951226E+00  5.5810350558E+00
                       2.8236727957E+00  5.4654951226E+00  5.5810350558E+00
                       9.2983452334E-13 -7.2576051280E-02  9.2983452334E-13
            xcart1     5.3193978887E+00  5.1956672747E+00  5.3193978887E+00
                       1.5958193666E+01  1.5628905872E+01  1.5958193666E+01
                       1.0638795777E+01  1.5852642209E+01  1.0638795777E+01
                       1.0638795777E+01  1.0424354604E+01  5.3524619129E+00
                       1.0638795777E+01  1.0424354604E+01  1.5925129642E+01
                       1.0638795777E+01  5.2212540791E+00  1.0638795777E+01
                       1.5925129642E+01  1.0424354604E+01  1.0638795777E+01
                       5.3524619129E+00  1.0424354604E+01  1.0638795777E+01
                       3.9120118641E-12 -1.2991229549E-01  3.9120118641E-12
            xcart2     5.3140860035E+00  5.1909684349E+00  5.3140860035E+00
                       1.5942258011E+01  1.5613712993E+01  1.5942258011E+01
                       1.0628172007E+01  1.5831646576E+01  1.0628172007E+01
                       1.0628172007E+01  1.0414409534E+01  5.3507196167E+00
                       1.0628172007E+01  1.0414409534E+01  1.5905624397E+01
                       1.0628172007E+01  5.2187655392E+00  1.0628172007E+01
                       1.5905624397E+01  1.0414409534E+01  1.0628172007E+01
                       5.3507196167E+00  1.0414409534E+01  1.0628172007E+01
                       4.2412373929E-12 -1.3070850892E-01  4.2412373929E-12
            xcart3     5.3090302805E+00  5.1869548494E+00  5.3090302805E+00
                       1.5927090842E+01  1.5598200605E+01  1.5927090842E+01
                       1.0618060561E+01  1.5807827782E+01  1.0618060561E+01
                       1.0618060561E+01  1.0403420306E+01  5.3488787528E+00
                       1.0618060561E+01  1.0403420306E+01  1.5887242369E+01
                       1.0618060561E+01  5.2157847731E+00  1.0618060561E+01
                       1.5887242369E+01  1.0403420306E+01  1.0618060561E+01
                       5.3488787528E+00  1.0403420306E+01  1.0618060561E+01
                       5.1324725736E-12 -1.3241655812E-01  5.1324725736E-12
            xcart4     5.3042479584E+00  5.1807517824E+00  5.3042479584E+00
                       1.5912743875E+01  1.5579426839E+01  1.5912743875E+01
                       1.0608495917E+01  1.5783275736E+01  1.0608495917E+01
                       1.0608495917E+01  1.0391333598E+01  5.3471897648E+00
                       1.0608495917E+01  1.0391333598E+01  1.5869802069E+01
                       1.0608495917E+01  5.2133513274E+00  1.0608495917E+01
                       1.5869802069E+01  1.0391333598E+01  1.0608495917E+01
                       5.3471897648E+00  1.0391333598E+01  1.0608495917E+01
                       2.2780576316E-12 -1.3267307425E-01  2.2780576316E-12
            xcart5     5.2990831561E+00  5.1755498578E+00  5.2990831561E+00
                       1.5897249468E+01  1.5563154232E+01  1.5897249468E+01
                       1.0598166312E+01  1.5761255356E+01  1.0598166312E+01
                       1.0598166312E+01  1.0380817615E+01  5.3453841699E+00
                       1.0598166312E+01  1.0380817615E+01  1.5850948454E+01
                       1.0598166312E+01  5.2109505354E+00  1.0598166312E+01
                       1.5850948454E+01  1.0380817615E+01  1.0598166312E+01
                       5.3453841699E+00  1.0380817615E+01  1.0598166312E+01
                       1.1947105523E-12 -1.3327896671E-01  1.1947105523E-12
            xcart6     5.2938115755E+00  5.1698836853E+00  5.2938115755E+00
                       1.5881434727E+01  1.5546836037E+01  1.5881434727E+01
                       1.0587623151E+01  1.5740474707E+01  1.0587623151E+01
                       1.0587623151E+01  1.0370805855E+01  5.3435145687E+00
                       1.0587623151E+01  1.0370805855E+01  1.5831731733E+01
                       1.0587623151E+01  5.2088173368E+00  1.0587623151E+01
                       1.5831731733E+01  1.0370805855E+01  1.0587623151E+01
                       5.3435145687E+00  1.0370805855E+01  1.0587623151E+01
                       4.6868822495E-12 -1.3354995994E-01  4.6868822495E-12
            xcart7     5.2885986767E+00  5.1655199312E+00  5.2885986767E+00
                       1.5865796030E+01  1.5531590222E+01  1.5865796030E+01
                       1.0577197353E+01  1.5718420401E+01  1.0577197353E+01
                       1.0577197353E+01  1.0360477345E+01  5.3416501545E+00
                       1.0577197353E+01  1.0360477345E+01  1.5812744552E+01
                       1.0577197353E+01  5.2059575231E+00  1.0577197353E+01
                       1.5812744552E+01  1.0360477345E+01  1.0577197353E+01
                       5.3416501545E+00  1.0360477345E+01  1.0577197353E+01
                       9.9158915202E-13 -1.3476879141E-01  9.9158915202E-13
            xcart8     5.2834484951E+00  5.1598481171E+00  5.2834484951E+00
                       1.5850345485E+01  1.5514790532E+01  1.5850345485E+01
                       1.0566896990E+01  1.5696545990E+01  1.0566896990E+01
                       1.0566896990E+01  1.0350001374E+01  5.3397709810E+00
                       1.0566896990E+01  1.0350001374E+01  1.5794023000E+01
                       1.0566896990E+01  5.2037049051E+00  1.0566896990E+01
                       1.5794023000E+01  1.0350001374E+01  1.0566896990E+01
                       5.3397709810E+00  1.0350001374E+01  1.0566896990E+01
                       2.1720519054E-12 -1.3528944800E-01  2.1720519054E-12
            xcart9     5.2782728748E+00  5.1559478581E+00  5.2782728748E+00
                       1.5834818624E+01  1.5499862172E+01  1.5834818624E+01
                       1.0556545749E+01  1.5673778946E+01  1.0556545749E+01
                       1.0556545749E+01  1.0339473641E+01  5.3378645242E+00
                       1.0556545750E+01  1.0339473641E+01  1.5775226975E+01
                       1.0556545750E+01  5.2006335374E+00  1.0556545750E+01
                       1.5775226975E+01  1.0339473641E+01  1.0556545750E+01
                       5.3378645242E+00  1.0339473641E+01  1.0556545749E+01
                       2.7703282879E-12 -1.3673636507E-01  2.7703282879E-12
            xcart10    5.2733138968E+00  5.1498491591E+00  5.2733138968E+00
                       1.5819941690E+01  1.5481886433E+01  1.5819941690E+01
                       1.0546627793E+01  1.5650359871E+01  1.0546627793E+01
                       1.0546627793E+01  1.0328288962E+01  5.3359682727E+00
                       1.0546627794E+01  1.0328288962E+01  1.5757287314E+01
                       1.0546627794E+01  5.1982618663E+00  1.0546627794E+01
                       1.5757287314E+01  1.0328288962E+01  1.0546627794E+01
                       5.3359682727E+00  1.0328288962E+01  1.0546627793E+01
                       1.7571325980E-12 -1.3714886073E-01  1.7571325980E-12
             xred1     2.4899590027E-01  2.5100409973E-01  2.4899590027E-01
                       7.4899590027E-01  7.5100409973E-01  7.4899590027E-01
                       7.5971818627E-01  2.4028181373E-01  7.5971818627E-01
                       2.5112818203E-01  2.5197969079E-01  7.4802030921E-01
                       7.4802030921E-01  7.4887181797E-01  2.5112818203E-01
                       2.5022211609E-01  7.4977788391E-01  2.5022211609E-01
                       2.5112818203E-01  7.4887181797E-01  7.4802030921E-01
                       7.4802030921E-01  2.5197969079E-01  2.5112818203E-01
                      -6.2258853891E-03  6.2258853891E-03 -6.2258853891E-03
             xred2     2.4902118660E-01  2.5097881340E-01  2.4902118660E-01
                       7.4902118660E-01  7.5097881340E-01  7.4902118660E-01
                       7.5947589849E-01  2.4052410151E-01  7.5947589849E-01
                       2.5132357236E-01  2.5212326809E-01  7.4787673191E-01
                       7.4787673191E-01  7.4867642764E-01  2.5132357236E-01
                       2.5035466955E-01  7.4964533045E-01  2.5035466955E-01
                       2.5132357236E-01  7.4867642764E-01  7.4787673191E-01
                       7.4787673191E-01  2.5212326809E-01  2.5132357236E-01
                      -6.2703498195E-03  6.2703498195E-03 -6.2703498195E-03
             xred3     2.4910346808E-01  2.5089653192E-01  2.4910346808E-01
                       7.4910346808E-01  7.5089653192E-01  7.4910346808E-01
                       7.5917081169E-01  2.4082918831E-01  7.5917081169E-01
                       2.5150063063E-01  2.5225226493E-01  7.4774773507E-01
                       7.4774773507E-01  7.4849936937E-01  2.5150063063E-01
                       2.5048802495E-01  7.4951197505E-01  2.5048802495E-01
                       2.5150063063E-01  7.4849936937E-01  7.4774773507E-01
                       7.4774773507E-01  2.5225226493E-01  2.5150063063E-01
                      -6.3593042191E-03  6.3593042191E-03 -6.3593042191E-03
             xred4     2.4910634068E-01  2.5089365932E-01  2.4910634068E-01
                       7.4910634068E-01  7.5089365932E-01  7.4910634068E-01
                       7.5890801716E-01  2.4109198284E-01  7.5890801716E-01
                       2.5167093501E-01  2.5237693443E-01  7.4762306557E-01
                       7.4762306557E-01  7.4832906499E-01  2.5167093501E-01
                       2.5067382619E-01  7.4932617381E-01  2.5067382619E-01
                       2.5167093501E-01  7.4832906499E-01  7.4762306557E-01
                       7.4762306557E-01  2.5237693443E-01  2.5167093501E-01
                      -6.3793259011E-03  6.3793259011E-03 -6.3793259011E-03
             xred5     2.4912143702E-01  2.5087856298E-01  2.4912143702E-01
                       7.4912143702E-01  7.5087856298E-01  7.4912143702E-01
                       7.5865689468E-01  2.4134310532E-01  7.5865689468E-01
                       2.5185771210E-01  2.5251106382E-01  7.4748893618E-01
                       7.4748893618E-01  7.4814228790E-01  2.5185771210E-01
                       2.5082542363E-01  7.4917457637E-01  2.5082542363E-01
                       2.5185771210E-01  7.4814228790E-01  7.4748893618E-01
                       7.4748893618E-01  2.5251106382E-01  2.5185771210E-01
                      -6.4152889305E-03  6.4152889305E-03 -6.4152889305E-03
             xred6     2.4910414494E-01  2.5089585506E-01  2.4910414494E-01
                       7.4910414494E-01  7.5089585506E-01  7.4910414494E-01
                       7.5843437331E-01  2.4156562669E-01  7.5843437331E-01
                       2.5205106050E-01  2.5264338248E-01  7.4735661752E-01
                       7.4735661752E-01  7.4794893950E-01  2.5205106050E-01
                       2.5098011248E-01  7.4901988752E-01  2.5098011248E-01
                       2.5205106050E-01  7.4794893950E-01  7.4735661752E-01
                       7.4735661752E-01  2.5264338248E-01  2.5205106050E-01
                      -6.4349317320E-03  6.4349317320E-03 -6.4349317320E-03
             xred7     2.4915516615E-01  2.5084483385E-01  2.4915516615E-01
                       7.4915516615E-01  7.5084483385E-01  7.4915516615E-01
                       7.5816678647E-01  2.4183321353E-01  7.5816678647E-01
                       2.5223805129E-01  2.5277759473E-01  7.4722240527E-01
                       7.4722240527E-01  7.4776194871E-01  2.5223805129E-01
                       2.5110564453E-01  7.4889435547E-01  2.5110564453E-01
                       2.5223805129E-01  7.4776194871E-01  7.4722240527E-01
                       7.4722240527E-01  2.5277759473E-01  2.5223805129E-01
                      -6.5004764407E-03  6.5004764407E-03 -6.5004764407E-03
             xred8     2.4914904932E-01  2.5085095068E-01  2.4914904932E-01
                       7.4914904932E-01  7.5085095068E-01  7.4914904932E-01
                       7.5792531530E-01  2.4207468470E-01  7.5792531530E-01
                       2.5242646006E-01  2.5290362747E-01  7.4709637253E-01
                       7.4709637253E-01  7.4757353994E-01  2.5242646006E-01
                       2.5126672348E-01  7.4873327652E-01  2.5126672348E-01
                       2.5242646006E-01  7.4757353994E-01  7.4709637253E-01
                       7.4709637253E-01  2.5290362747E-01  2.5242646006E-01
                      -6.5326026246E-03  6.5326026246E-03 -6.5326026246E-03
             xred9     2.4922614890E-01  2.5077385110E-01  2.4922614890E-01
                       7.4922614890E-01  7.5077385110E-01  7.4922614890E-01
                       7.5763286846E-01  2.4236713154E-01  7.5763286846E-01
                       2.5260784610E-01  2.5303714904E-01  7.4696285096E-01
                       7.4696285096E-01  7.4739215390E-01  2.5260784610E-01
                       2.5138614742E-01  7.4861385258E-01  2.5138614742E-01
                       2.5260784610E-01  7.4739215390E-01  7.4696285096E-01
                       7.4696285096E-01  2.5303714904E-01  2.5260784610E-01
                      -6.6095078187E-03  6.6095078187E-03 -6.6095078187E-03
             xred10    2.4921750776E-01  2.5078249224E-01  2.4921750776E-01
                       7.4921750776E-01  7.5078249224E-01  7.4921750776E-01
                       7.5737047087E-01  2.4262952913E-01  7.5737047087E-01
                       2.5278895847E-01  2.5315174383E-01  7.4684825617E-01
                       7.4684825617E-01  7.4721104153E-01  2.5278895847E-01
                       2.5156035196E-01  7.4843964804E-01  2.5156035196E-01
                       2.5278895847E-01  7.4721104153E-01  7.4684825617E-01
                       7.4684825617E-01  2.5315174383E-01  2.5278895847E-01
                      -6.6370676512E-03  6.6370676512E-03 -6.6370676512E-03
            znucl       55.00000   53.00000   72.00000   35.00000

- Timing analysis has been suppressed with timopt=0

 Suggested references for the acknowledgment of ABINIT usage.

 Calculation completed.
.Delivered   0 WARNINGs and   4 COMMENTs to log file.