.Version 9.2.2 of ABINIT

 ABINIT is a project of the Universite Catholique de Louvain,
 Corning Inc. and other collaborators, see ~abinit/doc/developers/contributors.txt .
 acknowledgments of the ABINIT effort.

.Starting date : Wed 26 Oct 2022.
- ( at 21h34 )

- input  file    -> Cs2TiI6.in
- output file    -> Cs2TiI6.out
- root for input  files -> Cs2TiI6i
- root for output files -> Cs2TiI6o

- inpspheads : Reading pseudopotential header in XML form from
-   ../../../Psps_for_tests/ATOMICDATA/Cs.GGA_PBE-JTH.xml
- inpspheads : Reading pseudopotential header in XML form from
-   ../../../Psps_for_tests/ATOMICDATA/I.GGA_PBE-JTH.xml
- inpspheads : Reading pseudopotential header in XML form from
-   ../../../Psps_for_tests/ATOMICDATA/Hf.GGA_PBE-JTH.xml
- inpspheads : Reading pseudopotential header in XML form from
-   ../../../Psps_for_tests/ATOMICDATA/Br.GGA_PBE-JTH.xml

 DATASET    1 : space group I4 m m (#107); Bravais tI (body-center tetrag.)
     intxc =       0    ionmov =       0      iscf =      17    lmnmax =      18
     lnmax =       6     mgfft =      60  mpssoang =       3    mqgrid =    3627
     natom =       9  nloc_mem =       2    nspden =       1   nspinor =       1
    nsppol =       1      nsym =       8    n1xccc =       1    ntypat =       4
    occopt =       1   xclevel =       2
-    mband =          42        mffmem =           1         mkmem =          28
       mpw =        8248          nfft =      216000          nkpt =         163
Pmy_natom=         2
 PAW method is used; the additional fine FFT grid is defined by:
   mgfftf=        90    nfftf =    729000
  Rough estimation (10% accuracy) of disk space for files :

 DATASET    2 : space group I4/m m m (#139); Bravais tI (body-center tetrag.)
     intxc =       0    ionmov =       0      iscf =      17    lmnmax =      18
     lnmax =       6     mgfft =      60  mpssoang =       3    mqgrid =    3591
     natom =       9  nloc_mem =       2    nspden =       1   nspinor =       1
    nsppol =       1      nsym =      16    n1xccc =       1    ntypat =       4
    occopt =       1   xclevel =       2
-    mband =          42        mffmem =           1         mkmem =          28
       mpw =        7993          nfft =      216000          nkpt =         163
Pmy_natom=         2
 PAW method is used; the additional fine FFT grid is defined by:
   mgfftf=        90    nfftf =    729000
  Rough estimation (10% accuracy) of disk space for files :

[...]

 DATASET   10 : space group I4/m m m (#139); Bravais tI (body-center tetrag.)
     intxc =       0    ionmov =       0      iscf =      17    lmnmax =      18
     lnmax =       6     mgfft =      54  mpssoang =       3    mqgrid =    3296
     natom =       9  nloc_mem =       2    nspden =       1   nspinor =       1
    nsppol =       1      nsym =      16    n1xccc =       1    ntypat =       4
    occopt =       1   xclevel =       2
-    mband =          42        mffmem =           1         mkmem =          28
       mpw =        6212          nfft =      157464          nkpt =         163
Pmy_natom=         2
 PAW method is used; the additional fine FFT grid is defined by:
   mgfftf=        90    nfftf =    729000
  Rough estimation (10% accuracy) of disk space for files :

------------- Echo of variables that govern the present computation ------------
-
- outvars: echo of selected default values
-   iomode0 =  0 , fftalg0 =112 , wfoptalg0 = 10
-
- outvars: echo of global parameters not present in the input file
-  max_nthreads =    0
-
 -outvars: echo values of preprocessed input variables --------
            acell1     1.5517150267E+01  1.5798698106E+01  1.5517150267E+01 Bohr
            acell2     1.5359217149E+01  1.5641849954E+01  1.5359217149E+01 Bohr
            acell3     1.5199297530E+01  1.5489578171E+01  1.5199297530E+01 Bohr
            acell4     1.5040013815E+01  1.5335874673E+01  1.5040013815E+01 Bohr
            acell5     1.4877171075E+01  1.5190504331E+01  1.4877171075E+01 Bohr
            acell6     1.4715706158E+01  1.5042040203E+01  1.4715706158E+01 Bohr
            acell7     1.4553959144E+01  1.4894354688E+01  1.4553959144E+01 Bohr
            acell8     1.4391291818E+01  1.4749014473E+01  1.4391291818E+01 Bohr
            acell9     1.4228970816E+01  1.4603012639E+01  1.4228970816E+01 Bohr
            acell10    1.4067585625E+01  1.4454874268E+01  1.4067585625E+01 Bohr
              amu      1.32905430E+02  1.26904470E+02  1.78490000E+02
                       7.99040000E+01
           diemac      1.20000000E+01
             ecut      1.60000000E+01 Hartree
-          fftalg         112
           istwfk        2    0    0    0    0    0    3    0    0    0
                         0    0    0    0    0    0    0    0    0    0
                         0    0    0    0    0    0    0    0    0    0
                         0    0    0    0    0    0    0    0    0    0
                         0    0    7    0    0    0    0    0    0    0
                       outvar_i_n : Printing only first  50 k-points.
              ixc     -101130
           jdtset        1    2    3    4    5    6    7    8    9   10
              kpt      0.00000000E+00  0.00000000E+00  0.00000000E+00
                       8.33333333E-02  0.00000000E+00  0.00000000E+00
                       1.66666667E-01  0.00000000E+00  0.00000000E+00
                       2.50000000E-01  0.00000000E+00  0.00000000E+00
                       3.33333333E-01  0.00000000E+00  0.00000000E+00
                       4.16666667E-01  0.00000000E+00  0.00000000E+00
                       5.00000000E-01  0.00000000E+00  0.00000000E+00
                       8.33333333E-02  8.33333333E-02  0.00000000E+00
                       1.66666667E-01  8.33333333E-02  0.00000000E+00
                       2.50000000E-01  8.33333333E-02  0.00000000E+00
                       3.33333333E-01  8.33333333E-02  0.00000000E+00
                       4.16666667E-01  8.33333333E-02  0.00000000E+00
                       5.00000000E-01  8.33333333E-02  0.00000000E+00
                      -4.16666667E-01  8.33333333E-02  0.00000000E+00
                      -3.33333333E-01  8.33333333E-02  0.00000000E+00
                      -2.50000000E-01  8.33333333E-02  0.00000000E+00
                      -1.66666667E-01  8.33333333E-02  0.00000000E+00
                      -8.33333333E-02  8.33333333E-02  0.00000000E+00
                       1.66666667E-01  1.66666667E-01  0.00000000E+00
                       2.50000000E-01  1.66666667E-01  0.00000000E+00
                       3.33333333E-01  1.66666667E-01  0.00000000E+00
                       4.16666667E-01  1.66666667E-01  0.00000000E+00
                       5.00000000E-01  1.66666667E-01  0.00000000E+00
                      -4.16666667E-01  1.66666667E-01  0.00000000E+00
                      -3.33333333E-01  1.66666667E-01  0.00000000E+00
                      -2.50000000E-01  1.66666667E-01  0.00000000E+00
                      -1.66666667E-01  1.66666667E-01  0.00000000E+00
                       2.50000000E-01  2.50000000E-01  0.00000000E+00
                       3.33333333E-01  2.50000000E-01  0.00000000E+00
                       4.16666667E-01  2.50000000E-01  0.00000000E+00
                       5.00000000E-01  2.50000000E-01  0.00000000E+00
                      -4.16666667E-01  2.50000000E-01  0.00000000E+00
                      -3.33333333E-01  2.50000000E-01  0.00000000E+00
                      -2.50000000E-01  2.50000000E-01  0.00000000E+00
                       3.33333333E-01  3.33333333E-01  0.00000000E+00
                       4.16666667E-01  3.33333333E-01  0.00000000E+00
                       5.00000000E-01  3.33333333E-01  0.00000000E+00
                      -4.16666667E-01  3.33333333E-01  0.00000000E+00
                      -3.33333333E-01  3.33333333E-01  0.00000000E+00
                       4.16666667E-01  4.16666667E-01  0.00000000E+00
                       5.00000000E-01  4.16666667E-01  0.00000000E+00
                      -4.16666667E-01  4.16666667E-01  0.00000000E+00
                       5.00000000E-01  5.00000000E-01  0.00000000E+00
                       8.33333333E-02  0.00000000E+00  8.33333333E-02
                       1.66666667E-01  0.00000000E+00  8.33333333E-02
                       2.50000000E-01  0.00000000E+00  8.33333333E-02
                       3.33333333E-01  0.00000000E+00  8.33333333E-02
                       4.16666667E-01  0.00000000E+00  8.33333333E-02
                       5.00000000E-01  0.00000000E+00  8.33333333E-02
                      -4.16666667E-01  0.00000000E+00  8.33333333E-02
                       outvar_i_n : Printing only first  50 k-points.
         kptrlatt       12    0    0      0   12    0      0    0   12
          kptrlen1     1.86205803E+02
          kptrlen2     1.84310606E+02
          kptrlen3     1.82391570E+02
          kptrlen4     1.80480166E+02
          kptrlen5     1.78526053E+02
          kptrlen6     1.76588474E+02
          kptrlen7     1.74647510E+02
          kptrlen8     1.72695502E+02
          kptrlen9     1.70747650E+02
          kptrlen10    1.68811028E+02
P           mkmem          28
            natom           9
            nband          42
           ndtset          10
            ngfft1         60      60      60
            ngfft2         60      60      60
            ngfft3         60      60      60
            ngfft4         60      60      60
            ngfft5         60      60      60
            ngfft6         60      60      60
            ngfft7         54      54      54
            ngfft8         54      54      54
            ngfft9         54      54      54
            ngfft10        54      54      54
          ngfftdg          90      90      90
             nkpt         163
            nstep        2500
             nsym1          8
             nsym2         16
             nsym3         16
             nsym4         16
             nsym5         16
             nsym6         16
             nsym7         16
             nsym8         16
             nsym9         16
             nsym10        16
           ntypat           4
              occ      2.000000  2.000000  2.000000  2.000000  2.000000  2.000000
                       2.000000  2.000000  2.000000  2.000000  2.000000  2.000000
                       2.000000  2.000000  2.000000  2.000000  2.000000  2.000000
                       2.000000  2.000000  2.000000  2.000000  2.000000  2.000000
                       2.000000  2.000000  2.000000  2.000000  2.000000  2.000000
                       2.000000  2.000000  2.000000  2.000000  2.000000  2.000000
                       0.000000  0.000000  0.000000  0.000000  0.000000  0.000000
        pawecutdg      4.00000000E+01 Hartree
            prtwf           0
            rprim1     0.0000000000E+00  6.9403969021E-01  7.1993673917E-01
                       7.0710678119E-01  0.0000000000E+00  7.0710678119E-01
                       7.1993673917E-01  6.9403969021E-01  0.0000000000E+00
            rprim2     0.0000000000E+00  6.9385097903E-01  7.2011861446E-01
[...]
                       0.0000000000E+00  2.8489499033E-22  2.9797045161E-22
           xangst7     2.7866205103E+00  2.6577240572E+00  2.7866205103E+00
                       8.3598615308E+00  7.9731721716E+00  8.3598615308E+00
                       5.5732410206E+00  8.0479188936E+00  5.5732410206E+00
                       5.5732410206E+00  5.3154481144E+00  2.8316175384E+00
                       5.5732410205E+00  5.3154481144E+00  8.3148645027E+00
                       5.5732410205E+00  2.5829773352E+00  5.5732410205E+00
                       8.3148645027E+00  5.3154481144E+00  5.5732410205E+00
                       2.8316175384E+00  5.3154481144E+00  5.5732410206E+00
                       0.0000000000E+00  0.0000000000E+00  0.0000000000E+00
           xangst8     2.7594284611E+00  2.6238675218E+00  2.7594284611E+00
                       8.2782853833E+00  7.8716025655E+00  8.2782853833E+00
                       5.5188569222E+00  7.9185562057E+00  5.5188569222E+00
                       5.5188569222E+00  5.2477350437E+00  2.8205533558E+00
                       5.5188569223E+00  5.2477350437E+00  8.2171604886E+00
                       5.5188569223E+00  2.5769138817E+00  5.5188569223E+00
                       8.2171604886E+00  5.2477350437E+00  5.5188569223E+00
                       2.8205533558E+00  5.2477350437E+00  5.5188569222E+00
                       2.9216585276E-22  5.5562556006E-22  2.9216585276E-22
           xangst9     2.7321126281E+00  2.5902619155E+00  2.7321126281E+00
                       8.1963378842E+00  7.7707857464E+00  8.1963378842E+00
                       5.4642252560E+00  7.7914205537E+00  5.4642252560E+00
                       5.4642252560E+00  5.1805238309E+00  2.8079934051E+00
                       5.4642252562E+00  5.1805238309E+00  8.1204571071E+00
                       5.4642252562E+00  2.5696271082E+00  5.4642252562E+00
                       8.1204571071E+00  5.1805238309E+00  5.4642252562E+00
                       2.8079934051E+00  5.1805238309E+00  5.4642252560E+00
                       0.0000000000E+00  0.0000000000E+00  0.0000000000E+00
           xangst10    2.7043970653E+00  2.5574274177E+00  2.7043970653E+00
                       8.1131911959E+00  7.6722822530E+00  8.1131911959E+00
                       5.4087941305E+00  7.6684934464E+00  5.4087941305E+00
                       5.4087941305E+00  5.1148548354E+00  2.7941095312E+00
                       5.4087941306E+00  5.1148548354E+00  8.0234787300E+00
                       5.4087941306E+00  2.5612162244E+00  5.4087941306E+00
                       8.0234787300E+00  5.1148548354E+00  5.4087941306E+00
                       2.7941095312E+00  5.1148548354E+00  5.4087941305E+00
                       0.0000000000E+00  0.0000000000E+00  0.0000000000E+00
            xcart1     5.5856832823E+00  5.3847073925E+00  5.5856832823E+00
                       1.6757049847E+01  1.6154225557E+01  1.6757049847E+01
                       1.1171366565E+01  1.6624886758E+01  1.1171366565E+01
                       1.1171366565E+01  1.0769545371E+01  5.4335589855E+00
                       1.1171366565E+01  1.0769545371E+01  1.6909174144E+01
                       1.1171366565E+01  4.9141910033E+00  1.1171366565E+01
                       1.6909174144E+01  1.0769545371E+01  1.1171366565E+01
                       5.4335589855E+00  1.0769545371E+01  1.1171366565E+01
                      -2.9815127865E-16  2.2042753113E-05 -2.9815127865E-16
            xcart2     5.5302290863E+00  5.3285039280E+00  5.5302290863E+00
                       1.6590687259E+01  1.5985511784E+01  1.6590687259E+01
                       1.1060458173E+01  1.6402396753E+01  1.1060458173E+01
                       1.1060458173E+01  1.0657007856E+01  5.4241061429E+00
                       1.1060458173E+01  1.0657007856E+01  1.6696810202E+01
                       1.1060458173E+01  4.9116189588E+00  1.1060458173E+01
                       1.6696810202E+01  1.0657007856E+01  1.1060458173E+01
                       5.4241061429E+00  1.0657007856E+01  1.1060458173E+01
                      -3.9934834482E-33  2.8208864916E-22 -3.9934834482E-33
            xcart3     5.4763928812E+00  5.2691348780E+00  5.4763928812E+00
                       1.6429178644E+01  1.5807404634E+01  1.6429178644E+01
                       1.0952785762E+01  1.6168190816E+01  1.0952785762E+01
                       1.0952785762E+01  1.0538269756E+01  5.4132714694E+00
                       1.0952785762E+01  1.0538269756E+01  1.6492300055E+01
                       1.0952785762E+01  4.9083486960E+00  1.0952785762E+01
                       1.6492300055E+01  1.0538269756E+01  1.0952785762E+01
                       5.4132714694E+00  1.0538269756E+01  1.0952785762E+01
                       7.2479456288E-23  1.3947283891E-22  7.2479456288E-23
            xcart4     5.4220504883E+00  5.2107458575E+00  5.4220504883E+00
                       1.6266151465E+01  1.5632237573E+01  1.6266151465E+01
                       1.0844100977E+01  1.5939011713E+01  1.0844100977E+01
                       1.0844100977E+01  1.0421491715E+01  5.4006937638E+00
                       1.0844100977E+01  1.0421491715E+01  1.6287508189E+01
                       1.0844100977E+01  4.9039717177E+00  1.0844100977E+01
                       1.6287508189E+01  1.0421491715E+01  1.0844100977E+01
                       5.4006937638E+00  1.0421491715E+01  1.0844100977E+01
                      -2.8704096283E-22  0.0000000000E+00 -2.8704096283E-22
            xcart5     5.3706543111E+00  5.1467103152E+00  5.3706543111E+00
                       1.6111962933E+01  1.5440130946E+01  1.6111962933E+01
                       1.0741308622E+01  1.5688950449E+01  1.0741308622E+01
                       1.0741308622E+01  1.0293420630E+01  5.3864911336E+00
                       1.0741308622E+01  1.0293420630E+01  1.6096126111E+01
                       1.0741308622E+01  4.8978908117E+00  1.0741308622E+01
                       1.6096126111E+01  1.0293420630E+01  1.0741308622E+01
                       5.3864911336E+00  1.0293420630E+01  1.0741308622E+01
                       0.0000000000E+00  5.4492915087E-22  5.6864014373E-22
            xcart6     5.3181643152E+00  5.0847940222E+00  5.3181643152E+00
                       1.5954492946E+01  1.5254382067E+01  1.5954492946E+01
                       1.0636328630E+01  1.5448774877E+01  1.0636328630E+01
                       1.0636328630E+01  1.0169588044E+01  5.3698151652E+00
                       1.0636328630E+01  1.0169588044E+01  1.5902842096E+01
                       1.0636328630E+01  4.8904012119E+00  1.0636328630E+01
                       1.5902842096E+01  1.0169588044E+01  1.0636328630E+01
                       5.3698151652E+00  1.0169588044E+01  1.0636328630E+01
                       0.0000000000E+00  5.3837350835E-22  5.6308254923E-22
            xcart7     5.2659496007E+00  5.0223706049E+00  5.2659496007E+00
                       1.5797848802E+01  1.5067111815E+01  1.5797848802E+01
                       1.0531899201E+01  1.5208362649E+01  1.0531899201E+01
                       1.0531899201E+01  1.0044741210E+01  5.3509816607E+00
                       1.0531899201E+01  1.0044741210E+01  1.5712816742E+01
                       1.0531899201E+01  4.8811197710E+00  1.0531899201E+01
                       1.5712816742E+01  1.0044741210E+01  1.0531899201E+01
                       5.3509816607E+00  1.0044741210E+01  1.0531899201E+01
                       0.0000000000E+00  0.0000000000E+00  0.0000000000E+00
            xcart8     5.2145640748E+00  4.9583910252E+00  5.2145640748E+00
                       1.5643692224E+01  1.4875173076E+01  1.5643692224E+01
                       1.0429128149E+01  1.4963902597E+01  1.0429128149E+01
                       1.0429128149E+01  9.9167820505E+00  5.3300733856E+00
                       1.0429128150E+01  9.9167820505E+00  1.5528182914E+01
                       1.0429128150E+01  4.8696615044E+00  1.0429128150E+01
                       1.5528182914E+01  9.9167820505E+00  1.0429128150E+01
                       5.3300733856E+00  9.9167820505E+00  1.0429128149E+01
                       5.5211344710E-22  1.0499801409E-21  5.5211344710E-22
            xcart9     5.1629446312E+00  4.8948856327E+00  5.1629446312E+00
                       1.5488833894E+01  1.4684656898E+01  1.5488833894E+01
                       1.0325889262E+01  1.4723651033E+01  1.0325889262E+01
                       1.0325889262E+01  9.7897712654E+00  5.3063385186E+00
                       1.0325889263E+01  9.7897712654E+00  1.5345440006E+01
                       1.0325889263E+01  4.8558914981E+00  1.0325889263E+01
                       1.5345440006E+01  9.7897712654E+00  1.0325889263E+01
                       5.3063385186E+00  9.7897712654E+00  1.0325889262E+01
                       0.0000000000E+00  0.0000000000E+00  0.0000000000E+00
            xcart10    5.1105698080E+00  4.8328374242E+00  5.1105698080E+00
                       1.5331709424E+01  1.4498512272E+01  1.5331709424E+01
                       1.0221139616E+01  1.4491352465E+01  1.0221139616E+01
                       1.0221139616E+01  9.6656748483E+00  5.2801017993E+00
                       1.0221139616E+01  9.6656748483E+00  1.5162177433E+01
                       1.0221139616E+01  4.8399972311E+00  1.0221139616E+01
                       1.5162177433E+01  9.6656748483E+00  1.0221139616E+01
                       5.2801017993E+00  9.6656748483E+00  1.0221139616E+01
                       0.0000000000E+00  0.0000000000E+00  0.0000000000E+00
             xred1     2.4999760019E-01  2.5000239981E-01  2.4999760019E-01
                       7.4999760019E-01  7.5000239981E-01  7.4999760019E-01
                       7.7184914423E-01  2.2815085577E-01  7.7184914423E-01
                       2.4319259316E-01  2.4319006684E-01  7.5680993316E-01
                       7.5680993316E-01  7.5680740684E-01  2.4319259316E-01
                       2.2815277937E-01  7.7184722063E-01  2.2815277937E-01
                       2.4319259316E-01  7.5680740684E-01  7.5680993316E-01
                       7.5680993316E-01  2.4319006684E-01  2.4319259316E-01
                       1.0233862266E-06 -1.0233862266E-06  1.0233862266E-06
             xred2     2.5000000000E-01  2.5000000000E-01  2.5000000000E-01
                       7.5000000000E-01  7.5000000000E-01  7.5000000000E-01
                       7.6955919404E-01  2.3044080595E-01  7.6955919404E-01
                       2.4520259732E-01  2.4520259731E-01  7.5479740268E-01
                       7.5479740268E-01  7.5479740269E-01  2.4520259732E-01
                       2.3044080596E-01  7.6955919404E-01  2.3044080595E-01
                       2.4520259732E-01  7.5479740269E-01  7.5479740268E-01
                       7.5479740268E-01  2.4520259731E-01  2.4520259732E-01
                       1.3234889801E-23 -1.3234889801E-23  1.3234889801E-23
             xred3     2.5000000000E-01  2.5000000000E-01  2.5000000000E-01
                       7.5000000000E-01  7.5000000000E-01  7.5000000000E-01
                       7.6711790410E-01  2.3288209590E-01  7.6711790410E-01
                       2.4711847684E-01  2.4711847683E-01  7.5288152317E-01
                       7.5288152317E-01  7.5288152316E-01  2.4711847683E-01
                       2.3288209590E-01  7.6711790410E-01  2.3288209590E-01
                       2.4711847683E-01  7.5288152316E-01  7.5288152317E-01
                       7.5288152317E-01  2.4711847683E-01  2.4711847683E-01
                       6.6174449004E-24  0.0000000000E+00  6.6174449004E-24
             xred4     2.5000000000E-01  2.5000000000E-01  2.5000000000E-01
                       7.5000000000E-01  7.5000000000E-01  7.5000000000E-01
                       7.6471834111E-01  2.3528165889E-01  7.6471834111E-01
                       2.4901528377E-01  2.4901528377E-01  7.5098471623E-01
                       7.5098471623E-01  7.5098471623E-01  2.4901528377E-01
                       2.3528165889E-01  7.6471834111E-01  2.3528165889E-01
                       2.4901528377E-01  7.5098471623E-01  7.5098471623E-01
                       7.5098471623E-01  2.4901528377E-01  2.4901528377E-01
                       0.0000000000E+00 -2.6469779602E-23  0.0000000000E+00
             xred5     2.5000000000E-01  2.5000000000E-01  2.5000000000E-01
                       7.5000000000E-01  7.5000000000E-01  7.5000000000E-01
                       7.6208633711E-01  2.3791366289E-01  7.6208633711E-01
                       2.5073719242E-01  2.5073719242E-01  7.4926280758E-01
                       7.4926280758E-01  7.4926280758E-01  2.5073719242E-01
                       2.3791366289E-01  7.6208633711E-01  2.3791366289E-01
                       2.5073719242E-01  7.4926280758E-01  7.4926280758E-01
                       7.4926280758E-01  2.5073719242E-01  2.5073719242E-01
                       5.2939559203E-23  0.0000000000E+00  0.0000000000E+00
             xred6     2.5000000000E-01  2.5000000000E-01  2.5000000000E-01
                       7.5000000000E-01  7.5000000000E-01  7.5000000000E-01
                       7.5955755580E-01  2.4044244420E-01  7.5955755580E-01
                       2.5242803940E-01  2.5242803940E-01  7.4757196060E-01
                       7.4757196060E-01  7.4757196060E-01  2.5242803940E-01
                       2.4044244420E-01  7.5955755580E-01  2.4044244420E-01
                       2.5242803940E-01  7.4757196060E-01  7.4757196060E-01
                       7.4757196060E-01  2.5242803940E-01  2.5242803940E-01
                       5.2939559203E-23  0.0000000000E+00  0.0000000000E+00
             xred7     2.5000000000E-01  2.5000000000E-01  2.5000000000E-01
                       7.5000000000E-01  7.5000000000E-01  7.5000000000E-01
                       7.5703108378E-01  2.4296891622E-01  7.5703108378E-01
                       2.5403688159E-01  2.5403688159E-01  7.4596311841E-01
                       7.4596311841E-01  7.4596311841E-01  2.5403688159E-01
                       2.4296891623E-01  7.5703108378E-01  2.4296891623E-01
                       2.5403688159E-01  7.4596311841E-01  7.4596311841E-01
                       7.4596311841E-01  2.5403688159E-01  2.5403688159E-01
                       0.0000000000E+00  0.0000000000E+00  0.0000000000E+00
             xred8     2.5000000000E-01  2.5000000000E-01  2.5000000000E-01
                       7.5000000000E-01  7.5000000000E-01  7.5000000000E-01
                       7.5447370530E-01  2.4552629470E-01  7.5447370530E-01
                       2.5553782201E-01  2.5553782201E-01  7.4446217799E-01
                       7.4446217799E-01  7.4446217799E-01  2.5553782201E-01
                       2.4552629470E-01  7.5447370530E-01  2.4552629470E-01
                       2.5553782201E-01  7.4446217799E-01  7.4446217799E-01
                       7.4446217799E-01  2.5553782201E-01  2.5553782201E-01
                       5.2939559203E-23  0.0000000000E+00  5.2939559203E-23
             xred9     2.5000000000E-01  2.5000000000E-01  2.5000000000E-01
                       7.5000000000E-01  7.5000000000E-01  7.5000000000E-01
                       7.5199157536E-01  2.4800842463E-01  7.5199157537E-01
                       2.5694341590E-01  2.5694341590E-01  7.4305658410E-01
                       7.4305658410E-01  7.4305658410E-01  2.5694341590E-01
                       2.4800842463E-01  7.5199157537E-01  2.4800842463E-01
                       2.5694341590E-01  7.4305658410E-01  7.4305658410E-01
                       7.4305658410E-01  2.5694341590E-01  2.5694341590E-01
                       0.0000000000E+00  0.0000000000E+00  0.0000000000E+00
             xred10    2.5000000000E-01  2.5000000000E-01  2.5000000000E-01
                       7.5000000000E-01  7.5000000000E-01  7.5000000000E-01
                       7.4962962716E-01  2.5037037285E-01  7.4962962716E-01
                       2.5829320397E-01  2.5829320397E-01  7.4170679603E-01
                       7.4170679603E-01  7.4170679603E-01  2.5829320397E-01
                       2.5037037285E-01  7.4962962715E-01  2.5037037285E-01
                       2.5829320397E-01  7.4170679603E-01  7.4170679603E-01
                       7.4170679603E-01  2.5829320397E-01  2.5829320397E-01
                       0.0000000000E+00  0.0000000000E+00  0.0000000000E+00
            znucl       55.00000   53.00000   72.00000   35.00000

- Timing analysis has been suppressed with timopt=0

 Suggested references for the acknowledgment of ABINIT usage.

 Calculation completed.
.Delivered   0 WARNINGs and   1 COMMENTs to log file.