.Version 9.2.2 of ABINIT

 ABINIT is a project of the Universite Catholique de Louvain,
 Corning Inc. and other collaborators, see ~abinit/doc/developers/contributors.txt .
 acknowledgments of the ABINIT effort.

.Starting date : Tue 22 Nov 2022.
- ( at 00h55 )

- input  file    -> Cs2TiI6.in
- output file    -> Cs2TiI6.out
- root for input  files -> Cs2TiI6i
- root for output files -> Cs2TiI6o

- inpspheads : Reading pseudopotential header in XML form from
-   ../../../Psps_for_tests/ATOMICDATA/Cs.GGA_PBE-JTH.xml
- inpspheads : Reading pseudopotential header in XML form from
-   ../../../Psps_for_tests/ATOMICDATA/I.GGA_PBE-JTH.xml
- inpspheads : Reading pseudopotential header in XML form from
-   ../../../Psps_for_tests/ATOMICDATA/Hf.GGA_PBE-JTH.xml
- inpspheads : Reading pseudopotential header in XML form from
-   ../../../Psps_for_tests/ATOMICDATA/Br.GGA_PBE-JTH.xml

 DATASET    1 : space group Fm m 2 (# 42); Bravais oF (face-center ortho.)
     intxc =       0    ionmov =       0      iscf =      17    lmnmax =      18
     lnmax =       6     mgfft =      64  mpssoang =       3    mqgrid =    3959
     natom =       9  nloc_mem =       2    nspden =       1   nspinor =       1
    nsppol =       1      nsym =       4    n1xccc =       1    ntypat =       4
    occopt =       1   xclevel =       2
-    mband =          42        mffmem =           1         mkmem =          47
       mpw =       10716          nfft =      262144          nkpt =         280
Pmy_natom=         2
 PAW method is used; the additional fine FFT grid is defined by:
   mgfftf=       100    nfftf =   1000000
  Rough estimation (10% accuracy) of disk space for files :

[...]

 DATASET   10 : space group Fm m 2 (# 42); Bravais oF (face-center ortho.)
     intxc =       0    ionmov =       0      iscf =      17    lmnmax =      18
     lnmax =       6     mgfft =      64  mpssoang =       3    mqgrid =    3923
     natom =       9  nloc_mem =       2    nspden =       1   nspinor =       1
    nsppol =       1      nsym =       4    n1xccc =       1    ntypat =       4
    occopt =       1   xclevel =       2
-    mband =          42        mffmem =           1         mkmem =          47
       mpw =       10420          nfft =      262144          nkpt =         280
Pmy_natom=         2
 PAW method is used; the additional fine FFT grid is defined by:
   mgfftf=       100    nfftf =   1000000
  Rough estimation (10% accuracy) of disk space for files :

------------- Echo of variables that govern the present computation ------------
-
- outvars: echo of selected default values
-   iomode0 =  0 , fftalg0 =112 , wfoptalg0 = 10
-
- outvars: echo of global parameters not present in the input file
-  max_nthreads =    0
-
 -outvars: echo values of preprocessed input variables --------
            acell1     1.4769037655E+01  1.4920412059E+01  1.4739623535E+01 Bohr
            acell2     1.4754144726E+01  1.4905705933E+01  1.4724766955E+01 Bohr
            acell3     1.4739155316E+01  1.4890980643E+01  1.4710023204E+01 Bohr
            acell4     1.4724010344E+01  1.4876305545E+01  1.4695387150E+01 Bohr
            acell5     1.4708981383E+01  1.4861575987E+01  1.4680686468E+01 Bohr
            acell6     1.4692675475E+01  1.4848623748E+01  1.4665621482E+01 Bohr
            acell7     1.4677220851E+01  1.4834681125E+01  1.4650622681E+01 Bohr
            acell8     1.4662093276E+01  1.4820285569E+01  1.4635714956E+01 Bohr
            acell9     1.4646721286E+01  1.4806279463E+01  1.4620693527E+01 Bohr
            acell10    1.4631161580E+01  1.4792627068E+01  1.4605535707E+01 Bohr
              amu      1.32905430E+02  1.26904470E+02  1.78490000E+02
                       7.99040000E+01
           diemac      1.20000000E+01
          dilatmx      1.15000000E+00
             ecut      1.60000000E+01 Hartree
           ecutsm      5.00000000E-01 Hartree
-          fftalg         112
           istwfk        2    0    0    0    0    0    3    0    0    0
                         0    0    0    0    0    0    0    0    0    0
                         0    0    0    0    0    0    0    0    0    0
                         0    0    0    0    0    0    0    0    0    0
                         0    0    7    0    0    0    0    0    0    0
                       outvar_i_n : Printing only first  50 k-points.
              ixc     -101130
           jdtset        1    2    3    4    5    6    7    8    9   10
              kpt      0.00000000E+00  0.00000000E+00  0.00000000E+00
                       8.33333333E-02  0.00000000E+00  0.00000000E+00
                       1.66666667E-01  0.00000000E+00  0.00000000E+00
                       2.50000000E-01  0.00000000E+00  0.00000000E+00
                       3.33333333E-01  0.00000000E+00  0.00000000E+00
                       4.16666667E-01  0.00000000E+00  0.00000000E+00
                       5.00000000E-01  0.00000000E+00  0.00000000E+00
                       8.33333333E-02  8.33333333E-02  0.00000000E+00
                       1.66666667E-01  8.33333333E-02  0.00000000E+00
                       2.50000000E-01  8.33333333E-02  0.00000000E+00
                       3.33333333E-01  8.33333333E-02  0.00000000E+00
                       4.16666667E-01  8.33333333E-02  0.00000000E+00
                       5.00000000E-01  8.33333333E-02  0.00000000E+00
                      -4.16666667E-01  8.33333333E-02  0.00000000E+00
                      -3.33333333E-01  8.33333333E-02  0.00000000E+00
                      -2.50000000E-01  8.33333333E-02  0.00000000E+00
                      -1.66666667E-01  8.33333333E-02  0.00000000E+00
                      -8.33333333E-02  8.33333333E-02  0.00000000E+00
                       1.66666667E-01  1.66666667E-01  0.00000000E+00
                       2.50000000E-01  1.66666667E-01  0.00000000E+00
                       3.33333333E-01  1.66666667E-01  0.00000000E+00
                       4.16666667E-01  1.66666667E-01  0.00000000E+00
                       5.00000000E-01  1.66666667E-01  0.00000000E+00
                      -4.16666667E-01  1.66666667E-01  0.00000000E+00
                      -3.33333333E-01  1.66666667E-01  0.00000000E+00
                      -2.50000000E-01  1.66666667E-01  0.00000000E+00
                      -1.66666667E-01  1.66666667E-01  0.00000000E+00
                       2.50000000E-01  2.50000000E-01  0.00000000E+00
                       3.33333333E-01  2.50000000E-01  0.00000000E+00
                       4.16666667E-01  2.50000000E-01  0.00000000E+00
                       5.00000000E-01  2.50000000E-01  0.00000000E+00
                      -4.16666667E-01  2.50000000E-01  0.00000000E+00
                      -3.33333333E-01  2.50000000E-01  0.00000000E+00
                      -2.50000000E-01  2.50000000E-01  0.00000000E+00
                       3.33333333E-01  3.33333333E-01  0.00000000E+00
                       4.16666667E-01  3.33333333E-01  0.00000000E+00
                       5.00000000E-01  3.33333333E-01  0.00000000E+00
                      -4.16666667E-01  3.33333333E-01  0.00000000E+00
                      -3.33333333E-01  3.33333333E-01  0.00000000E+00
                       4.16666667E-01  4.16666667E-01  0.00000000E+00
                       5.00000000E-01  4.16666667E-01  0.00000000E+00
                      -4.16666667E-01  4.16666667E-01  0.00000000E+00
                       5.00000000E-01  5.00000000E-01  0.00000000E+00
                       8.33333333E-02  0.00000000E+00  8.33333333E-02
                       1.66666667E-01  0.00000000E+00  8.33333333E-02
                       2.50000000E-01  0.00000000E+00  8.33333333E-02
                       3.33333333E-01  0.00000000E+00  8.33333333E-02
                       4.16666667E-01  0.00000000E+00  8.33333333E-02
                       5.00000000E-01  0.00000000E+00  8.33333333E-02
                      -4.16666667E-01  0.00000000E+00  8.33333333E-02
                       outvar_i_n : Printing only first  50 k-points.
         kptrlatt       12    0    0      0   12    0      0    0   12
          kptrlen1     1.76875482E+02
          kptrlen2     1.76697203E+02
          kptrlen3     1.76520278E+02
          kptrlen4     1.76344646E+02
          kptrlen5     1.76168238E+02
          kptrlen6     1.75987458E+02
          kptrlen7     1.75807472E+02
          kptrlen8     1.75628579E+02
          kptrlen9     1.75448322E+02
          kptrlen10    1.75266428E+02
P           mkmem          47
            natom           9
            nband          42
           ndtset          10
            ngfft          64      64      64
          ngfftdg         100     100     100
             nkpt         280
            nstep        2500
             nsym           4
           ntypat           4
              occ      2.000000  2.000000  2.000000  2.000000  2.000000  2.000000
                       2.000000  2.000000  2.000000  2.000000  2.000000  2.000000
                       2.000000  2.000000  2.000000  2.000000  2.000000  2.000000
                       2.000000  2.000000  2.000000  2.000000  2.000000  2.000000
                       2.000000  2.000000  2.000000  2.000000  2.000000  2.000000
                       2.000000  2.000000  2.000000  2.000000  2.000000  2.000000
                       0.000000  0.000000  0.000000  0.000000  0.000000  0.000000
        pawecutdg      4.00000000E+01 Hartree
            prtwf           0
            rprim1     0.0000000000E+00  6.9836123032E-01  7.1574547989E-01
                       7.0572696040E-01  0.0000000000E+00  7.0848391468E-01
                       7.1438303871E-01  6.9975486709E-01  0.0000000000E+00
            rprim2     0.0000000000E+00  6.9834491296E-01  7.1576140056E-01
                       7.0572733734E-01  0.0000000000E+00  7.0848353921E-01
                       7.1439936477E-01  6.9973819934E-01  0.0000000000E+00
            rprim3     0.0000000000E+00  6.9833485688E-01  7.1577121182E-01
                       7.0573755800E-01  0.0000000000E+00  7.0847335817E-01
                       7.1441928872E-01  6.9971785736E-01  0.0000000000E+00
            rprim4     0.0000000000E+00  6.9832735386E-01  7.1577853199E-01
                       7.0576020657E-01  0.0000000000E+00  7.0845079633E-01
                       7.1444898777E-01  6.9968753303E-01  0.0000000000E+00
            rprim5     0.0000000000E+00  6.9831951290E-01  7.1578618170E-01
                       7.0577437170E-01  0.0000000000E+00  7.0843668472E-01
                       7.1447063983E-01  6.9966542349E-01  0.0000000000E+00
            rprim6     0.0000000000E+00  6.9820486017E-01  7.1589801874E-01
                       7.0583199752E-01  0.0000000000E+00  7.0837927078E-01
                       7.1463959256E-01  6.9949285396E-01  0.0000000000E+00
            rprim7     0.0000000000E+00  6.9814302230E-01  7.1595832309E-01
                       7.0585243955E-01  0.0000000000E+00  7.0835890168E-01
                       7.1472019245E-01  6.9941049928E-01  0.0000000000E+00
            rprim8     0.0000000000E+00  6.9810825069E-01  7.1599222783E-01
[...]
                      -1.9667698911E-13  1.3643748579E-14  6.6824066006E-02
           xangst7     2.7705326396E+00  2.7111863316E+00  2.7897728745E+00
                       8.3115979187E+00  8.1335589949E+00  8.3505143202E+00
                       5.5410652792E+00  8.2492033130E+00  5.5838793547E+00
                       5.5410652792E+00  5.4223726633E+00  2.6657902627E+00
                       5.5410652792E+00  5.4223726632E+00  8.3384638956E+00
                       5.5410652792E+00  2.5955420135E+00  5.5838793548E+00
                       8.2393819737E+00  5.4223726633E+00  5.5534153821E+00
                       2.8427485846E+00  5.4223726632E+00  5.5534153820E+00
                      -1.5595419136E-13 -6.3375168126E-13  6.6800739694E-02
           xangst8     2.7678803299E+00  2.7082570618E+00  2.7870631472E+00
                       8.3036409896E+00  8.1247711853E+00  8.3423362881E+00
                       5.5357606596E+00  8.2379218226E+00  5.5782887846E+00
                       5.5357606596E+00  5.4165141235E+00  2.6654841853E+00
                       5.5357606598E+00  5.4165141235E+00  8.3286160552E+00
                       5.5357606598E+00  2.5951064244E+00  5.5782887847E+00
                       8.2297168575E+00  5.4165141235E+00  5.5476282300E+00
                       2.8418044620E+00  5.4165141235E+00  5.5476282299E+00
                       2.1503314871E-12  1.5935561230E-13  6.6851421786E-02
           xangst9     2.7653252780E+00  2.7051853341E+00  2.7842199652E+00
                       8.2959758339E+00  8.1155560023E+00  8.3341219068E+00
                       5.5306505559E+00  8.2260671033E+00  5.5726201335E+00
                       5.5306505559E+00  5.4103706682E+00  2.6653872987E+00
                       5.5306505559E+00  5.4103706681E+00  8.3190435691E+00
                       5.5306505559E+00  2.5946742331E+00  5.5726201337E+00
                       8.2204321687E+00  5.4103706682E+00  5.5420571972E+00
                       2.8408689431E+00  5.4103706681E+00  5.5420571970E+00
                       8.4405566401E-14 -1.1517495969E-12  6.7088131144E-02
           xangst10    2.7628460626E+00  2.7019843906E+00  2.7812742050E+00
                       8.2885381877E+00  8.1059531717E+00  8.3259180417E+00
                       5.5256921251E+00  8.2136826835E+00  5.5672791150E+00
                       5.5256921251E+00  5.4039687811E+00  2.6653295005E+00
                       5.5256921252E+00  5.4039687812E+00  8.3097249530E+00
                       5.5256921252E+00  2.5942548788E+00  5.5672791152E+00
                       8.2114612646E+00  5.4039687811E+00  5.5364824221E+00
                       2.8399229858E+00  5.4039687812E+00  5.5364824219E+00
                       8.4814471917E-13  7.1681672859E-13  6.7380919581E-02
            xcart1     5.2648685252E+00  5.1570616538E+00  5.3029777852E+00
                       1.5794605576E+01  1.5471184961E+01  1.5873849729E+01
                       1.0529737050E+01  1.5718905465E+01  1.0617143985E+01
                       1.0529737050E+01  1.0314123308E+01  5.0395463783E+00
                       1.0529737050E+01  1.0314123307E+01  1.5870689571E+01
                       1.0529737050E+01  4.9093411497E+00  1.0617143985E+01
                       1.5677431126E+01  1.0314123308E+01  1.0560344731E+01
                       5.3820429745E+00  1.0314123307E+01  1.0560344731E+01
                      -3.6139808223E-13 -1.7867298494E-12  1.2493465525E-01
            xcart2     5.2596820796E+00  5.1517409573E+00  5.2981135600E+00
                       1.5779046239E+01  1.5455222872E+01  1.5858560854E+01
                       1.0519364159E+01  1.5698155510E+01  1.0606200545E+01
                       1.0519364159E+01  1.0303481915E+01  5.0393056150E+00
                       1.0519364159E+01  1.0303481915E+01  1.5851835711E+01
                       1.0519364159E+01  4.9088083190E+00  1.0606200545E+01
                       1.5658353523E+01  1.0303481915E+01  1.0549130760E+01
                       5.3803747953E+00  1.0303481915E+01  1.0549130760E+01
                       1.3672927905E-12 -1.8664928998E-12  1.2509999883E-01
            xcart3     5.2545621574E+00  5.1464329590E+00  5.2928437952E+00
                       1.5763686472E+01  1.5439298877E+01  1.5842706857E+01
                       1.0509124315E+01  1.5677612867E+01  1.0595247097E+01
                       1.0509124315E+01  1.0292865918E+01  5.0389843024E+00
                       1.0509124315E+01  1.0292865918E+01  1.5832660272E+01
                       1.0509124315E+01  4.9081189693E+00  1.0595247097E+01
                       1.5639535302E+01  1.0292865918E+01  1.0537945892E+01
                       5.3787133274E+00  1.0292865918E+01  1.0537945892E+01
                       4.5123631039E-12  6.6634904153E-13  1.2532329121E-01
            xcart4     5.2495522372E+00  5.1410895909E+00  5.2874656363E+00
                       1.5748656711E+01  1.5423268773E+01  1.5826596146E+01
                       1.0499104474E+01  1.5656985888E+01  1.0584000280E+01
                       1.0499104474E+01  1.0282179182E+01  5.0387727276E+00
                       1.0499104474E+01  1.0282179182E+01  1.5813290523E+01
                       1.0499104474E+01  4.9073724753E+00  1.0584000281E+01
                       1.5621173627E+01  1.0282179182E+01  1.0526609596E+01
                       5.3770353220E+00  1.0282179182E+01  1.0526609595E+01
                       1.3827485084E-12 -1.0225736033E-12  1.2569929022E-01
            xcart5     5.2444597272E+00  5.1357843573E+00  5.2822034072E+00
                       1.5733379181E+01  1.5407353072E+01  1.5810689029E+01
                       1.0488919454E+01  1.5636516217E+01  1.0572956756E+01
                       1.0488919454E+01  1.0271568715E+01  5.0384117975E+00
                       1.0488919455E+01  1.0271568715E+01  1.5794015844E+01
                       1.0488919455E+01  4.9066212128E+00  1.0572956757E+01
                       1.5602487775E+01  1.0271568715E+01  1.0515393163E+01
                       5.3753511335E+00  1.0271568715E+01  1.0515393163E+01
                       4.5496372677E-12 -7.4959068911E-13  1.2586505546E-01
            xcart6     5.2403168803E+00  5.1292487128E+00  5.2765502957E+00
                       1.5720950641E+01  1.5387746138E+01  1.5795007558E+01
                       1.0480633761E+01  1.5611315978E+01  1.0562888719E+01
                       1.0480633761E+01  1.0258497426E+01  5.0381579229E+00
                       1.0480633760E+01  1.0258497426E+01  1.5775968451E+01
                       1.0480633760E+01  4.9056788732E+00  1.0562888719E+01
                       1.5587530890E+01  1.0258497426E+01  1.0504958626E+01
                       5.3737366307E+00  1.0258497426E+01  1.0504958625E+01
                      -3.7166564606E-13  2.5782948239E-14  1.2627918384E-01
            xcart7     5.2355479310E+00  5.1233996620E+00  5.2719067057E+00
                       1.5706643793E+01  1.5370198986E+01  1.5780185134E+01
                       1.0471095862E+01  1.5588735076E+01  1.0552002739E+01
                       1.0471095862E+01  1.0246799324E+01  5.0376135241E+00
                       1.0471095862E+01  1.0246799324E+01  1.5757413132E+01
                       1.0471095862E+01  4.9048635720E+00  1.0552002740E+01
                       1.5570175435E+01  1.0246799324E+01  1.0494434174E+01
                       5.3720162895E+00  1.0246799324E+01  1.0494434174E+01
                      -2.9471071095E-13 -1.1976171138E-12  1.2623510350E-01
            xcart8     5.2305357921E+00  5.1178641442E+00  5.2667860633E+00
                       1.5691607376E+01  1.5353592433E+01  1.5764730893E+01
                       1.0461071584E+01  1.5567416149E+01  1.0541438093E+01
                       1.0461071584E+01  1.0235728288E+01  5.0370351217E+00
                       1.0461071584E+01  1.0235728288E+01  1.5738803410E+01
                       1.0461071584E+01  4.9040404278E+00  1.0541438093E+01
                       1.5551911012E+01  1.0235728288E+01  1.0483498042E+01
                       5.3702321564E+00  1.0235728288E+01  1.0483498042E+01
                       4.0635376055E-12  3.0113846498E-13  1.2633087877E-01
            xcart9     5.2257074437E+00  5.1120594201E+00  5.2614132280E+00
                       1.5677122331E+01  1.5336178260E+01  1.5749207962E+01
                       1.0451414887E+01  1.5545013976E+01  1.0530725895E+01
                       1.0451414887E+01  1.0224118840E+01  5.0368520326E+00
                       1.0451414887E+01  1.0224118840E+01  1.5720714033E+01
                       1.0451414887E+01  4.9032237046E+00  1.0530725895E+01
                       1.5534365493E+01  1.0224118840E+01  1.0472970315E+01
                       5.3684642819E+00  1.0224118840E+01  1.0472970315E+01
                       1.5950340459E-13 -2.1764913119E-12  1.2677819463E-01
            xcart10    5.2210224056E+00  5.1060105135E+00  5.2558465478E+00
                       1.5663067217E+01  1.5318031540E+01  1.5733704904E+01
                       1.0442044811E+01  1.5521610814E+01  1.0520632833E+01
                       1.0442044811E+01  1.0212021027E+01  5.0367428099E+00
                       1.0442044811E+01  1.0212021027E+01  1.5703104401E+01
                       1.0442044811E+01  4.9024312398E+00  1.0520632833E+01
                       1.5517412941E+01  1.0212021027E+01  1.0462435517E+01
                       5.3666766816E+00  1.0212021027E+01  1.0462435517E+01
                       1.6027612403E-12  1.3545873045E-12  1.2733148459E-01
             xred1     2.5082972404E-01  2.5082972404E-01  2.4917027596E-01
                       7.5082972404E-01  7.5082972404E-01  7.4917027596E-01
                       7.6419745851E-01  2.4017985695E-01  7.5982014305E-01
                       2.3836947439E-01  2.3836947439E-01  7.6163052561E-01
                       7.5068024924E-01  7.5068024924E-01  2.4931975076E-01
                       2.4017985695E-01  7.6419745851E-01  2.3580254149E-01
                       2.5506604301E-01  7.4393808713E-01  7.4493395699E-01
                       7.4393808713E-01  2.5506604301E-01  2.5606191287E-01
                       5.9093826846E-03  5.9093826846E-03 -5.9093826846E-03
             xred2     2.5084702441E-01  2.5084702441E-01  2.4915297559E-01
                       7.5084702441E-01  7.5084702441E-01  7.4915297559E-01
                       7.6395511667E-01  2.4037739408E-01  7.5962260592E-01
                       2.3859337938E-01  2.3859337938E-01  7.6140662062E-01
                       7.5052861261E-01  7.5052861261E-01  2.4947138739E-01
                       2.4037739408E-01  7.6395511667E-01  2.3604488333E-01
                       2.5520089450E-01  7.4372750943E-01  7.4479910550E-01
                       7.4372750943E-01  2.5520089450E-01  2.5627249057E-01
                       5.9230445149E-03  5.9230445149E-03 -5.9230445149E-03
             xred3     2.5084893349E-01  2.5084893349E-01  2.4915106651E-01
                       7.5084893349E-01  7.5084893349E-01  7.4915106651E-01
                       7.6372758865E-01  2.4057427143E-01  7.5942572857E-01
                       2.3881752174E-01  2.3881752174E-01  7.6118247826E-01
                       7.5037278584E-01  7.5037278584E-01  2.4962721416E-01
                       2.4057427143E-01  7.6372758865E-01  2.3627241135E-01
                       2.5534202543E-01  7.4352837034E-01  7.4465797457E-01
                       7.4352837034E-01  2.5534202543E-01  2.5647162966E-01
                       5.9395695695E-03  5.9395695695E-03 -5.9395695695E-03
             xred4     2.5084923427E-01  2.5084923427E-01  2.4915076573E-01
                       7.5084923427E-01  7.5084923427E-01  7.4915076573E-01
                       7.6349387740E-01  2.4076356785E-01  7.5923643215E-01
                       2.3905068464E-01  2.3905068464E-01  7.6094931536E-01
                       7.5021798567E-01  7.5021798567E-01  2.4978201433E-01
                       2.4076356785E-01  7.6349387740E-01  2.3650612260E-01
                       2.5547712063E-01  7.4333483886E-01  7.4452287937E-01
                       7.4333483886E-01  2.5547712063E-01  2.5666516114E-01
                       5.9634563833E-03  5.9634563833E-03 -5.9634563833E-03
             xred5     2.5085295251E-01  2.5085295251E-01  2.4914704749E-01
                       7.5085295251E-01  7.5085295251E-01  7.4914704749E-01
                       7.6326716002E-01  2.4095672712E-01  7.5904327288E-01
                       2.3927523761E-01  2.3927523761E-01  7.6072476239E-01
                       7.5006113947E-01  7.5006113947E-01  2.4993886053E-01
                       2.4095672712E-01  7.6326716002E-01  2.3673283998E-01
                       2.5561774499E-01  7.4313872778E-01  7.4438225501E-01
                       7.4313872778E-01  2.5561774499E-01  2.5686127222E-01
                       5.9773579975E-03  5.9773579975E-03 -5.9773579975E-03
             xred6     2.5082339377E-01  2.5082339377E-01  2.4917660623E-01
                       7.5082339377E-01  7.5082339377E-01  7.4917660623E-01
                       7.6300888315E-01  2.4121525877E-01  7.5878474123E-01
                       2.3949129597E-01  2.3949129597E-01  7.6050870403E-01
                       7.4991836052E-01  7.4991836052E-01  2.5008163948E-01
                       2.4121525877E-01  7.6300888315E-01  2.3699111685E-01
                       2.5572339689E-01  7.4299327450E-01  7.4427660311E-01
                       7.4299327450E-01  2.5572339689E-01  2.5700672550E-01
                       6.0027426401E-03  6.0027426401E-03 -6.0027426401E-03
             xred7     2.5084540449E-01  2.5084540449E-01  2.4915459551E-01
                       7.5084540449E-01  7.5084540449E-01  7.4915459551E-01
                       7.6274409668E-01  2.4141684286E-01  7.5858315714E-01
                       2.3969737567E-01  2.3969737567E-01  7.6030262433E-01
                       7.4976187770E-01  7.4976187770E-01  2.5023812230E-01
                       2.4141684286E-01  7.6274409668E-01  2.3725590332E-01
                       2.5585770069E-01  7.4282483763E-01  7.4414229931E-01
                       7.4282483763E-01  2.5585770069E-01  2.5717516237E-01
                       6.0064597811E-03  6.0064597811E-03 -6.0064597811E-03
             xred8     2.5084843504E-01  2.5084843504E-01  2.4915156496E-01
                       7.5084843504E-01  7.5084843504E-01  7.4915156496E-01
                       7.6251648161E-01  2.4162654488E-01  7.5837345512E-01
                       2.3990577220E-01  2.3990577220E-01  7.6009422780E-01
                       7.4961355131E-01  7.4961355131E-01  2.5038644869E-01
                       2.4162654488E-01  7.6251648161E-01  2.3748351839E-01
                       2.5598888549E-01  7.4263496059E-01  7.4401111451E-01
                       7.4263496059E-01  2.5598888549E-01  2.5736503941E-01
                       6.0169338294E-03  6.0169338294E-03 -6.0169338294E-03
             xred9     2.5083505930E-01  2.5083505930E-01  2.4916494070E-01
                       7.5083505930E-01  7.5083505930E-01  7.4916494070E-01
                       7.6225961567E-01  2.4183382458E-01  7.5816617542E-01
                       2.4012922451E-01  2.4012922451E-01  7.5987077549E-01
                       7.4947662650E-01  7.4947662650E-01  2.5052337350E-01
                       2.4183382458E-01  7.6225961567E-01  2.3774038433E-01
                       2.5612279981E-01  7.4246370774E-01  7.4387720019E-01
                       7.4246370774E-01  2.5612279981E-01  2.5753629226E-01
                       6.0440825667E-03  6.0440825667E-03 -6.0440825667E-03
             xred10    2.5080729140E-01  2.5080729140E-01  2.4919270860E-01
                       7.5080729140E-01  7.5080729140E-01  7.4919270860E-01
                       7.6200881315E-01  2.4207355517E-01  7.5792644483E-01
                       2.4035173214E-01  2.4035173214E-01  7.5964826786E-01
                       7.4934704533E-01  7.4934704533E-01  2.5065295467E-01
                       2.4207355517E-01  7.6200881315E-01  2.3799118685E-01
                       2.5623844061E-01  7.4228961367E-01  7.4376155939E-01
                       7.4228961367E-01  2.5623844061E-01  2.5771038633E-01
                       6.0762171173E-03  6.0762171173E-03 -6.0762171173E-03
            znucl       55.00000   53.00000   72.00000   35.00000

- Timing analysis has been suppressed with timopt=0

 Suggested references for the acknowledgment of ABINIT usage.

 Calculation completed.
.Delivered   0 WARNINGs and  10 COMMENTs to log file.