.Version 9.2.2 of ABINIT

 ABINIT is a project of the Universite Catholique de Louvain,
 Corning Inc. and other collaborators, see ~abinit/doc/developers/contributors.txt .
 acknowledgments of the ABINIT effort.

.Starting date : Wed 19 Jul 2023.
- ( at 12h06 )

- The starting date is more than 2 years after the initial release
- of this version of ABINIT, namely Nov 2020.
- Note that the use beyond 3 years after the release will not be supported.
- Action: please, switch to a more recent version of ABINIT.

- input  file    -> Cs2TiI6.in
- output file    -> Cs2TiI6.out
- root for input  files -> Cs2TiI6i
- root for output files -> Cs2TiI6o

 Symmetries : space group I4/m m m (#139); Bravais tI (body-center tetrag.)
     intxc =       0    ionmov =       0      iscf =      17    lmnmax =       8
     lnmax =       8     mgfft =      64  mpssoang =       4    mqgrid =    3001
     natom =       9  nloc_mem =       1    nspden =       1   nspinor =       1
    nsppol =       1      nsym =      16    n1xccc =    2501    ntypat =       4
    occopt =       1   xclevel =       2
-    mband =          42        mffmem =           1         mkmem =           1
       mpw =       11054          nfft =      262144          nkpt =           4
  Rough estimation (10% accuracy) of disk space for files :

------------- Echo of variables that govern the present computation ------------
-
- outvars: echo of selected default values
-   iomode0 =  0 , fftalg0 =112 , wfoptalg0 =  0
-
- outvars: echo of global parameters not present in the input file
-  max_nthreads =    0
-
 -outvars: echo values of preprocessed input variables --------
            acell      1.5420047701E+01  1.5420047701E+01  1.5418496941E+01 Bohr
              amu      1.32905430E+02  1.26904470E+02  9.12240000E+01
                       7.99040000E+01
           diemac      1.20000000E+01
             ecut      2.00000000E+01 Hartree
-          fftalg         112
             iscf          17
           istwfk        1    1    1    1
              ixc        -428
              kpt      0.00000000E+00  0.00000000E+00  0.00000000E+00
                       5.00000000E-01  0.00000000E+00  0.00000000E+00
                       5.00000000E-01  5.00000000E-01  0.00000000E+00
                       5.00000000E-01  0.00000000E+00  5.00000000E-01
         kptns_hf      0.00000000E+00  0.00000000E+00  0.00000000E+00
                       5.00000000E-01  0.00000000E+00  0.00000000E+00
                       0.00000000E+00  5.00000000E-01  0.00000000E+00
                       5.00000000E-01  5.00000000E-01  0.00000000E+00
                       0.00000000E+00  0.00000000E+00  5.00000000E-01
                       5.00000000E-01  0.00000000E+00  5.00000000E-01
                       0.00000000E+00  5.00000000E-01  5.00000000E-01
                       5.00000000E-01  5.00000000E-01  5.00000000E-01
         kptrlatt        2    0    0      0    2    0      0    0    2
          kptrlen      3.08369939E+01
P           mkmem           1
            natom           9
            nband          42
          nbandhf          36
            ngfft          64      64      64
             nkpt           4
           nkpthf           8
-           npkpt           4
            nstep        2500
             nsym          16
           ntypat           4
              occ      2.000000  2.000000  2.000000  2.000000  2.000000  2.000000
                       2.000000  2.000000  2.000000  2.000000  2.000000  2.000000
                       2.000000  2.000000  2.000000  2.000000  2.000000  2.000000
                       2.000000  2.000000  2.000000  2.000000  2.000000  2.000000
                       2.000000  2.000000  2.000000  2.000000  2.000000  2.000000
                       2.000000  2.000000  2.000000  2.000000  2.000000  2.000000
                       0.000000  0.000000  0.000000  0.000000  0.000000  0.000000
            rprim      0.0000000000E+00  7.0703566902E-01  7.0717788620E-01
                       7.0703566902E-01  0.0000000000E+00  7.0717788620E-01
                       7.0710678119E-01  7.0710678119E-01  0.0000000000E+00
          spgroup         139
           symrel      1  0  0   0  1  0   0  0  1      -1  0  0   0 -1  0   0  0 -1
                      -1  0  1   0 -1  1   0  0  1       1  0 -1   0  1 -1   0  0 -1
                       0  1 -1   1  0 -1   0  0 -1       0 -1  1  -1  0  1   0  0  1
                       0 -1  0  -1  0  0   0  0 -1       0  1  0   1  0  0   0  0  1
                       0  1 -1   0  1  0  -1  1  0       0 -1  1   0 -1  0   1 -1  0
                      -1  0  1  -1  0  0  -1  1  0       1  0 -1   1  0  0   1 -1  0
                       1  0  0   1  0 -1   1 -1  0      -1  0  0  -1  0  1  -1  1  0
                       0 -1  0   0 -1  1   1 -1  0       0  1  0   0  1 -1  -1  1  0
           toldfe      1.00000000E-08 Hartree
            typat      1  1  2  2  4  4  4  4  3
          usefock           1
              wtk        0.12500    0.50000    0.12500    0.25000
           xangst      2.8846835404E+00  2.8846835404E+00  2.8852637820E+00
                       8.6540506211E+00  8.6540506211E+00  8.6557913461E+00
                       5.7693670807E+00  5.7693670807E+00  2.9044457323E+00
                       5.7693670807E+00  5.7693670807E+00  8.6366093957E+00
                       8.9004214553E+00  5.7693670808E+00  5.7705275640E+00
                       5.7693670808E+00  8.9004214553E+00  5.7705275640E+00
                       5.7693670807E+00  2.6383127062E+00  5.7705275640E+00
                       2.6383127062E+00  5.7693670807E+00  5.7705275640E+00
                      -2.2121263481E-20 -3.8244105276E-20  6.3894944041E-21
            xcart      5.4512618713E+00  5.4512618713E+00  5.4523583691E+00
                       1.6353785614E+01  1.6353785614E+01  1.6357075107E+01
                       1.0902523743E+01  1.0902523743E+01  5.4886070020E+00
                       1.0902523743E+01  1.0902523743E+01  1.6320826475E+01
                       1.6819359018E+01  1.0902523743E+01  1.0904716738E+01
                       1.0902523743E+01  1.6819359018E+01  1.0904716738E+01
                       1.0902523743E+01  4.9856884676E+00  1.0904716738E+01
                       4.9856884676E+00  1.0902523743E+01  1.0904716738E+01
                      -4.1803129692E-20 -7.2270885170E-20  1.2074394551E-20
             xred      2.5000000000E-01  2.5000000000E-01  2.5000000000E-01
                       7.5000000000E-01  7.5000000000E-01  7.5000000000E-01
                       2.5166206210E-01  2.5166206210E-01  7.4833793790E-01
                       7.4833793790E-01  7.4833793790E-01  2.5166206210E-01
                       2.2864836552E-01  7.7135163448E-01  7.7135163448E-01
                       7.7135163448E-01  2.2864836552E-01  7.7135163448E-01
                       2.2864836552E-01  7.7135163448E-01  2.2864836552E-01
                       7.7135163448E-01  2.2864836552E-01  2.2864836552E-01
                      -8.4364820404E-22  1.9509116792E-21 -5.7851734225E-21
            znucl       55.00000   53.00000   40.00000   35.00000

 chkinp: Checking input parameters for consistency.

== DATASET  1 ==================================================================
-   mpi_nproc: 4, omp_nthreads: -1 (-1 if OMP is not activated)

--- !DatasetInfo
iteration_state: {dtset: 1, }
dimensions: {natom: 9, nkpt: 4, mband: 42, nsppol: 1, nspinor: 1, nspden: 1, mpw: 11054, }
cutoff_energies: {ecut:  20.0, pawecutdg:  -1.0, }
electrons: {nelect:   7.20000000E+01, charge:   0.00000000E+00, occopt:   1.00000000E+00, tsmear:   1.00000000E-02, }
meta: {optdriver: 0, ionmov: 0, optcell: 0, iscf: 17, paral_kgb: 0, }
...

 Real(R)+Recip(G) space primitive vectors, cartesian coordinates (Bohr,Bohr^-1):
 R(1)=  0.0000000 10.9025237 10.9047167  G(1)= -0.0458609  0.0458609  0.0458517
 R(2)= 10.9025237  0.0000000 10.9047167  G(2)=  0.0458609 -0.0458609  0.0458517
 R(3)= 10.9025237 10.9025237  0.0000000  G(3)=  0.0458609  0.0458609 -0.0458517
 Unit cell volume ucvol=  2.5923788E+03 bohr^3
 Angles (23,13,12)=  6.00033267E+01  6.00033267E+01  5.99933466E+01 degrees

 getcut: wavevector=  0.0000  0.0000  0.0000  ngfft=  64  64  64
         ecut(hartree)=     20.000   => boxcut(ratio)=   2.06165

--- Pseudopotential description ------------------------------------------------
- pspini: atom type   1  psp file is ../../../Psps_for_tests/ONCVPSP-PBE-PDv0.4/Cs-sp.psp8
- pspatm: opening atomic psp file    ../../../Psps_for_tests/ONCVPSP-PBE-PDv0.4/Cs-sp.psp8
- Cs    ONCVPSP-3.2.3.1  r_core=   2.27353   1.85623   2.01788   1.90105
- 55.00000   9.00000    170703                znucl, zion, pspdat
    8   32    3    4       600   0.00000      pspcod,pspxc,lmax,lloc,mmax,r2well
    5.99000000000000    5.00000000000000    0.00000000000000   rchrg,fchrg,qchrg
     nproj     2     2     2     2
     extension_switch     1
  pspatm : epsatm=   22.81663475
         --- l  ekb(1:nproj) -->
             0    6.176104    0.756334
             1    6.263084    0.786397
             2    3.737592    0.906929
             3   -9.272327   -2.535859
 pspatm: atomic psp has been read  and splines computed

- pspini: atom type   2  psp file is ../../../Psps_for_tests/ONCVPSP-PBE-PDv0.4/I.psp8
- pspatm: opening atomic psp file    ../../../Psps_for_tests/ONCVPSP-PBE-PDv0.4/I.psp8
- I     ONCVPSP-3.2.3.1  r_core=   2.02042   2.17032   2.27639
- 53.00000   7.00000    170510                znucl, zion, pspdat
    8   32    2    4       600   0.00000      pspcod,pspxc,lmax,lloc,mmax,r2well
    5.99000000000000    4.00000000000000    0.00000000000000   rchrg,fchrg,qchrg
     nproj     2     2     2
     extension_switch     1
  pspatm : epsatm=   19.17050482
         --- l  ekb(1:nproj) -->
             0    5.955518    0.916455
             1    4.011347    0.742302
             2    4.134838    0.711910
 pspatm: atomic psp has been read  and splines computed

- pspini: atom type   3  psp file is ../../../Psps_for_tests/ONCVPSP-PBE-PDv0.4/Zr-sp.psp8
- pspatm: opening atomic psp file    ../../../Psps_for_tests/ONCVPSP-PBE-PDv0.4/Zr-sp.psp8
- Zr    ONCVPSP-3.2.3.1  r_core=   1.56507   1.56507   1.51006
- 40.00000  12.00000    170510                znucl, zion, pspdat
    8   32    2    4       600   0.00000      pspcod,pspxc,lmax,lloc,mmax,r2well
    5.99000000000000    5.00000000000000    0.00000000000000   rchrg,fchrg,qchrg
     nproj     2     2     2
     extension_switch     1
  pspatm : epsatm=   18.79873988
         --- l  ekb(1:nproj) -->
             0   10.621766    0.898805
             1    5.849837    0.750341
             2    1.531478    0.503023
 pspatm: atomic psp has been read  and splines computed

- pspini: atom type   4  psp file is ../../../Psps_for_tests/ONCVPSP-PBE-PDv0.4/Br.psp8
- pspatm: opening atomic psp file    ../../../Psps_for_tests/ONCVPSP-PBE-PDv0.4/Br.psp8
- Br    ONCVPSP-3.2.3.1  r_core=   1.81012   1.51356   1.92136
- 35.00000   7.00000    170504                znucl, zion, pspdat
    8   32    2    4       600   0.00000      pspcod,pspxc,lmax,lloc,mmax,r2well
    5.99000000000000    8.00000000000000    0.00000000000000   rchrg,fchrg,qchrg
     nproj     2     2     2
     extension_switch     1
  pspatm : epsatm=   11.64859511
         --- l  ekb(1:nproj) -->
             0    8.455549    0.878460
             1    5.292495    0.880691
             2    2.589748    0.385882
 pspatm: atomic psp has been read  and splines computed

   1.07544528E+04                                ecore*ucvol(ha*bohr**3)

_setup2: Arith. and geom. avg. npw (full set) are   11034.375   11034.358

--- !BeginCycle
iteration_state: {dtset: 1, }
solver: {iscf: 17, nstep: 2500, nline: 4, wfoptalg: 0, }
tolerances: {toldfe: 1.00E-08, }
...

     iter   Etot(hartree)      deltaE(h)  residm     nres2
 ETOT  1  -181.39646815573    -1.814E+02 1.681E-02 3.577E+00
 ETOT  2  -186.68701364514    -5.291E+00 7.043E-03 2.317E+00
 ETOT  3  -186.69106894573    -4.055E-03 3.003E-03 8.534E-01
 ETOT  4  -186.67404024775     1.703E-02 1.968E-03 1.067E-01
 ETOT  5  -186.67454562011    -5.054E-04 1.502E-03 3.692E-02
 ETOT  6  -186.67440669785     1.389E-04 1.854E-03 3.955E-03
 ETOT  7  -186.67448363581    -7.694E-05 1.626E-03 1.946E-04
 ETOT  8  -186.67448939836    -5.763E-06 1.597E-03 3.105E-05
 ETOT  9  -186.67448988764    -4.893E-07 1.691E-03 1.627E-06
 ETOT 10  -186.67449002489    -1.373E-07 1.450E-03 4.177E-07
 ETOT 11  -186.67449001782     7.066E-09 8.771E-04 1.568E-07
 ETOT 12  -186.67449002050    -2.680E-09 2.446E-04 1.183E-08

 At SCF step   12, etot is converged :
  for the second time, diff in etot=  2.680E-09 < toldfe=  1.000E-08

 Cartesian components of stress tensor (hartree/bohr^3)
  sigma(1 1)=  4.90912774E-05  sigma(3 2)=  1.07024344E-14
  sigma(2 2)=  4.90912774E-05  sigma(3 1)=  1.07027272E-14
  sigma(3 3)=  4.64161494E-05  sigma(2 1)= -2.14099920E-14

--- !ResultsGS
iteration_state: {dtset: 1, }
comment   : Summary of ground state results
lattice_vectors:
- [  0.0000000,  10.9025237,  10.9047167, ]
- [ 10.9025237,   0.0000000,  10.9047167, ]
- [ 10.9025237,  10.9025237,   0.0000000, ]
lattice_lengths: [  15.42005,   15.42005,   15.41850, ]
lattice_angles: [ 60.003,  60.003,  59.993, ] # degrees, (23, 13, 12)
lattice_volume:   2.5923788E+03
convergence: {deltae: -2.680E-09, res2:  1.183E-08, residm:  2.446E-04, diffor: null, }
etotal    :  -1.86674490E+02
entropy   :   0.00000000E+00
fermie    :   3.66678219E-03
cartesian_stress_tensor: # hartree/bohr^3
- [  4.90912774E-05,  -2.14099920E-14,   1.07027272E-14, ]
- [ -2.14099920E-14,   4.90912774E-05,   1.07024344E-14, ]
- [  1.07027272E-14,   1.07024344E-14,   4.64161494E-05, ]
pressure_GPa:  -1.4181E+00
xred      :
- [  2.5000E-01,   2.5000E-01,   2.5000E-01, Cs]
- [  7.5000E-01,   7.5000E-01,   7.5000E-01, Cs]
- [  2.5166E-01,   2.5166E-01,   7.4834E-01,  I]
- [  7.4834E-01,   7.4834E-01,   2.5166E-01,  I]
- [  2.2865E-01,   7.7135E-01,   7.7135E-01, Br]
- [  7.7135E-01,   2.2865E-01,   7.7135E-01, Br]
- [  2.2865E-01,   7.7135E-01,   2.2865E-01, Br]
- [  7.7135E-01,   2.2865E-01,   2.2865E-01, Br]
- [ -8.4365E-22,   1.9509E-21,  -5.7852E-21, Zr]
cartesian_forces: # hartree/bohr
- [ -3.59347881E-27,  -5.64058514E-20,  -1.28356259E-20, ]
- [ -2.96369386E-27,  -5.64058520E-20,  -1.28356313E-20, ]
- [ -4.07037318E-19,   3.50631463E-19,  -2.14372264E-03, ]
- [  4.07037318E-19,  -4.63443173E-19,   2.14372264E-03, ]
- [  2.98897406E-03,  -1.93995430E-14,   1.93953153E-14, ]
- [ -1.93997034E-14,   2.98897406E-03,   1.93957490E-14, ]
- [  1.93998048E-14,  -2.98897406E-03,  -1.93956591E-14, ]
- [ -2.98897406E-03,   1.93994302E-14,  -1.93953409E-14, ]
- [ -0.00000000E+00,  -5.64058550E-20,  -1.28356289E-20, ]
force_length_stats: {min:   5.78478466E-20, max:   2.98897406E-03, mean:   1.80481573E-03, }
...

 Integrated electronic density in atomic spheres:
 Atom  Sphere_radius  Integrated_density
    1        2.00000          4.44706886
    2        2.00000          4.44706886
    3        2.00000          2.87383485
    4        2.00000          2.87383485
    5        2.00000          4.24684609
    6        2.00000          4.24684609
    7        2.00000          4.24684609
    8        2.00000          4.24684609
    9        2.00000          8.16119684

 ----iterations are completed or convergence reached----

 Mean square residual over all n,k,spin=   17.065E-07; max=  24.459E-05
 reduced coordinates (array xred) for    9 atoms
       0.250000000000      0.250000000000      0.250000000000
       0.750000000000      0.750000000000      0.750000000000
       0.251662062100      0.251662062100      0.748337937900
       0.748337937900      0.748337937900      0.251662062100
       0.228648365520      0.771351634480      0.771351634480
       0.771351634480      0.228648365520      0.771351634480
       0.228648365520      0.771351634480      0.228648365520
       0.771351634480      0.228648365520      0.228648365520
      -0.000000000000      0.000000000000     -0.000000000000
 rms dE/dt=  1.9890E-02; max dE/dt=  3.2587E-02; dE/dt below (all hartree)
    1      -0.000000000000      0.000000000000      0.000000000000
    2      -0.000000000000      0.000000000000      0.000000000000
    3       0.023376688171      0.023376688171      0.000000000000
    4      -0.023376688171     -0.023376688171      0.000000000000
    5       0.000000000000     -0.032587360701     -0.032587360701
    6      -0.032587360701      0.000000000000     -0.032587360701
    7       0.032587360701     -0.000000000000      0.032587360701
    8      -0.000000000000      0.032587360701      0.032587360701
    9       0.000000000000      0.000000000000      0.000000000000

 cartesian coordinates (angstrom) at end:
    1      2.88468354036552     2.88468354036552     2.88526378201815
    2      8.65405062109657     8.65405062109657     8.65579134605446
    3      5.76936708074964     5.76936708074964     2.90444573234053
    4      5.76936708071244     5.76936708071244     8.63660939573209
    5      8.90042145527399     5.76936708075137     5.77052756403631
    6      5.76936708075137     8.90042145527399     5.77052756403631
    7      5.76936708071072     2.63831270618809     5.77052756403631
    8      2.63831270618809     5.76936708071072     5.77052756403631
    9     -0.00000000000000    -0.00000000000000     0.00000000000000

 cartesian forces (hartree/bohr) at end:
    1     -0.00000000000000    -0.00000000000000    -0.00000000000000
    2     -0.00000000000000    -0.00000000000000    -0.00000000000000
    3     -0.00000000000000     0.00000000000000    -0.00214372264148
    4      0.00000000000000    -0.00000000000000     0.00214372264148
    5      0.00298897406416    -0.00000000000002     0.00000000000002
    6     -0.00000000000002     0.00298897406416     0.00000000000002
    7      0.00000000000002    -0.00298897406416    -0.00000000000002
    8     -0.00298897406416     0.00000000000002    -0.00000000000002
    9     -0.00000000000000    -0.00000000000000    -0.00000000000000
 frms,max,avg= 1.2899463E-03 2.9889741E-03   0.000E+00  0.000E+00  0.000E+00 h/b

 cartesian forces (eV/Angstrom) at end:
    1     -0.00000000000000    -0.00000000000000    -0.00000000000000
    2     -0.00000000000000    -0.00000000000000    -0.00000000000000
    3     -0.00000000000000     0.00000000000000    -0.11023464113687
    4      0.00000000000000    -0.00000000000000     0.11023464113687
    5      0.15369921320698    -0.00000000000100     0.00000000000100
    6     -0.00000000000100     0.15369921320698     0.00000000000100
    7      0.00000000000100    -0.15369921320698    -0.00000000000100
    8     -0.15369921320698     0.00000000000100    -0.00000000000100
    9     -0.00000000000000    -0.00000000000000    -0.00000000000000
 frms,max,avg= 6.6331699E-02 1.5369921E-01   0.000E+00  0.000E+00  0.000E+00 e/A
 length scales= 15.420047701000 15.420047701000 15.418496941000 bohr
              =  8.159937798740  8.159937798740  8.159117171892 angstroms
 prteigrs : about to open file Cs2TiI6o_EIG
 Fermi (or HOMO) energy (hartree) =   0.00367   Average Vxc (hartree)=  -0.23873
 Eigenvalues (hartree) for nkpt=   4  k points:
 kpt#   1, nband= 42, wtk=  0.12500, kpt=  0.0000  0.0000  0.0000 (reduced coord)
  -1.92699   -1.06638   -1.06638   -1.06512   -0.78810   -0.78792   -0.54078   -0.52962
  -0.52801   -0.52801   -0.42833   -0.42413   -0.26957   -0.26957   -0.26893   -0.26727
  -0.26727   -0.26701   -0.13167   -0.09728   -0.09306   -0.08401   -0.08401   -0.08289
  -0.08289   -0.08098   -0.06576   -0.04286   -0.03565   -0.03565   -0.01797   -0.00723
  -0.00723   -0.00279    0.00367    0.00367    0.12344    0.12344    0.13072    0.19658
   0.20626    0.22044
 prteigrs : prtvol=0 or 1, do not print more k-points.

--- !EnergyTerms
iteration_state     : {dtset: 1, }
comment             : Components of total free energy in Hartree
kinetic             :  4.81077986600820E+01
hartree             :  4.00282432786134E+01
xc                  : -4.73489172869185E+01
Ewald energy        : -1.15626199035363E+02
psp_core            :  4.14848810872058E+00
local_psp           : -1.35397788221748E+02
non_local_psp+x     :  1.94137508912141E+01
total_energy        : -1.86674623605399E+02
...

--- !EnergyTermsDC
iteration_state     : {dtset: 1, }
comment             : '"Double-counting" decomposition of free energy'
band_energy         : -2.45748443644672E+01
Ewald energy        : -1.15626199035363E+02
psp_core            :  4.14848810872058E+00
xc_dc               : -5.06219347293927E+01
total_energy_dc     : -1.86674490020502E+02
...

 Cartesian components of stress tensor (hartree/bohr^3)
  sigma(1 1)=  4.90912774E-05  sigma(3 2)=  1.07024344E-14
  sigma(2 2)=  4.90912774E-05  sigma(3 1)=  1.07027272E-14
  sigma(3 3)=  4.64161494E-05  sigma(2 1)= -2.14099920E-14

-Cartesian components of stress tensor (GPa)         [Pressure= -1.4181E+00 GPa]
- sigma(1 1)=  1.44431500E+00  sigma(3 2)=  3.14876437E-10
- sigma(2 2)=  1.44431500E+00  sigma(3 1)=  3.14885051E-10
- sigma(3 3)=  1.36561003E+00  sigma(2 1)= -6.29903606E-10

== END DATASET(S) ==============================================================

 -outvars: echo values of variables after computation  --------
            acell      1.5420047701E+01  1.5420047701E+01  1.5418496941E+01 Bohr
              amu      1.32905430E+02  1.26904470E+02  9.12240000E+01
                       7.99040000E+01
           diemac      1.20000000E+01
             ecut      2.00000000E+01 Hartree
           etotal     -1.8667449002E+02
            fcart     -3.5934788056E-27 -5.6405851366E-20 -1.2835625935E-20
                      -2.9636938603E-27 -5.6405851996E-20 -1.2835631306E-20
                      -4.0703731803E-19  3.5063146307E-19 -2.1437226415E-03
                       4.0703731803E-19 -4.6344317299E-19  2.1437226415E-03
                       2.9889740642E-03 -1.9399543010E-14  1.9395315270E-14
                      -1.9399703444E-14  2.9889740642E-03  1.9395748951E-14
                       1.9399804828E-14 -2.9889740642E-03 -1.9395659102E-14
                      -2.9889740642E-03  1.9399430198E-14 -1.9395340941E-14
                      -0.0000000000E+00 -5.6405854960E-20 -1.2835628936E-20
-          fftalg         112
             iscf          17
           istwfk        1    1    1    1
              ixc        -428
              kpt      0.00000000E+00  0.00000000E+00  0.00000000E+00
                       5.00000000E-01  0.00000000E+00  0.00000000E+00
                       5.00000000E-01  5.00000000E-01  0.00000000E+00
                       5.00000000E-01  0.00000000E+00  5.00000000E-01
         kptns_hf      0.00000000E+00  0.00000000E+00  0.00000000E+00
                       5.00000000E-01  0.00000000E+00  0.00000000E+00
                       0.00000000E+00  5.00000000E-01  0.00000000E+00
                       5.00000000E-01  5.00000000E-01  0.00000000E+00
                       0.00000000E+00  0.00000000E+00  5.00000000E-01
                       5.00000000E-01  0.00000000E+00  5.00000000E-01
                       0.00000000E+00  5.00000000E-01  5.00000000E-01
                       5.00000000E-01  5.00000000E-01  5.00000000E-01
         kptrlatt        2    0    0      0    2    0      0    0    2
          kptrlen      3.08369939E+01
P           mkmem           1
            natom           9
            nband          42
          nbandhf          36
            ngfft          64      64      64
             nkpt           4
           nkpthf           8
-           npkpt           4
            nstep        2500
             nsym          16
           ntypat           4
              occ      2.000000  2.000000  2.000000  2.000000  2.000000  2.000000
                       2.000000  2.000000  2.000000  2.000000  2.000000  2.000000
                       2.000000  2.000000  2.000000  2.000000  2.000000  2.000000
                       2.000000  2.000000  2.000000  2.000000  2.000000  2.000000
                       2.000000  2.000000  2.000000  2.000000  2.000000  2.000000
                       2.000000  2.000000  2.000000  2.000000  2.000000  2.000000
                       0.000000  0.000000  0.000000  0.000000  0.000000  0.000000
            rprim      0.0000000000E+00  7.0703566902E-01  7.0717788620E-01
                       7.0703566902E-01  0.0000000000E+00  7.0717788620E-01
                       7.0710678119E-01  7.0710678119E-01  0.0000000000E+00
          spgroup         139
           strten      4.9091277415E-05  4.9091277415E-05  4.6416149392E-05
                       1.0702434371E-14  1.0702727159E-14 -2.1409992005E-14
           symrel      1  0  0   0  1  0   0  0  1      -1  0  0   0 -1  0   0  0 -1
                      -1  0  1   0 -1  1   0  0  1       1  0 -1   0  1 -1   0  0 -1
                       0  1 -1   1  0 -1   0  0 -1       0 -1  1  -1  0  1   0  0  1
                       0 -1  0  -1  0  0   0  0 -1       0  1  0   1  0  0   0  0  1
                       0  1 -1   0  1  0  -1  1  0       0 -1  1   0 -1  0   1 -1  0
                      -1  0  1  -1  0  0  -1  1  0       1  0 -1   1  0  0   1 -1  0
                       1  0  0   1  0 -1   1 -1  0      -1  0  0  -1  0  1  -1  1  0
                       0 -1  0   0 -1  1   1 -1  0       0  1  0   0  1 -1  -1  1  0
           toldfe      1.00000000E-08 Hartree
            typat      1  1  2  2  4  4  4  4  3
          usefock           1
              wtk        0.12500    0.50000    0.12500    0.25000
           xangst      2.8846835404E+00  2.8846835404E+00  2.8852637820E+00
                       8.6540506211E+00  8.6540506211E+00  8.6557913461E+00
                       5.7693670807E+00  5.7693670807E+00  2.9044457323E+00
                       5.7693670807E+00  5.7693670807E+00  8.6366093957E+00
                       8.9004214553E+00  5.7693670808E+00  5.7705275640E+00
                       5.7693670808E+00  8.9004214553E+00  5.7705275640E+00
                       5.7693670807E+00  2.6383127062E+00  5.7705275640E+00
                       2.6383127062E+00  5.7693670807E+00  5.7705275640E+00
                      -2.2121263481E-20 -3.8244105276E-20  6.3894944041E-21
            xcart      5.4512618713E+00  5.4512618713E+00  5.4523583691E+00
                       1.6353785614E+01  1.6353785614E+01  1.6357075107E+01
                       1.0902523743E+01  1.0902523743E+01  5.4886070020E+00
                       1.0902523743E+01  1.0902523743E+01  1.6320826475E+01
                       1.6819359018E+01  1.0902523743E+01  1.0904716738E+01
                       1.0902523743E+01  1.6819359018E+01  1.0904716738E+01
                       1.0902523743E+01  4.9856884676E+00  1.0904716738E+01
                       4.9856884676E+00  1.0902523743E+01  1.0904716738E+01
                      -4.1803129692E-20 -7.2270885170E-20  1.2074394551E-20
             xred      2.5000000000E-01  2.5000000000E-01  2.5000000000E-01
                       7.5000000000E-01  7.5000000000E-01  7.5000000000E-01
                       2.5166206210E-01  2.5166206210E-01  7.4833793790E-01
                       7.4833793790E-01  7.4833793790E-01  2.5166206210E-01
                       2.2864836552E-01  7.7135163448E-01  7.7135163448E-01
                       7.7135163448E-01  2.2864836552E-01  7.7135163448E-01
                       2.2864836552E-01  7.7135163448E-01  2.2864836552E-01
                       7.7135163448E-01  2.2864836552E-01  2.2864836552E-01
                      -8.4364820404E-22  1.9509116792E-21 -5.7851734225E-21
            znucl       55.00000   53.00000   40.00000   35.00000

- Timing analysis has been suppressed with timopt=0

 Suggested references for the acknowledgment of ABINIT usage.

 Calculation completed.
.Delivered   0 WARNINGs and   0 COMMENTs to log file.