.Version 9.2.2 of ABINIT

 ABINIT is a project of the Universite Catholique de Louvain,
 Corning Inc. and other collaborators, see ~abinit/doc/developers/contributors.txt .
 acknowledgments of the ABINIT effort.

.Starting date : Sat 15 Jul 2023.
- ( at 04h55 )

- The starting date is more than 2 years after the initial release
- of this version of ABINIT, namely Nov 2020.
- Note that the use beyond 3 years after the release will not be supported.
- Action: please, switch to a more recent version of ABINIT.

- input  file    -> Cs2TiI6.in
- output file    -> Cs2TiI6.out
- root for input  files -> Cs2TiI6i
- root for output files -> Cs2TiI6o

 Symmetries : space group I4 m m (#107); Bravais tI (body-center tetrag.)
     intxc =       0    ionmov =       0      iscf =      17    lmnmax =       8
     lnmax =       8     mgfft =      60  mpssoang =       4    mqgrid =    3001
     natom =       9  nloc_mem =       1    nspden =       1   nspinor =       1
    nsppol =       1      nsym =       8    n1xccc =    2501    ntypat =       4
    occopt =       1   xclevel =       2
-    mband =          42        mffmem =           1         mkmem =          28
       mpw =        8398          nfft =      216000          nkpt =         163
  Rough estimation (10% accuracy) of disk space for files :

------------- Echo of variables that govern the present computation ------------
-
- outvars: echo of selected default values
-   iomode0 =  0 , fftalg0 =112 , wfoptalg0 =  0
-
- outvars: echo of global parameters not present in the input file
-  max_nthreads =    0
-
 -outvars: echo values of preprocessed input variables --------
            acell      1.3954825348E+01  1.4226742997E+01  1.3954825348E+01 Bohr
              amu      1.32905430E+02  1.26904470E+02  1.78490000E+02
                       3.54527000E+01
           diemac      1.20000000E+01
             ecut      2.00000000E+01 Hartree
-          fftalg         112
             iscf          17
           istwfk        2    0    0    0    0    0    3    0    0    0
                         0    0    0    0    0    0    0    0    0    0
                         0    0    0    0    0    0    0    0    0    0
                         0    0    0    0    0    0    0    0    0    0
                         0    0    7    0    0    0    0    0    0    0
                       outvar_i_n : Printing only first  50 k-points.
              ixc          32
              kpt      0.00000000E+00  0.00000000E+00  0.00000000E+00
                       8.33333333E-02  0.00000000E+00  0.00000000E+00
                       1.66666667E-01  0.00000000E+00  0.00000000E+00
                       2.50000000E-01  0.00000000E+00  0.00000000E+00
                       3.33333333E-01  0.00000000E+00  0.00000000E+00
                       4.16666667E-01  0.00000000E+00  0.00000000E+00
                       5.00000000E-01  0.00000000E+00  0.00000000E+00
                       8.33333333E-02  8.33333333E-02  0.00000000E+00
                       1.66666667E-01  8.33333333E-02  0.00000000E+00
                       2.50000000E-01  8.33333333E-02  0.00000000E+00
                       3.33333333E-01  8.33333333E-02  0.00000000E+00
                       4.16666667E-01  8.33333333E-02  0.00000000E+00
                       5.00000000E-01  8.33333333E-02  0.00000000E+00
                      -4.16666667E-01  8.33333333E-02  0.00000000E+00
                      -3.33333333E-01  8.33333333E-02  0.00000000E+00
                      -2.50000000E-01  8.33333333E-02  0.00000000E+00
                      -1.66666667E-01  8.33333333E-02  0.00000000E+00
                      -8.33333333E-02  8.33333333E-02  0.00000000E+00
                       1.66666667E-01  1.66666667E-01  0.00000000E+00
                       2.50000000E-01  1.66666667E-01  0.00000000E+00
                       3.33333333E-01  1.66666667E-01  0.00000000E+00
                       4.16666667E-01  1.66666667E-01  0.00000000E+00
                       5.00000000E-01  1.66666667E-01  0.00000000E+00
                      -4.16666667E-01  1.66666667E-01  0.00000000E+00
                      -3.33333333E-01  1.66666667E-01  0.00000000E+00
                      -2.50000000E-01  1.66666667E-01  0.00000000E+00
                      -1.66666667E-01  1.66666667E-01  0.00000000E+00
                       2.50000000E-01  2.50000000E-01  0.00000000E+00
                       3.33333333E-01  2.50000000E-01  0.00000000E+00
                       4.16666667E-01  2.50000000E-01  0.00000000E+00
                       5.00000000E-01  2.50000000E-01  0.00000000E+00
                      -4.16666667E-01  2.50000000E-01  0.00000000E+00
                      -3.33333333E-01  2.50000000E-01  0.00000000E+00
                      -2.50000000E-01  2.50000000E-01  0.00000000E+00
                       3.33333333E-01  3.33333333E-01  0.00000000E+00
                       4.16666667E-01  3.33333333E-01  0.00000000E+00
                       5.00000000E-01  3.33333333E-01  0.00000000E+00
                      -4.16666667E-01  3.33333333E-01  0.00000000E+00
                      -3.33333333E-01  3.33333333E-01  0.00000000E+00
                       4.16666667E-01  4.16666667E-01  0.00000000E+00
                       5.00000000E-01  4.16666667E-01  0.00000000E+00
                      -4.16666667E-01  4.16666667E-01  0.00000000E+00
                       5.00000000E-01  5.00000000E-01  0.00000000E+00
                       8.33333333E-02  0.00000000E+00  8.33333333E-02
                       1.66666667E-01  0.00000000E+00  8.33333333E-02
                       2.50000000E-01  0.00000000E+00  8.33333333E-02
                       3.33333333E-01  0.00000000E+00  8.33333333E-02
                       4.16666667E-01  0.00000000E+00  8.33333333E-02
                       5.00000000E-01  0.00000000E+00  8.33333333E-02
                      -4.16666667E-01  0.00000000E+00  8.33333333E-02
                       outvar_i_n : Printing only first  50 k-points.
         kptrlatt       12    0    0      0   12    0      0    0   12
          kptrlen      1.67457904E+02
P           mkmem          28
            natom           9
            nband          42
            ngfft          60      60      60
             nkpt         163
            nstep        2500
             nsym           8
           ntypat           4
              occ      2.000000  2.000000  2.000000  2.000000  2.000000  2.000000
                       2.000000  2.000000  2.000000  2.000000  2.000000  2.000000
                       2.000000  2.000000  2.000000  2.000000  2.000000  2.000000
                       2.000000  2.000000  2.000000  2.000000  2.000000  2.000000
                       2.000000  2.000000  2.000000  2.000000  2.000000  2.000000
                       2.000000  2.000000  2.000000  2.000000  2.000000  2.000000
                       0.000000  0.000000  0.000000  0.000000  0.000000  0.000000
            rprim      0.0000000000E+00  6.9305453748E-01  7.2088515596E-01
                       7.0710678119E-01  0.0000000000E+00  7.0710678119E-01
                       7.2088515596E-01  6.9305453748E-01  0.0000000000E+00
          spgroup         107
           symrel      1  0  0   0  1  0   0  0  1       0  0  1   0  1  0   1  0  0
                       0 -1  1   0 -1  0   1 -1  0       1 -1  0   0 -1  0   0 -1  1
                       0 -1  1  -1  0  1   0  0  1       0  0  1  -1  0  1   0 -1  1
                       1  0  0   1  0 -1   1 -1  0       1 -1  0   1  0 -1   1  0  0
           toldfe      1.00000000E-08 Hartree
            typat      1  1  2  4  4  4  4  4  3
              wtk        0.00058    0.00463    0.00463    0.00463    0.00463    0.00463
                         0.00231    0.00231    0.00926    0.00926    0.00926    0.00926
                         0.00926    0.00926    0.00926    0.00926    0.00926    0.00463
                         0.00231    0.00926    0.00926    0.00926    0.00926    0.00926
                         0.00926    0.00926    0.00463    0.00231    0.00926    0.00926
                         0.00926    0.00926    0.00926    0.00463    0.00231    0.00926
                         0.00926    0.00926    0.00463    0.00231    0.00926    0.00463
                         0.00116    0.00116    0.00463    0.00463    0.00463    0.00463
                         0.00463    0.00463
                       outvars : Printing only first  50 k-points.
           xangst      2.6617154392E+00  2.6190863347E+00  2.6617154392E+00
                       7.9851463175E+00  7.7369999089E+00  7.9851463175E+00
                       5.3234308783E+00  7.4524840186E+00  5.3234308783E+00
                       5.3234308783E+00  5.1335768850E+00  2.4510090185E+00
                       5.3234308783E+00  5.1335768850E+00  8.1958527382E+00
                       5.3234308783E+00  2.5204051654E+00  5.3234308783E+00
                       8.1958527382E+00  5.1335768850E+00  5.3234308783E+00
                       2.4510090185E+00  5.1335768850E+00  5.3234308783E+00
                      -1.5928982202E-13  8.0025626439E-02 -1.5928982202E-13
            xcart      5.0299132237E+00  4.9493558909E+00  5.0299132237E+00
                       1.5089739671E+01  1.4620810918E+01  1.5089739671E+01
                       1.0059826447E+01  1.4083153805E+01  1.0059826447E+01
                       1.0059826447E+01  9.7010543947E+00  4.6317357941E+00
                       1.0059826447E+01  9.7010543947E+00  1.5487917101E+01
                       1.0059826447E+01  4.7628755066E+00  1.0059826447E+01
                       1.5487917101E+01  9.7010543947E+00  1.0059826447E+01
                       4.6317357941E+00  9.7010543947E+00  1.0059826447E+01
                      -3.0101413936E-13  1.5122651758E-01 -3.0101413936E-13
             xred      2.5587441998E-01  2.4412558002E-01  2.5587441998E-01
                       7.5587441998E-01  7.4412558002E-01  7.5587441998E-01
                       7.2807833802E-01  2.7192166198E-01  7.2807833802E-01
                       2.3173977165E-01  2.2867928412E-01  7.7132071588E-01
                       7.7132071588E-01  7.6826022835E-01  2.3173977165E-01
                       2.4623365839E-01  7.5376634161E-01  2.4623365839E-01
                       2.3173977165E-01  7.6826022835E-01  7.7132071588E-01
                       7.7132071588E-01  2.2867928412E-01  2.3173977165E-01
                       7.8181885330E-03 -7.8181885330E-03  7.8181885330E-03
            znucl       55.00000   53.00000   72.00000   17.00000

 chkinp: Checking input parameters for consistency.

== DATASET  1 ==================================================================
-   mpi_nproc: 6, omp_nthreads: -1 (-1 if OMP is not activated)

--- !DatasetInfo
iteration_state: {dtset: 1, }
dimensions: {natom: 9, nkpt: 163, mband: 42, nsppol: 1, nspinor: 1, nspden: 1, mpw: 8398, }
cutoff_energies: {ecut:  20.0, pawecutdg:  -1.0, }
electrons: {nelect:   7.20000000E+01, charge:   0.00000000E+00, occopt:   1.00000000E+00, tsmear:   1.00000000E-02, }
meta: {optdriver: 0, ionmov: 0, optcell: 0, iscf: 17, paral_kgb: 0, }
...

[...]
- [  3.99512114E-19,  -4.64518923E-03,  -3.85899567E-19, ]
- [  4.01930107E-03,   3.45940276E-04,  -7.69149748E-15, ]
- [ -4.01930107E-03,   3.45940276E-04,   7.69210189E-15, ]
- [ -6.68512852E-20,   1.61457864E-03,   8.04638320E-20, ]
force_length_stats: {min:   3.71549783E-05, max:   4.64518923E-03, mean:   2.67147353E-03, }
...

 Integrated electronic density in atomic spheres:
 Atom  Sphere_radius  Integrated_density
    1        2.00000          4.44066752
    2        2.00000          4.44066752
    3        2.00000          2.85305002
    4        2.00000          5.04762892
    5        2.00000          5.04762892
    6        2.00000          5.03715550
    7        2.00000          5.04762892
    8        2.00000          5.04762892
    9        2.00000          8.27680626

 ----iterations are completed or convergence reached----

 Mean square residual over all n,k,spin=   38.178E-07; max=  98.752E-05
 reduced coordinates (array xred) for    9 atoms
       0.255874419980      0.244125580020      0.255874419980
       0.755874419980      0.744125580020      0.755874419980
       0.728078338020      0.271921661980      0.728078338020
       0.231739771650      0.228679284120      0.771320715880
       0.771320715880      0.768260228350      0.231739771650
       0.246233658390      0.753766341610      0.246233658390
       0.231739771650      0.768260228350      0.771320715880
       0.771320715880      0.228679284120      0.231739771650
       0.007818188533     -0.007818188533      0.007818188533
 rms dE/dt=  2.5931E-02; max dE/dt=  4.4923E-02; dE/dt below (all hartree)
    1      -0.000361686452      0.000000000000     -0.000361686452
    2      -0.000361686452      0.000000000000     -0.000361686452
    3      -0.015211089107      0.000000000000     -0.015211089107
    4       0.037085381672      0.040433471242     -0.003348089570
    5      -0.043781560812     -0.040433471242     -0.003348089570
    6       0.044923394963      0.000000000000      0.044923394963
    7      -0.003348089570     -0.040433471242     -0.043781560812
    8      -0.003348089570      0.040433471242      0.037085381672
    9      -0.015617668419      0.000000000000     -0.015617668419

 cartesian coordinates (angstrom) at end:
    1      2.66171543916917     2.61908633465475     2.66171543916917
    2      7.98514631750775     7.73699990893752     7.98514631750775
    3      5.32343087833394     7.45248401858759     5.32343087833394
    4      5.32343087833305     5.13357688495648     2.45100901846148
    5      5.32343087834405     5.13357688495648     8.19585273821562
    6      5.32343087834375     2.52040516543898     5.32343087834375
    7      8.19585273821562     5.13357688495648     5.32343087834405
    8      2.45100901846148     5.13357688495648     5.32343087833305
    9     -0.00000000000016     0.08002562643869    -0.00000000000016

 cartesian forces (hartree/bohr) at end:
    1     -0.00000000000000     0.00003715497833     0.00000000000000
    2     -0.00000000000000     0.00003715497833     0.00000000000000
    3     -0.00000000000000     0.00157253953153     0.00000000000000
    4      0.00000000000001     0.00034594027589    -0.00401930107378
    5     -0.00000000000001     0.00034594027590     0.00401930107378
    6      0.00000000000000    -0.00464518922816    -0.00000000000000
    7      0.00401930107378     0.00034594027590    -0.00000000000001
    8     -0.00401930107378     0.00034594027589     0.00000000000001
    9     -0.00000000000000     0.00161457863638     0.00000000000000
 frms,max,avg= 1.8434882E-03 4.6451892E-03   0.000E+00  2.423E-07  0.000E+00 h/b

 cartesian forces (eV/Angstrom) at end:
    1     -0.00000000000000     0.00191058564372     0.00000000000000
    2     -0.00000000000000     0.00191058564372     0.00000000000000
    3     -0.00000000000000     0.08086322716269     0.00000000000000
    4      0.00000000000040     0.01778896272746    -0.20668075380452
    5     -0.00000000000040     0.01778896272828     0.20668075380452
    6      0.00000000000000    -0.23886521403033    -0.00000000000000
    7      0.20668075380452     0.01778896272828    -0.00000000000040
    8     -0.20668075380452     0.01778896272746     0.00000000000040
    9     -0.00000000000000     0.08302496466872     0.00000000000000
 frms,max,avg= 9.4795965E-02 2.3886521E-01   0.000E+00  1.246E-05  0.000E+00 e/A
 length scales= 13.954825348000 14.226742997000 13.954825348000 bohr
              =  7.384575524016  7.528468146480  7.384575524016 angstroms
 prteigrs : about to open file Cs2TiI6o_EIG
 Fermi (or HOMO) energy (hartree) =   0.06232   Average Vxc (hartree)=  -0.32646
 Eigenvalues (hartree) for nkpt= 163  k points:
 kpt#   1, nband= 42, wtk=  0.00058, kpt=  0.0000  0.0000  0.0000 (reduced coord)
  -2.24498   -1.06974   -1.06974   -1.06873   -0.66647   -0.66570   -0.46899   -0.45144
  -0.45088   -0.44887   -0.44887   -0.33698   -0.19315   -0.19259   -0.19259   -0.18643
  -0.18643   -0.18506   -0.10657   -0.05657   -0.04997   -0.04847   -0.04723   -0.04723
  -0.04308   -0.04308   -0.02899   -0.00674   -0.00215   -0.00215    0.01263    0.01263
   0.01649    0.04343    0.06232    0.06232    0.16710    0.16710    0.17235    0.22315
   0.23852    0.24105
 prteigrs : prtvol=0 or 1, do not print more k-points.

--- !EnergyTerms
iteration_state     : {dtset: 1, }
comment             : Components of total free energy in Hartree
kinetic             :  5.54164871538579E+01
hartree             :  4.07346542184245E+01
xc                  : -5.52503638315871E+01
Ewald energy        : -1.28229251274200E+02
psp_core            :  4.86939368256524E+00
local_psp           : -1.39619361070498E+02
non_local_psp       :  2.25917144990353E+01
total_energy        : -1.99486726622403E+02
...

--- !EnergyTermsDC
iteration_state     : {dtset: 1, }
comment             : '"Double-counting" decomposition of free energy'
band_energy         : -2.17523014784955E+01
Ewald energy        : -1.28229251274200E+02
psp_core            :  4.86939368256524E+00
xc_dc               : -5.43746352031304E+01
total_energy_dc     : -1.99486794273261E+02
...

 Cartesian components of stress tensor (hartree/bohr^3)
  sigma(1 1)= -1.15166441E-03  sigma(3 2)=  2.65898508E-15
  sigma(2 2)= -1.15670680E-03  sigma(3 1)= -5.11268446E-15
  sigma(3 3)= -1.15166441E-03  sigma(2 1)=  2.65920217E-15

-Cartesian components of stress tensor (GPa)         [Pressure=  3.3933E+01 GPa]
- sigma(1 1)= -3.38831311E+01  sigma(3 2)=  7.82300287E-11
- sigma(2 2)= -3.40314832E+01  sigma(3 1)= -1.50420345E-10
- sigma(3 3)= -3.38831311E+01  sigma(2 1)=  7.82364158E-11

== END DATASET(S) ==============================================================

 -outvars: echo values of variables after computation  --------
            acell      1.3954825348E+01  1.4226742997E+01  1.3954825348E+01 Bohr
              amu      1.32905430E+02  1.26904470E+02  1.78490000E+02
                       3.54527000E+01
           diemac      1.20000000E+01
             ecut      2.00000000E+01 Hartree
           etotal     -1.9948679427E+02
            fcart     -1.0443761950E-19  3.7154978332E-05  1.1805016625E-19
                      -9.9048847743E-20  3.7154978332E-05  1.1266139450E-19
                      -1.2554333908E-19  1.5725395315E-03  1.3915588583E-19
                       7.6914321870E-15  3.4594027589E-04 -4.0193010738E-03
                      -7.6919107678E-15  3.4594027590E-04  4.0193010738E-03
                       3.9951211394E-19 -4.6451892282E-03 -3.8589956719E-19
                       4.0193010738E-03  3.4594027590E-04 -7.6914974783E-15
                      -4.0193010738E-03  3.4594027589E-04  7.6921018940E-15
                      -6.6851285208E-20  1.6145786364E-03  8.0463831961E-20
-          fftalg         112
             iscf          17
           istwfk        2    0    0    0    0    0    3    0    0    0
                         0    0    0    0    0    0    0    0    0    0
                         0    0    0    0    0    0    0    0    0    0
                         0    0    0    0    0    0    0    0    0    0
                         0    0    7    0    0    0    0    0    0    0
                       outvar_i_n : Printing only first  50 k-points.
              ixc          32
              kpt      0.00000000E+00  0.00000000E+00  0.00000000E+00
                       8.33333333E-02  0.00000000E+00  0.00000000E+00
                       1.66666667E-01  0.00000000E+00  0.00000000E+00
                       2.50000000E-01  0.00000000E+00  0.00000000E+00
                       3.33333333E-01  0.00000000E+00  0.00000000E+00
                       4.16666667E-01  0.00000000E+00  0.00000000E+00
                       5.00000000E-01  0.00000000E+00  0.00000000E+00
                       8.33333333E-02  8.33333333E-02  0.00000000E+00
                       1.66666667E-01  8.33333333E-02  0.00000000E+00
                       2.50000000E-01  8.33333333E-02  0.00000000E+00
                       3.33333333E-01  8.33333333E-02  0.00000000E+00
                       4.16666667E-01  8.33333333E-02  0.00000000E+00
                       5.00000000E-01  8.33333333E-02  0.00000000E+00
                      -4.16666667E-01  8.33333333E-02  0.00000000E+00
                      -3.33333333E-01  8.33333333E-02  0.00000000E+00
                      -2.50000000E-01  8.33333333E-02  0.00000000E+00
                      -1.66666667E-01  8.33333333E-02  0.00000000E+00
                      -8.33333333E-02  8.33333333E-02  0.00000000E+00
                       1.66666667E-01  1.66666667E-01  0.00000000E+00
                       2.50000000E-01  1.66666667E-01  0.00000000E+00
                       3.33333333E-01  1.66666667E-01  0.00000000E+00
                       4.16666667E-01  1.66666667E-01  0.00000000E+00
                       5.00000000E-01  1.66666667E-01  0.00000000E+00
                      -4.16666667E-01  1.66666667E-01  0.00000000E+00
                      -3.33333333E-01  1.66666667E-01  0.00000000E+00
                      -2.50000000E-01  1.66666667E-01  0.00000000E+00
                      -1.66666667E-01  1.66666667E-01  0.00000000E+00
                       2.50000000E-01  2.50000000E-01  0.00000000E+00
                       3.33333333E-01  2.50000000E-01  0.00000000E+00
                       4.16666667E-01  2.50000000E-01  0.00000000E+00
                       5.00000000E-01  2.50000000E-01  0.00000000E+00
                      -4.16666667E-01  2.50000000E-01  0.00000000E+00
                      -3.33333333E-01  2.50000000E-01  0.00000000E+00
                      -2.50000000E-01  2.50000000E-01  0.00000000E+00
                       3.33333333E-01  3.33333333E-01  0.00000000E+00
                       4.16666667E-01  3.33333333E-01  0.00000000E+00
                       5.00000000E-01  3.33333333E-01  0.00000000E+00
                      -4.16666667E-01  3.33333333E-01  0.00000000E+00
                      -3.33333333E-01  3.33333333E-01  0.00000000E+00
                       4.16666667E-01  4.16666667E-01  0.00000000E+00
                       5.00000000E-01  4.16666667E-01  0.00000000E+00
                      -4.16666667E-01  4.16666667E-01  0.00000000E+00
                       5.00000000E-01  5.00000000E-01  0.00000000E+00
                       8.33333333E-02  0.00000000E+00  8.33333333E-02
                       1.66666667E-01  0.00000000E+00  8.33333333E-02
                       2.50000000E-01  0.00000000E+00  8.33333333E-02
                       3.33333333E-01  0.00000000E+00  8.33333333E-02
                       4.16666667E-01  0.00000000E+00  8.33333333E-02
                       5.00000000E-01  0.00000000E+00  8.33333333E-02
                      -4.16666667E-01  0.00000000E+00  8.33333333E-02
                       outvar_i_n : Printing only first  50 k-points.
         kptrlatt       12    0    0      0   12    0      0    0   12
          kptrlen      1.67457904E+02
P           mkmem          28
            natom           9
            nband          42
            ngfft          60      60      60
             nkpt         163
            nstep        2500
             nsym           8
           ntypat           4
              occ      2.000000  2.000000  2.000000  2.000000  2.000000  2.000000
                       2.000000  2.000000  2.000000  2.000000  2.000000  2.000000
                       2.000000  2.000000  2.000000  2.000000  2.000000  2.000000
                       2.000000  2.000000  2.000000  2.000000  2.000000  2.000000
                       2.000000  2.000000  2.000000  2.000000  2.000000  2.000000
                       2.000000  2.000000  2.000000  2.000000  2.000000  2.000000
                       0.000000  0.000000  0.000000  0.000000  0.000000  0.000000
            rprim      0.0000000000E+00  6.9305453748E-01  7.2088515596E-01
                       7.0710678119E-01  0.0000000000E+00  7.0710678119E-01
                       7.2088515596E-01  6.9305453748E-01  0.0000000000E+00
          spgroup         107
           strten     -1.1516644129E-03 -1.1567067986E-03 -1.1516644129E-03
                       2.6589850786E-15 -5.1126844626E-15  2.6592021712E-15
           symrel      1  0  0   0  1  0   0  0  1       0  0  1   0  1  0   1  0  0
                       0 -1  1   0 -1  0   1 -1  0       1 -1  0   0 -1  0   0 -1  1
                       0 -1  1  -1  0  1   0  0  1       0  0  1  -1  0  1   0 -1  1
                       1  0  0   1  0 -1   1 -1  0       1 -1  0   1  0 -1   1  0  0
           toldfe      1.00000000E-08 Hartree
            typat      1  1  2  4  4  4  4  4  3
              wtk        0.00058    0.00463    0.00463    0.00463    0.00463    0.00463
                         0.00231    0.00231    0.00926    0.00926    0.00926    0.00926
                         0.00926    0.00926    0.00926    0.00926    0.00926    0.00463
                         0.00231    0.00926    0.00926    0.00926    0.00926    0.00926
                         0.00926    0.00926    0.00463    0.00231    0.00926    0.00926
                         0.00926    0.00926    0.00926    0.00463    0.00231    0.00926
                         0.00926    0.00926    0.00463    0.00231    0.00926    0.00463
                         0.00116    0.00116    0.00463    0.00463    0.00463    0.00463
                         0.00463    0.00463
                       outvars : Printing only first  50 k-points.
           xangst      2.6617154392E+00  2.6190863347E+00  2.6617154392E+00
                       7.9851463175E+00  7.7369999089E+00  7.9851463175E+00
                       5.3234308783E+00  7.4524840186E+00  5.3234308783E+00
                       5.3234308783E+00  5.1335768850E+00  2.4510090185E+00
                       5.3234308783E+00  5.1335768850E+00  8.1958527382E+00
                       5.3234308783E+00  2.5204051654E+00  5.3234308783E+00
                       8.1958527382E+00  5.1335768850E+00  5.3234308783E+00
                       2.4510090185E+00  5.1335768850E+00  5.3234308783E+00
                      -1.5928982202E-13  8.0025626439E-02 -1.5928982202E-13
            xcart      5.0299132237E+00  4.9493558909E+00  5.0299132237E+00
                       1.5089739671E+01  1.4620810918E+01  1.5089739671E+01
                       1.0059826447E+01  1.4083153805E+01  1.0059826447E+01
                       1.0059826447E+01  9.7010543947E+00  4.6317357941E+00
                       1.0059826447E+01  9.7010543947E+00  1.5487917101E+01
                       1.0059826447E+01  4.7628755066E+00  1.0059826447E+01
                       1.5487917101E+01  9.7010543947E+00  1.0059826447E+01
                       4.6317357941E+00  9.7010543947E+00  1.0059826447E+01
                      -3.0101413936E-13  1.5122651758E-01 -3.0101413936E-13
             xred      2.5587441998E-01  2.4412558002E-01  2.5587441998E-01
                       7.5587441998E-01  7.4412558002E-01  7.5587441998E-01
                       7.2807833802E-01  2.7192166198E-01  7.2807833802E-01
                       2.3173977165E-01  2.2867928412E-01  7.7132071588E-01
                       7.7132071588E-01  7.6826022835E-01  2.3173977165E-01
                       2.4623365839E-01  7.5376634161E-01  2.4623365839E-01
                       2.3173977165E-01  7.6826022835E-01  7.7132071588E-01
                       7.7132071588E-01  2.2867928412E-01  2.3173977165E-01
                       7.8181885330E-03 -7.8181885330E-03  7.8181885330E-03
            znucl       55.00000   53.00000   72.00000   17.00000

- Timing analysis has been suppressed with timopt=0

 Suggested references for the acknowledgment of ABINIT usage.

 Calculation completed.
.Delivered   0 WARNINGs and   0 COMMENTs to log file.