.Version 9.2.2 of ABINIT

 ABINIT is a project of the Universite Catholique de Louvain,
 Corning Inc. and other collaborators, see ~abinit/doc/developers/contributors.txt .
 acknowledgments of the ABINIT effort.

.Starting date : Sun  6 Nov 2022.
- ( at 06h20 )

- input  file    -> Cs2TiI6.in
- output file    -> Cs2TiI6.out
- root for input  files -> Cs2TiI6i
- root for output files -> Cs2TiI6o

- inpspheads : Reading pseudopotential header in XML form from
-   ../../../Psps_for_tests/ATOMICDATA/Cs.GGA_PBE-JTH.xml
- inpspheads : Reading pseudopotential header in XML form from
-   ../../../Psps_for_tests/ATOMICDATA/I.GGA_PBE-JTH.xml
- inpspheads : Reading pseudopotential header in XML form from
-   ../../../Psps_for_tests/ATOMICDATA/Hf.GGA_PBE-JTH.xml
- inpspheads : Reading pseudopotential header in XML form from
-   ../../../Psps_for_tests/ATOMICDATA/Cl.GGA_PBE-JTH.xml

 DATASET    1 : space group Fm m 2 (# 42); Bravais oF (face-center ortho.)
     intxc =       0    ionmov =       2      iscf =      17    lmnmax =      18
     lnmax =       6     mgfft =      64  mpssoang =       3    mqgrid =    3916
     natom =       9  nloc_mem =       2    nspden =       1   nspinor =       1
    nsppol =       1      nsym =       4    n1xccc =       1    ntypat =       4
    occopt =       1   xclevel =       2
-    mband =          42        mffmem =           1         mkmem =           6
       mpw =       10371          nfft =      262144          nkpt =          32
Pmy_natom=         2
 PAW method is used; the additional fine FFT grid is defined by:
   mgfftf=       100    nfftf =   1000000
  Rough estimation (10% accuracy) of disk space for files :

[...]

 DATASET   10 : space group Fm m 2 (# 42); Bravais oF (face-center ortho.)
     intxc =       0    ionmov =       2      iscf =      17    lmnmax =      18
     lnmax =       6     mgfft =      64  mpssoang =       3    mqgrid =    3881
     natom =       9  nloc_mem =       2    nspden =       1   nspinor =       1
    nsppol =       1      nsym =       4    n1xccc =       1    ntypat =       4
    occopt =       1   xclevel =       2
-    mband =          42        mffmem =           1         mkmem =           6
       mpw =       10087          nfft =      262144          nkpt =          32
Pmy_natom=         2
 PAW method is used; the additional fine FFT grid is defined by:
   mgfftf=       100    nfftf =   1000000
  Rough estimation (10% accuracy) of disk space for files :

------------- Echo of variables that govern the present computation ------------
-
- outvars: echo of selected default values
-   iomode0 =  0 , fftalg0 =112 , wfoptalg0 = 10
-
- outvars: echo of global parameters not present in the input file
-  max_nthreads =    0
-
 -outvars: echo values of preprocessed input variables --------
            acell1     1.4689164403E+01  1.4799241942E+01  1.4481435856E+01 Bohr
            acell2     1.4674460534E+01  1.4784427886E+01  1.4466939924E+01 Bohr
            acell3     1.4659756666E+01  1.4769613830E+01  1.4452443993E+01 Bohr
            acell4     1.4645052798E+01  1.4754799774E+01  1.4437948061E+01 Bohr
            acell5     1.4630348930E+01  1.4739985718E+01  1.4423452129E+01 Bohr
            acell6     1.4615645061E+01  1.4725171662E+01  1.4408956197E+01 Bohr
            acell7     1.4600941193E+01  1.4710357606E+01  1.4394460265E+01 Bohr
            acell8     1.4586237325E+01  1.4695543550E+01  1.4379964334E+01 Bohr
            acell9     1.4571533457E+01  1.4680729494E+01  1.4365468402E+01 Bohr
            acell10    1.4556829588E+01  1.4665915438E+01  1.4350972470E+01 Bohr
              amu      1.32905430E+02  1.26904470E+02  1.78490000E+02
                       3.54527000E+01
           diemac      1.20000000E+01
          dilatmx      1.15000000E+00
             ecut      1.60000000E+01 Hartree
           ecutsm      5.00000000E-01 Hartree
-          fftalg         112
          getxred1          0
          getxred2         -1
          getxred3         -1
          getxred4         -1
          getxred5         -1
          getxred6         -1
          getxred7         -1
          getxred8         -1
          getxred9         -1
          getxred10        -1
           ionmov           2
              ixc     -101130
           jdtset        1    2    3    4    5    6    7    8    9   10
              kpt      0.00000000E+00 -1.25000000E-01  0.00000000E+00
                       0.00000000E+00 -3.75000000E-01  0.00000000E+00
                       1.25000000E-01 -2.50000000E-01  0.00000000E+00
                       0.00000000E+00 -2.50000000E-01  1.25000000E-01
                       1.25000000E-01 -1.25000000E-01  1.25000000E-01
                       1.25000000E-01  5.00000000E-01  0.00000000E+00
                       2.50000000E-01 -3.75000000E-01  0.00000000E+00
                       0.00000000E+00  5.00000000E-01  1.25000000E-01
                       1.25000000E-01 -3.75000000E-01  1.25000000E-01
                       2.50000000E-01 -2.50000000E-01  1.25000000E-01
                       0.00000000E+00 -3.75000000E-01  2.50000000E-01
                       1.25000000E-01 -2.50000000E-01  2.50000000E-01
                       2.50000000E-01 -1.25000000E-01  2.50000000E-01
                       1.25000000E-01  2.50000000E-01  0.00000000E+00
                       2.50000000E-01  3.75000000E-01  0.00000000E+00
                       3.75000000E-01  5.00000000E-01  0.00000000E+00
                       0.00000000E+00  2.50000000E-01  1.25000000E-01
                       1.25000000E-01  3.75000000E-01  1.25000000E-01
                       2.50000000E-01  5.00000000E-01  1.25000000E-01
                       3.75000000E-01 -3.75000000E-01  1.25000000E-01
                       0.00000000E+00  3.75000000E-01  2.50000000E-01
                       1.25000000E-01  5.00000000E-01  2.50000000E-01
                       2.50000000E-01 -3.75000000E-01  2.50000000E-01
                       3.75000000E-01 -2.50000000E-01  2.50000000E-01
                       0.00000000E+00  5.00000000E-01  3.75000000E-01
                       1.25000000E-01 -3.75000000E-01  3.75000000E-01
                       2.50000000E-01 -2.50000000E-01  3.75000000E-01
                       3.75000000E-01 -1.25000000E-01  3.75000000E-01
                       5.00000000E-01  2.50000000E-01  1.25000000E-01
                      -3.75000000E-01  3.75000000E-01  1.25000000E-01
                       1.25000000E-01  2.50000000E-01  5.00000000E-01
                       1.25000000E-01  3.75000000E-01 -3.75000000E-01
         kptrlatt        4    4   -4     -4    4    4      4   -4    4
          kptrlen1     8.12829081E+01
          kptrlen2     8.12015438E+01
          kptrlen3     8.11201795E+01
          kptrlen4     8.10388152E+01
          kptrlen5     8.09574510E+01
          kptrlen6     8.08760867E+01
          kptrlen7     8.07947224E+01
          kptrlen8     8.07133582E+01
          kptrlen9     8.06319939E+01
          kptrlen10    8.05506296E+01
P           mkmem           6
            natom           9
            nband          42
           ndtset          10
            ngfft          64      64      64
          ngfftdg         100     100     100
             nkpt          32
            nstep        2500
             nsym           4
            ntime        1000
           ntypat           4
              occ      2.000000  2.000000  2.000000  2.000000  2.000000  2.000000
                       2.000000  2.000000  2.000000  2.000000  2.000000  2.000000
                       2.000000  2.000000  2.000000  2.000000  2.000000  2.000000
                       2.000000  2.000000  2.000000  2.000000  2.000000  2.000000
                       2.000000  2.000000  2.000000  2.000000  2.000000  2.000000
                       2.000000  2.000000  2.000000  2.000000  2.000000  2.000000
                       0.000000  0.000000  0.000000  0.000000  0.000000  0.000000
          optcell           3
        optforces           1
        pawecutdg      4.00000000E+01 Hartree
            prtwf           0
            rprim      0.0000000000E+00  6.9169104714E-01  7.2219353037E-01
                       6.9725639674E-01  0.0000000000E+00  7.1682181691E-01
                       7.1255821692E-01  7.0161298983E-01  0.0000000000E+00
           shiftk     -5.00000000E-01  5.00000000E-01  5.00000000E-01
          spgroup          42
           symrel      1  0  0   0  1  0   0  0  1       0  1 -1   1  0 -1   0  0 -1
                       1  0  0   1  0 -1   1 -1  0       0  1 -1   0  1  0  -1  1  0
           toldff      1.00000000E-08
           tolmxf      1.00000000E-05
            typat      1  1  4  4  2  4  2  2  3
           useylm           1
              wtk        0.03125    0.03125    0.03125    0.03125    0.03125    0.03125
                         0.03125    0.03125    0.03125    0.03125    0.03125    0.03125
                         0.03125    0.03125    0.03125    0.03125    0.03125    0.03125
                         0.03125    0.03125    0.03125    0.03125    0.03125    0.03125
                         0.03125    0.03125    0.03125    0.03125    0.03125    0.03125
                         0.03125    0.03125
           xangst1     2.7302543824E+00  2.6883163996E+00  2.8100931944E+00
                       8.1907631471E+00  8.0649491989E+00  8.4238270119E+00
                       5.4605087649E+00  8.3199188570E+00  5.6858233802E+00
                       5.4605087649E+00  5.3766327994E+00  2.5420464809E+00
                       5.4605087646E+00  5.3766327992E+00  8.4622520337E+00
                       5.4605087646E+00  2.4333467415E+00  5.6858233800E+00
                       8.0682580270E+00  5.3766327994E+00  5.5963642588E+00
                       2.8527595024E+00  5.3766327992E+00  5.5963642589E+00
                      -5.9662334661E-12 -3.9086169315E-12  1.0727654118E-01
           xangst2     2.7275213950E+00  2.6856253922E+00  2.8072802883E+00
                       8.1825641850E+00  8.0568761767E+00  8.4153947527E+00
                       5.4550427902E+00  8.3115906099E+00  5.6801318653E+00
                       5.4550427902E+00  5.3712507846E+00  2.5395018899E+00
                       5.4550427898E+00  5.3712507844E+00  8.4537813109E+00
                       5.4550427898E+00  2.4309109590E+00  5.6801318651E+00
                       8.0601816927E+00  5.3712507846E+00  5.5907622925E+00
                       2.8499038873E+00  5.3712507844E+00  5.5907622927E+00
                      -5.9602621683E-12 -3.9047040693E-12  1.0716915725E-01
           xangst3     2.7247884076E+00  2.6829343848E+00  2.8044673822E+00
                       8.1743652229E+00  8.0488031545E+00  8.4069624934E+00
                       5.4495768154E+00  8.3032623628E+00  5.6744403504E+00
                       5.4495768154E+00  5.3658687698E+00  2.5369572988E+00
                       5.4495768151E+00  5.3658687695E+00  8.4453105882E+00
                       5.4495768151E+00  2.4284751765E+00  5.6744403502E+00
                       8.0521053583E+00  5.3658687697E+00  5.5851603263E+00
[...]
                      -6.0524790814E-12 -3.9649262149E-12  1.0888414107E-01
           xangst7     2.7123929797E+00  2.6712593660E+00  2.7929639898E+00
                       8.1371789391E+00  8.0137780981E+00  8.3778964010E+00
                       5.4247859596E+00  8.2503378896E+00  5.6596455496E+00
                       5.4247859596E+00  5.3425187322E+00  2.5457332124E+00
                       5.4247859592E+00  5.3425187320E+00  8.4100961633E+00
                       5.4247859592E+00  2.4346995745E+00  5.6596455495E+00
                       8.0001257684E+00  5.3425187322E+00  5.5622415751E+00
                       2.8494461505E+00  5.3425187320E+00  5.5622415752E+00
                      -6.0581236331E-12 -3.9684091002E-12  1.0899527401E-01
           xangst8     2.7092202705E+00  2.6686498650E+00  2.7899278063E+00
                       8.1276608115E+00  8.0059495949E+00  8.3699759899E+00
                       5.4184405412E+00  8.2400336547E+00  5.6551885728E+00
                       5.4184405412E+00  5.3372997300E+00  2.5460183591E+00
                       5.4184405409E+00  5.3372997298E+00  8.4016172688E+00
                       5.4184405409E+00  2.4345658051E+00  5.6551885726E+00
                       7.9884775923E+00  5.3372997300E+00  5.5565734034E+00
                       2.8484034898E+00  5.3372997298E+00  5.5565734035E+00
                      -6.0756078775E-12 -3.9796534279E-12  1.0932209280E-01
           xangst9     2.7062966582E+00  2.6659753076E+00  2.7866949588E+00
                       8.1188899747E+00  7.9979259228E+00  8.3614820442E+00
                       5.4125933166E+00  8.2295464395E+00  5.6502167476E+00
                       5.4125933166E+00  5.3319506153E+00  2.5463388714E+00
                       5.4125933163E+00  5.3319506151E+00  8.3925044875E+00
                       5.4125933163E+00  2.4343547909E+00  5.6502167475E+00
                       7.9776283042E+00  5.3319506153E+00  5.5505602663E+00
                       2.8475583287E+00  5.3319506151E+00  5.5505602664E+00
                      -6.0980340093E-12 -3.9940303214E-12  1.0972229379E-01
           xangst10    2.7033568083E+00  2.6632450227E+00  2.7838011067E+00
                       8.1100704248E+00  7.9897350680E+00  8.3534771408E+00
                       5.4067136167E+00  8.2187771166E+00  5.6454320383E+00
                       5.4067136167E+00  5.3264900455E+00  2.5464581840E+00
                       5.4067136164E+00  5.3264900453E+00  8.3834921333E+00
                       5.4067136164E+00  2.4342029741E+00  5.6454320382E+00
                       7.9669022190E+00  5.3264900455E+00  5.5446945261E+00
                       2.8465250140E+00  5.3264900453E+00  5.5446945262E+00
                      -6.1090632179E-12 -4.0011152500E-12  1.0992657928E-01
            xcart1     5.1593868658E+00  5.0800141449E+00  5.3102910116E+00
                       1.5478160597E+01  1.5240042435E+01  1.5919155498E+01
                       1.0318773732E+01  1.5717332619E+01  1.0744865276E+01
                       1.0318773732E+01  1.0160028290E+01  4.8089896423E+00
                       1.0318773731E+01  1.0160028290E+01  1.5989205715E+01
                       1.0318773731E+01  4.6027239604E+00  1.0744865276E+01
                       1.5242900705E+01  1.0160028290E+01  1.0575081254E+01
                       5.3946467586E+00  1.0160028290E+01  1.0575081254E+01
                      -1.1309525699E-11 -7.4097654443E-12  2.0338096402E-01
            xcart2     5.1541526774E+00  5.0747213561E+00  5.3053091930E+00
                       1.5462458032E+01  1.5224164068E+01  1.5904131139E+01
                       1.0308305355E+01  1.5696454572E+01  1.0734839519E+01
                       1.0308305355E+01  1.0149442712E+01  4.8091042510E+00
                       1.0308305355E+01  1.0149442712E+01  1.5971124397E+01
                       1.0308305355E+01  4.6024308527E+00  1.0734839519E+01
                       1.5223590901E+01  1.0149442712E+01  1.0563834586E+01
                       5.3930198084E+00  1.0149442712E+01  1.0563834586E+01
                      -1.1320055015E-11 -7.4161601405E-12  2.0355838051E-01
            xcart3     5.1484216365E+00  5.0690237924E+00  5.2998061538E+00
                       1.5445264909E+01  1.5207071377E+01  1.5890453114E+01
                       1.0296843273E+01  1.5673957639E+01  1.0728232029E+01
                       1.0296843273E+01  1.0138047585E+01  4.8095405669E+00
                       1.0296843273E+01  1.0138047585E+01  1.5956802117E+01
                       1.0296843273E+01  4.6021375310E+00  1.0728232028E+01
                       1.5202394870E+01  1.0138047585E+01  1.0554007302E+01
                       5.3912916758E+00  1.0138047585E+01  1.0554007302E+01
                      -1.1347871051E-11 -7.4345035196E-12  2.0409506620E-01
            xcart4     5.1431954870E+00  5.0641698743E+00  5.2943293612E+00
                       1.5429586461E+01  1.5192509623E+01  1.5874000563E+01
                       1.0286390974E+01  1.5654755827E+01  1.0717029163E+01
                       1.0286390974E+01  1.0128339749E+01  4.8098183432E+00
                       1.0286390974E+01  1.0128339748E+01  1.5937320706E+01
                       1.0286390974E+01  4.6019236700E+00  1.0717029163E+01
                       1.5183143508E+01  1.0128339749E+01  1.0541641663E+01
                       5.3896384405E+00  1.0128339748E+01  1.0541641663E+01
                      -1.1374545020E-11 -7.4516804983E-12  2.0455898698E-01
            xcart5     5.1369536959E+00  5.0585016460E+00  5.2892461415E+00
                       1.5410861088E+01  1.5175504938E+01  1.5861732856E+01
                       1.0273907392E+01  1.5632453956E+01  1.0711516974E+01
                       1.0273907392E+01  1.0117003292E+01  4.8100633011E+00
                       1.0273907392E+01  1.0117003292E+01  1.5925017259E+01
                       1.0273907392E+01  4.6015526284E+00  1.0711516973E+01
                       1.5159861044E+01  1.0117003292E+01  1.0532927739E+01
                       5.3879537399E+00  1.0117003292E+01  1.0532927739E+01
                      -1.1393048509E-11 -7.4635013692E-12  2.0494473534E-01
            xcart6     5.1315047926E+00  5.0531697237E+00  5.2828431283E+00
                       1.5394514378E+01  1.5159509171E+01  1.5845811551E+01
                       1.0263009586E+01  1.5611431241E+01  1.0703323499E+01
                       1.0263009586E+01  1.0106339448E+01  4.8106398190E+00
                       1.0263009585E+01  1.0106339447E+01  1.5908605499E+01
                       1.0263009585E+01  4.6012476543E+00  1.0703323499E+01
                       1.5139679811E+01  1.0106339448E+01  1.0521719590E+01
                       5.3863393600E+00  1.0106339447E+01  1.0521719591E+01
                      -1.1437527889E-11 -7.4926246832E-12  2.0576120684E-01
            xcart7     5.1256798964E+00  5.0479486317E+00  5.2779370397E+00
                       1.5377039689E+01  1.5143845895E+01  1.5831929768E+01
                       1.0251359793E+01  1.5590879115E+01  1.0695180098E+01
                       1.0251359793E+01  1.0095897264E+01  4.8107385789E+00
                       1.0251359792E+01  1.0095897263E+01  1.5892778500E+01
                       1.0251359792E+01  4.6009154117E+00  1.0695180098E+01
                       1.5118046731E+01  1.0095897264E+01  1.0511113262E+01
                       5.3846728548E+00  1.0095897263E+01  1.0511113262E+01
                      -1.1448194546E-11 -7.4992063825E-12  2.0597121766E-01
            xcart8     5.1196843449E+00  5.0430173893E+00  5.2721994843E+00
                       1.5359053035E+01  1.5129052168E+01  1.5816962360E+01
                       1.0239368690E+01  1.5571406933E+01  1.0686757632E+01
                       1.0239368690E+01  1.0086034779E+01  4.8112774279E+00
                       1.0239368690E+01  1.0086034778E+01  1.5876755711E+01
                       1.0239368690E+01  4.6006626241E+00  1.0686757632E+01
                       1.5096034868E+01  1.0086034779E+01  1.0500401970E+01
                       5.3827025116E+00  1.0086034778E+01  1.0500401970E+01
                      -1.1481234979E-11 -7.5204550826E-12  2.0658881567E-01
            xcart9     5.1141595184E+00  5.0379632084E+00  5.2660902880E+00
                       1.5342478555E+01  1.5113889625E+01  1.5800911129E+01
                       1.0228319037E+01  1.5551588968E+01  1.0677362244E+01
                       1.0228319037E+01  1.0075926417E+01  4.8118831084E+00
                       1.0228319037E+01  1.0075926417E+01  1.5859535050E+01
                       1.0228319036E+01  4.6002638650E+00  1.0677362244E+01
                       1.5075532685E+01  1.0075926417E+01  1.0489038787E+01
                       5.3811053887E+00  1.0075926417E+01  1.0489038788E+01
                      -1.1523614227E-11 -7.5476234739E-12  2.0734508593E-01
            xcart10    5.1086040071E+00  5.0328037176E+00  5.2606217001E+00
                       1.5325812021E+01  1.5098411153E+01  1.5785784053E+01
                       1.0217208014E+01  1.5531237898E+01  1.0668320454E+01
                       1.0217208014E+01  1.0065607435E+01  4.8121085766E+00
                       1.0217208014E+01  1.0065607435E+01  1.5842504169E+01
                       1.0217208014E+01  4.5999769729E+00  1.0668320454E+01
                       1.5055263321E+01  1.0065607435E+01  1.0477954145E+01
                       5.3791527069E+00  1.0065607435E+01  1.0477954145E+01
                      -1.1544456410E-11 -7.5610120486E-12  2.0773112956E-01
             xred1     2.5027612609E-01  2.5027612609E-01  2.4972387391E-01
                       7.5027612609E-01  7.5027612609E-01  7.4972387391E-01
                       7.7989839606E-01  2.3292114649E-01  7.6707885351E-01
                       2.2664959330E-01  2.2664959330E-01  7.7335040670E-01
                       7.5357762067E-01  7.5357762067E-01  2.4642237933E-01
                       2.3292114649E-01  7.7989839606E-01  2.2010160394E-01
                       2.5980738799E-01  7.3700817765E-01  7.4019261201E-01
                       7.3700817765E-01  2.5980738799E-01  2.6299182235E-01
                       9.5854256733E-03  9.5854256733E-03 -9.5854256733E-03
             xred2     2.5027824884E-01  2.5027824884E-01  2.4972175116E-01
                       7.5027824884E-01  7.5027824884E-01  7.4972175116E-01
                       7.7968345587E-01  2.3314981686E-01  7.6685018314E-01
                       2.2686975380E-01  2.2686975380E-01  7.7313024620E-01
                       7.5343865941E-01  7.5343865941E-01  2.4656134059E-01
                       2.3314981686E-01  7.7968345587E-01  2.2031654413E-01
                       2.5993561873E-01  7.3676332001E-01  7.4006438127E-01
                       7.3676332001E-01  2.5993561873E-01  2.6323667999E-01
                       9.6028776381E-03  9.6028776381E-03 -9.6028776381E-03
             xred3     2.5021163362E-01  2.5021163362E-01  2.4978836638E-01
                       7.5021163362E-01  7.5021163362E-01  7.4978836638E-01
                       7.7952203185E-01  2.3346915456E-01  7.6653084544E-01
                       2.2706547509E-01  2.2706547509E-01  7.7293452491E-01
                       7.5334406752E-01  7.5334406752E-01  2.4665593248E-01
                       2.3346915456E-01  7.7952203185E-01  2.2047796815E-01
                       2.6006361009E-01  7.3647676576E-01  7.3993638991E-01
                       7.3647676576E-01  2.6006361009E-01  2.6352323424E-01
                       9.6356278790E-03  9.6356278790E-03 -9.6356278790E-03
             xred4     2.5021237713E-01  2.5021237713E-01  2.4978762287E-01
                       7.5021237713E-01  7.5021237713E-01  7.4978762287E-01
                       7.7931104482E-01  2.3367215278E-01  7.6632784722E-01
                       2.2731416939E-01  2.2731416939E-01  7.7268583061E-01
                       7.5320491547E-01  7.5320491547E-01  2.4679508453E-01
                       2.3367215278E-01  7.7931104482E-01  2.2068895518E-01
                       2.6018178466E-01  7.3622362926E-01  7.3981821534E-01
                       7.3622362926E-01  2.6018178466E-01  2.6377637074E-01
                       9.6675493539E-03  9.6675493539E-03 -9.6675493539E-03
             xred5     2.5014200936E-01  2.5014200936E-01  2.4985799064E-01
                       7.5014200936E-01  7.5014200936E-01  7.4985799064E-01
                       7.7915831712E-01  2.3399187757E-01  7.6600812243E-01
                       2.2748022442E-01  2.2748022442E-01  7.7251977558E-01
                       7.5313489099E-01  7.5313489099E-01  2.4686510901E-01
                       2.3399187757E-01  7.7915831712E-01  2.2084168288E-01
                       2.6034456763E-01  7.3591374162E-01  7.3965543237E-01
                       7.3591374162E-01  2.6034456763E-01  2.6408625838E-01
                       9.6923619236E-03  9.6923619236E-03 -9.6923619236E-03
             xred6     2.5006432457E-01  2.5006432457E-01  2.4993567543E-01
                       7.5006432457E-01  7.5006432457E-01  7.4993567543E-01
                       7.7900207868E-01  2.3428538658E-01  7.6571461342E-01
                       2.2771249645E-01  2.2771249645E-01  7.7228750355E-01
                       7.5303668733E-01  7.5303668733E-01  2.4696331267E-01
                       2.3428538658E-01  7.7900207868E-01  2.2099792132E-01
                       2.6046267593E-01  7.3563228235E-01  7.3953732407E-01
                       7.3563228235E-01  2.6046267593E-01  2.6436771765E-01
                       9.7397435362E-03  9.7397435362E-03 -9.7397435362E-03
             xred7     2.5004456492E-01  2.5004456492E-01  2.4995543508E-01
                       7.5004456492E-01  7.5004456492E-01  7.4995543508E-01
                       7.7882816380E-01  2.3454946243E-01  7.6545053757E-01
                       2.2791083445E-01  2.2791083445E-01  7.7208916555E-01
                       7.5292730010E-01  7.5292730010E-01  2.4707269990E-01
                       2.3454946243E-01  7.7882816380E-01  2.2117183620E-01
                       2.6060069367E-01  7.3533643960E-01  7.3939930633E-01
                       7.3533643960E-01  2.6060069367E-01  2.6466356040E-01
                       9.7579761031E-03  9.7579761031E-03 -9.7579761031E-03
             xred8     2.4999137234E-01  2.4999137234E-01  2.5000862766E-01
                       7.4999137234E-01  7.4999137234E-01  7.5000862766E-01
                       7.7866202361E-01  2.3480387966E-01  7.6519612034E-01
                       2.2813587583E-01  2.2813587583E-01  7.7186412417E-01
                       7.5282658790E-01  7.5282658790E-01  2.4717341210E-01
                       2.3480387966E-01  7.7866202361E-01  2.2133797639E-01
                       2.6074001898E-01  7.3505306750E-01  7.3925998102E-01
                       7.3505306750E-01  2.6074001898E-01  2.6494693250E-01
                       9.7958018643E-03  9.7958018643E-03 -9.7958018643E-03
             xred9     2.4993734434E-01  2.4993734434E-01  2.5006265566E-01
                       7.4993734434E-01  7.4993734434E-01  7.5006265566E-01
                       7.7848530507E-01  2.3504519592E-01  7.6495480408E-01
                       2.2837992127E-01  2.2837992127E-01  7.7162007873E-01
                       7.5271973251E-01  7.5271973251E-01  2.4728026749E-01
                       2.3504519592E-01  7.7848530507E-01  2.2151469493E-01
                       2.6087646010E-01  7.3477775616E-01  7.3912353990E-01
                       7.3477775616E-01  2.6087646010E-01  2.6522224384E-01
                       9.8409403001E-03  9.8409403001E-03 -9.8409403001E-03
             xred10    2.4990691466E-01  2.4990691466E-01  2.5009308534E-01
                       7.4990691466E-01  7.4990691466E-01  7.5009308534E-01
                       7.7830103441E-01  2.3530047557E-01  7.6469952443E-01
                       2.2860020659E-01  2.2860020659E-01  7.7139979341E-01
                       7.5260141541E-01  7.5260141541E-01  2.4739858459E-01
                       2.3530047557E-01  7.7830103441E-01  2.2169896559E-01
                       2.6099721909E-01  7.3451750963E-01  7.3900278091E-01
                       7.3451750963E-01  2.6099721909E-01  2.6548249037E-01
                       9.8683099883E-03  9.8683099883E-03 -9.8683099883E-03
            znucl       55.00000   53.00000   72.00000   17.00000

- Timing analysis has been suppressed with timopt=0

 Suggested references for the acknowledgment of ABINIT usage.

 Calculation completed.
.Delivered   0 WARNINGs and 190 COMMENTs to log file.