.Version 9.2.2 of ABINIT

 ABINIT is a project of the Universite Catholique de Louvain,
 Corning Inc. and other collaborators, see ~abinit/doc/developers/contributors.txt .
 acknowledgments of the ABINIT effort.

.Starting date : Sun 16 Jul 2023.
- ( at 22h32 )

- The starting date is more than 2 years after the initial release
- of this version of ABINIT, namely Nov 2020.
- Note that the use beyond 3 years after the release will not be supported.
- Action: please, switch to a more recent version of ABINIT.

- input  file    -> Cs2TiI6.in
- output file    -> Cs2TiI6.out
- root for input  files -> Cs2TiI6i
- root for output files -> Cs2TiI6o

 Symmetries : space group I4 m m (#107); Bravais tI (body-center tetrag.)
     intxc =       0    ionmov =       0      iscf =      17    lmnmax =       8
     lnmax =       8     mgfft =      72  mpssoang =       4    mqgrid =    3001
     natom =       9  nloc_mem =       1    nspden =       1   nspinor =       1
    nsppol =       1      nsym =       8    n1xccc =    2501    ntypat =       4
    occopt =       1   xclevel =       2
-    mband =          42        mffmem =           1         mkmem =           1
       mpw =       12222          nfft =      373248          nkpt =           4
  Rough estimation (10% accuracy) of disk space for files :

------------- Echo of variables that govern the present computation ------------
-
- outvars: echo of selected default values
-   iomode0 =  0 , fftalg0 =112 , wfoptalg0 =  0
-
- outvars: echo of global parameters not present in the input file
-  max_nthreads =    0
-
 -outvars: echo values of preprocessed input variables --------
            acell      1.1132300400E+01  1.1132300400E+01  1.1132300400E+01 Bohr
              amu      1.32905430E+02  1.26904470E+02  1.78490000E+02
                       7.99040000E+01
           diemac      1.20000000E+01
             ecut      2.00000000E+01 Hartree
-          fftalg         112
             iscf          17
           istwfk        1    1    1    1
              ixc        -428
              kpt      0.00000000E+00  0.00000000E+00  0.00000000E+00
                       5.00000000E-01  0.00000000E+00  0.00000000E+00
                       5.00000000E-01  5.00000000E-01  0.00000000E+00
                       5.00000000E-01  0.00000000E+00  5.00000000E-01
         kptns_hf      0.00000000E+00  0.00000000E+00  0.00000000E+00
                       5.00000000E-01  0.00000000E+00  0.00000000E+00
                       0.00000000E+00  5.00000000E-01  0.00000000E+00
                       5.00000000E-01  5.00000000E-01  0.00000000E+00
                       0.00000000E+00  0.00000000E+00  5.00000000E-01
                       5.00000000E-01  0.00000000E+00  5.00000000E-01
                       0.00000000E+00  5.00000000E-01  5.00000000E-01
                       5.00000000E-01  5.00000000E-01  5.00000000E-01
         kptrlatt        2    0    0      0    2    0      0    0    2
          kptrlen      3.17506010E+01
P           mkmem           1
            natom           9
            nband          42
          nbandhf          36
            ngfft          72      72      72
             nkpt           4
           nkpthf           8
-           npkpt           4
            nstep        2500
             nsym           8
           ntypat           4
              occ      2.000000  2.000000  2.000000  2.000000  2.000000  2.000000
                       2.000000  2.000000  2.000000  2.000000  2.000000  2.000000
                       2.000000  2.000000  2.000000  2.000000  2.000000  2.000000
                       2.000000  2.000000  2.000000  2.000000  2.000000  2.000000
                       2.000000  2.000000  2.000000  2.000000  2.000000  2.000000
                       2.000000  2.000000  2.000000  2.000000  2.000000  2.000000
                       0.000000  0.000000  0.000000  0.000000  0.000000  0.000000
            rprim      0.0000000000E+00  1.0000000000E+00  1.0166808740E+00
                       1.0166808740E+00  0.0000000000E+00  1.0166808740E+00
                       1.0166808740E+00  1.0000000000E+00  0.0000000000E+00
          spgroup         107
           symrel      1  0  0   0  1  0   0  0  1       0  0  1   0  1  0   1  0  0
                       0 -1  1   0 -1  0   1 -1  0       1 -1  0   0 -1  0   0 -1  1
                       0 -1  1  -1  0  1   0  0  1       0  0  1  -1  0  1   0 -1  1
                       1  0  0   1  0 -1   1 -1  0       1 -1  0   1  0 -1   1  0  0
           toldfe      1.00000000E-08 Hartree
            typat      1  1  4  2  2  2  2  2  3
          usefock           1
              wtk        0.12500    0.50000    0.25000    0.12500
           xangst      2.9946130033E+00  2.9283960424E+00  2.9946130033E+00
                       8.9838390098E+00  8.8193556933E+00  8.9838390098E+00
                       5.9892260065E+00  9.1321656508E+00  5.9892260065E+00
                       5.9892260065E+00  5.8718729416E+00  2.8709953785E+00
                       5.9892260065E+00  5.8718729416E+00  9.1074566346E+00
                       5.9892260065E+00  2.8161143515E+00  5.9892260065E+00
                       9.1074566346E+00  5.8718729416E+00  5.9892260065E+00
                       2.8709953785E+00  5.8718729416E+00  5.9892260065E+00
                       1.4926445576E-18 -5.5808595348E-02  1.4926445576E-18
            xcart      5.6589984502E+00  5.5338665288E+00  5.6589984502E+00
                       1.6976995350E+01  1.6666166929E+01  1.6976995350E+01
                       1.1317996900E+01  1.7257292080E+01  1.1317996900E+01
                       1.1317996900E+01  1.1096231747E+01  5.4253949941E+00
                       1.1317996900E+01  1.1096231747E+01  1.7210598806E+01
                       1.1317996900E+01  5.3216848832E+00  1.1317996900E+01
                       1.7210598806E+01  1.1096231747E+01  1.1317996900E+01
                       5.4253949941E+00  1.1096231747E+01  1.1317996900E+01
                       2.8206894277E-18 -1.0546296107E-01  2.8206894277E-18
             xred      2.4855000000E-01  2.5145000000E-01  2.4855000000E-01
                       7.4855000000E-01  7.5145000000E-01  7.4855000000E-01
                       7.7510000000E-01  2.2490000000E-01  7.7510000000E-01
                       2.3806000000E-01  2.4130000000E-01  7.5870000000E-01
                       7.5870000000E-01  7.6194000000E-01  2.3806000000E-01
                       2.3902000000E-01  7.6098000000E-01  2.3902000000E-01
                       2.3806000000E-01  7.6194000000E-01  7.5870000000E-01
                       7.5870000000E-01  2.4130000000E-01  2.3806000000E-01
                      -4.7368000000E-03  4.7368000000E-03 -4.7368000000E-03
            znucl       55.00000   53.00000   72.00000   35.00000

 chkinp: Checking input parameters for consistency.

== DATASET  1 ==================================================================
-   mpi_nproc: 4, omp_nthreads: -1 (-1 if OMP is not activated)

--- !DatasetInfo
iteration_state: {dtset: 1, }
dimensions: {natom: 9, nkpt: 4, mband: 42, nsppol: 1, nspinor: 1, nspden: 1, mpw: 12222, }
cutoff_energies: {ecut:  20.0, pawecutdg:  -1.0, }
electrons: {nelect:   7.20000000E+01, charge:   0.00000000E+00, occopt:   1.00000000E+00, tsmear:   1.00000000E-02, }
meta: {optdriver: 0, ionmov: 0, optcell: 0, iscf: 17, paral_kgb: 0, }
...

 Real(R)+Recip(G) space primitive vectors, cartesian coordinates (Bohr,Bohr^-1):
 R(1)=  0.0000000 11.1323004 11.3179969  G(1)= -0.0441774  0.0449143  0.0441774
 R(2)= 11.3179969  0.0000000 11.3179969  G(2)=  0.0441774 -0.0449143  0.0441774
 R(3)= 11.3179969 11.1323004  0.0000000  G(3)=  0.0441774  0.0449143 -0.0441774
 Unit cell volume ucvol=  2.8520298E+03 bohr^3
 Angles (23,13,12)=  5.97271474E+01  6.05457051E+01  5.97271474E+01 degrees

 getcut: wavevector=  0.0000  0.0000  0.0000  ngfft=  72  72  72
         ecut(hartree)=     20.000   => boxcut(ratio)=   2.23444

 getcut : COMMENT -
  Note that boxcut > 2.2 ; recall that boxcut=Gcut(box)/Gcut(sphere) = 2
  is sufficient for exact treatment of convolution.
  Such a large boxcut is a waste : you could raise ecut
  e.g. ecut=   24.963508 Hartrees makes boxcut=2

--- Pseudopotential description ------------------------------------------------
- pspini: atom type   1  psp file is ../../../Psps_for_tests/ONCVPSP-PBE-PDv0.4/Cs-sp.psp8
- pspatm: opening atomic psp file    ../../../Psps_for_tests/ONCVPSP-PBE-PDv0.4/Cs-sp.psp8
- Cs    ONCVPSP-3.2.3.1  r_core=   2.27353   1.85623   2.01788   1.90105
- 55.00000   9.00000    170703                znucl, zion, pspdat
    8   32    3    4       600   0.00000      pspcod,pspxc,lmax,lloc,mmax,r2well
    5.99000000000000    5.00000000000000    0.00000000000000   rchrg,fchrg,qchrg
     nproj     2     2     2     2
     extension_switch     1
  pspatm : epsatm=   22.81663475
         --- l  ekb(1:nproj) -->
             0    6.176104    0.756334
             1    6.263084    0.786397
             2    3.737592    0.906929
             3   -9.272327   -2.535859
 pspatm: atomic psp has been read  and splines computed

- pspini: atom type   2  psp file is ../../../Psps_for_tests/ONCVPSP-PBE-PDv0.4/I.psp8
- pspatm: opening atomic psp file    ../../../Psps_for_tests/ONCVPSP-PBE-PDv0.4/I.psp8
- I     ONCVPSP-3.2.3.1  r_core=   2.02042   2.17032   2.27639
- 53.00000   7.00000    170510                znucl, zion, pspdat
    8   32    2    4       600   0.00000      pspcod,pspxc,lmax,lloc,mmax,r2well
    5.99000000000000    4.00000000000000    0.00000000000000   rchrg,fchrg,qchrg
     nproj     2     2     2
     extension_switch     1
  pspatm : epsatm=   19.17050482
         --- l  ekb(1:nproj) -->
             0    5.955518    0.916455
             1    4.011347    0.742302
             2    4.134838    0.711910
 pspatm: atomic psp has been read  and splines computed

- pspini: atom type   3  psp file is ../../../Psps_for_tests/ONCVPSP-PBE-PDv0.4/Hf-sp.psp8
- pspatm: opening atomic psp file    ../../../Psps_for_tests/ONCVPSP-PBE-PDv0.4/Hf-sp.psp8
- Hf    ONCVPSP-3.2.3.1  r_core=   1.71613   1.71613   1.71613   2.42541
- 72.00000  12.00000    170501                znucl, zion, pspdat
    8   32    3    4       600   0.00000      pspcod,pspxc,lmax,lloc,mmax,r2well
    5.99000000000000    5.40000000000000    0.00000000000000   rchrg,fchrg,qchrg
     nproj     2     2     2     2
     extension_switch     1
  pspatm : epsatm=   21.94432712
         --- l  ekb(1:nproj) -->
             0    5.751490   -0.631383
             1   -2.986358    2.305386
             2    1.422276    0.146986
             3    8.827595    0.343102
 pspatm: atomic psp has been read  and splines computed

- pspini: atom type   4  psp file is ../../../Psps_for_tests/ONCVPSP-PBE-PDv0.4/Br.psp8
- pspatm: opening atomic psp file    ../../../Psps_for_tests/ONCVPSP-PBE-PDv0.4/Br.psp8
- Br    ONCVPSP-3.2.3.1  r_core=   1.81012   1.51356   1.92136
- 35.00000   7.00000    170504                znucl, zion, pspdat
    8   32    2    4       600   0.00000      pspcod,pspxc,lmax,lloc,mmax,r2well
    5.99000000000000    8.00000000000000    0.00000000000000   rchrg,fchrg,qchrg
     nproj     2     2     2
     extension_switch     1
  pspatm : epsatm=   11.64859511
         --- l  ekb(1:nproj) -->
             0    8.455549    0.878460
             1    5.292495    0.880691
             2    2.589748    0.385882
 pspatm: atomic psp has been read  and splines computed

   1.26056675E+04                                ecore*ucvol(ha*bohr**3)

_setup2: Arith. and geom. avg. npw (full set) are   12176.625   12176.609

--- !BeginCycle
iteration_state: {dtset: 1, }
solver: {iscf: 17, nstep: 2500, nline: 4, wfoptalg: 0, }
tolerances: {toldfe: 1.00E-08, }
...

     iter   Etot(hartree)      deltaE(h)  residm     nres2
 ETOT  1  -179.07659359752    -1.791E+02 1.379E-02 3.980E+00
 ETOT  2  -184.02415420962    -4.948E+00 3.926E-03 2.121E+00
 ETOT  3  -184.03340279247    -9.249E-03 2.814E-03 7.956E-01
 ETOT  4  -184.01944354591     1.396E-02 6.702E-04 1.006E-01
 ETOT  5  -184.01994397707    -5.004E-04 2.791E-04 3.492E-02
 ETOT  6  -184.01971092288     2.331E-04 5.392E-04 2.600E-03
 ETOT  7  -184.01981246631    -1.015E-04 6.683E-04 1.816E-04
 ETOT  8  -184.01981630580    -3.839E-06 6.999E-04 4.511E-05
 ETOT  9  -184.01981736420    -1.058E-06 3.077E-04 2.735E-06
 ETOT 10  -184.01981737399    -9.795E-09 3.454E-04 8.634E-07
 ETOT 11  -184.01981743554    -6.154E-08 3.540E-04 2.416E-07
 ETOT 12  -184.01981743065     4.891E-09 1.741E-04 1.400E-08
 ETOT 13  -184.01981743184    -1.191E-09 6.058E-05 4.144E-09

 At SCF step   13, etot is converged :
  for the second time, diff in etot=  1.191E-09 < toldfe=  1.000E-08

 Cartesian components of stress tensor (hartree/bohr^3)
  sigma(1 1)=  2.14552422E-05  sigma(3 2)=  0.00000000E+00
  sigma(2 2)=  2.28899130E-05  sigma(3 1)=  0.00000000E+00
  sigma(3 3)=  2.14552422E-05  sigma(2 1)=  0.00000000E+00

--- !ResultsGS
iteration_state: {dtset: 1, }
comment   : Summary of ground state results
lattice_vectors:
- [  0.0000000,  11.1323004,  11.3179969, ]
- [ 11.3179969,   0.0000000,  11.3179969, ]
- [ 11.3179969,  11.1323004,   0.0000000, ]
lattice_lengths: [  15.87530,   16.00606,   15.87530, ]
lattice_angles: [ 59.727,  60.546,  59.727, ] # degrees, (23, 13, 12)
lattice_volume:   2.8520298E+03
convergence: {deltae: -1.191E-09, res2:  4.144E-09, residm:  6.058E-05, diffor: null, }
etotal    :  -1.84019817E+02
entropy   :   0.00000000E+00
fermie    :   1.13876554E-02
cartesian_stress_tensor: # hartree/bohr^3
- [  2.14552422E-05,   0.00000000E+00,   0.00000000E+00, ]
- [  0.00000000E+00,   2.28899130E-05,   0.00000000E+00, ]
- [  0.00000000E+00,   0.00000000E+00,   2.14552422E-05, ]
pressure_GPa:  -6.4530E-01
xred      :
- [  2.4855E-01,   2.5145E-01,   2.4855E-01, Cs]
- [  7.4855E-01,   7.5145E-01,   7.4855E-01, Cs]
- [  7.7510E-01,   2.2490E-01,   7.7510E-01, Br]
- [  2.3806E-01,   2.4130E-01,   7.5870E-01,  I]
- [  7.5870E-01,   7.6194E-01,   2.3806E-01,  I]
- [  2.3902E-01,   7.6098E-01,   2.3902E-01,  I]
- [  2.3806E-01,   7.6194E-01,   7.5870E-01,  I]
- [  7.5870E-01,   2.4130E-01,   2.3806E-01,  I]
- [ -4.7368E-03,   4.7368E-03,  -4.7368E-03, Hf]
cartesian_forces: # hartree/bohr
- [ -4.51610165E-20,   3.18941991E-05,  -9.04116147E-21, ]
- [ -4.51610165E-20,   3.18941991E-05,  -9.04116147E-21, ]
- [  7.07300402E-21,   2.60191707E-03,  -6.12751820E-20, ]
- [  2.65102329E-21,  -1.15673943E-04,  -1.78416063E-03, ]
- [  2.18321573E-19,  -1.15673943E-04,   1.78416063E-03, ]
- [ -1.28836084E-20,  -1.71320888E-03,  -4.13185696E-20, ]
- [  1.78416063E-03,  -1.15673943E-04,  -2.18092627E-19, ]
- [ -1.78416063E-03,  -1.15673943E-04,   6.84081832E-20, ]
- [ -7.55336085E-20,  -4.89800819E-04,   2.13314305E-20, ]
force_length_stats: {min:   3.18941991E-05, max:   2.60191707E-03, mean:   1.33559346E-03, }
...

 Integrated electronic density in atomic spheres:
 Atom  Sphere_radius  Integrated_density
    1        2.00000          4.44032062
    2        2.00000          4.44032062
    3        2.00000          4.22961941
    4        2.00000          2.88062079
    5        2.00000          2.88062079
    6        2.00000          2.87771661
    7        2.00000          2.88062079
    8        2.00000          2.88062079
    9        2.00000          8.22064155

 ----iterations are completed or convergence reached----

 Mean square residual over all n,k,spin=   62.145E-08; max=  60.581E-06
 reduced coordinates (array xred) for    9 atoms
       0.248550000000      0.251450000000      0.248550000000
       0.748550000000      0.751450000000      0.748550000000
       0.775100000000      0.224900000000      0.775100000000
       0.238060000000      0.241300000000      0.758700000000
       0.758700000000      0.761940000000      0.238060000000
       0.239020000000      0.760980000000      0.239020000000
       0.238060000000      0.761940000000      0.758700000000
       0.758700000000      0.241300000000      0.238060000000
      -0.004736800000      0.004736800000     -0.004736800000
 rms dE/dt=  1.4582E-02; max dE/dt=  2.1406E-02; dE/dt below (all hartree)
    1      -0.000429816070      0.000000000000     -0.000429816070
    2      -0.000429816070      0.000000000000     -0.000429816070
    3      -0.029040082749      0.000000000000     -0.029040082749
    4       0.021406081248      0.020193124425      0.001212956823
    5      -0.018980167602     -0.020193124425      0.001212956823
    6       0.018997195635      0.000000000000      0.018997195635
    7       0.001212956823     -0.020193124425     -0.018980167602
    8       0.001212956823      0.020193124425      0.021406081248
    9       0.005377849585      0.000000000000      0.005377849585

 cartesian coordinates (angstrom) at end:
    1      2.99461300326619     2.92839604244118     2.99461300326619
    2      8.98383900979856     8.81935569329852     8.98383900979856
    3      5.98922600653237     9.13216565075905     5.98922600653237
    4      5.98922600653238     5.87187294158856     2.87099537849136
    5      5.98922600653238     5.87187294158856     9.10745663457339
    6      5.98922600653238     2.81611435149584     5.98922600653238
    7      9.10745663457339     5.87187294158856     5.98922600653238
    8      2.87099537849136     5.87187294158856     5.98922600653238
    9      0.00000000000000    -0.05580859534836     0.00000000000000

 cartesian forces (hartree/bohr) at end:
    1     -0.00000000000000     0.00003189419913    -0.00000000000000
    2     -0.00000000000000     0.00003189419913    -0.00000000000000
    3      0.00000000000000     0.00260191707412    -0.00000000000000
    4      0.00000000000000    -0.00011567394346    -0.00178416062514
    5      0.00000000000000    -0.00011567394346     0.00178416062514
    6     -0.00000000000000    -0.00171320887992    -0.00000000000000
    7      0.00178416062514    -0.00011567394346    -0.00000000000000
    8     -0.00178416062514    -0.00011567394346     0.00000000000000
    9     -0.00000000000000    -0.00048980081862     0.00000000000000
 frms,max,avg= 9.1759417E-04 2.6019171E-03   0.000E+00  6.716E-06  0.000E+00 h/b

 cartesian forces (eV/Angstrom) at end:
    1     -0.00000000000000     0.00164006552320    -0.00000000000000
    2     -0.00000000000000     0.00164006552320    -0.00000000000000
    3      0.00000000000000     0.13379594420611    -0.00000000000000
    4      0.00000000000000    -0.00594819283018    -0.09174522041095
    5      0.00000000000000    -0.00594819283018     0.09174522041095
    6     -0.00000000000000    -0.08809673528487    -0.00000000000000
    7      0.09174522041095    -0.00594819283018    -0.00000000000000
    8     -0.09174522041095    -0.00594819283018     0.00000000000000
    9     -0.00000000000000    -0.02518656864693     0.00000000000000
 frms,max,avg= 4.7184586E-02 1.3379594E-01   0.000E+00  3.453E-04  0.000E+00 e/A
 length scales= 11.132300400000 11.132300400000 11.132300400000 bohr
              =  5.890959650857  5.890959650857  5.890959650857 angstroms
 prteigrs : about to open file Cs2TiI6o_EIG
 Fermi (or HOMO) energy (hartree) =   0.01139   Average Vxc (hartree)=  -0.23694
 Eigenvalues (hartree) for nkpt=   4  k points:
 kpt#   1, nband= 42, wtk=  0.12500, kpt=  0.0000  0.0000  0.0000 (reduced coord)
  -2.41855   -1.20406   -1.20368   -1.20368   -0.79676   -0.79665   -0.54232   -0.44938
  -0.43140   -0.43140   -0.42815   -0.42669   -0.27747   -0.27698   -0.27698   -0.27561
  -0.27558   -0.27558   -0.14283   -0.09020   -0.08747   -0.08747   -0.07597   -0.07597
  -0.07377   -0.06800   -0.06107   -0.02850   -0.02850   -0.01803   -0.00354   -0.00295
  -0.00295    0.01059    0.01059    0.01139    0.12771    0.13262    0.13262    0.18903
   0.20176    0.21277
 prteigrs : prtvol=0 or 1, do not print more k-points.

--- !EnergyTerms
iteration_state     : {dtset: 1, }
comment             : Components of total free energy in Hartree
kinetic             :  4.45330359748998E+01
hartree             :  3.83834209118361E+01
xc                  : -4.82095466177032E+01
Ewald energy        : -1.12377135292095E+02
psp_core            :  4.41989339802419E+00
local_psp           : -1.27095722621923E+02
non_local_psp+x     :  1.63262543336202E+01
total_energy        : -1.84019799913341E+02
...

--- !EnergyTermsDC
iteration_state     : {dtset: 1, }
comment             : '"Double-counting" decomposition of free energy'
band_energy         : -2.57361898152765E+01
Ewald energy        : -1.12377135292095E+02
psp_core            :  4.41989339802419E+00
xc_dc               : -5.03263857224911E+01
total_energy_dc     : -1.84019817431838E+02
...

 Cartesian components of stress tensor (hartree/bohr^3)
  sigma(1 1)=  2.14552422E-05  sigma(3 2)=  0.00000000E+00
  sigma(2 2)=  2.28899130E-05  sigma(3 1)=  0.00000000E+00
  sigma(3 3)=  2.14552422E-05  sigma(2 1)=  0.00000000E+00

-Cartesian components of stress tensor (GPa)         [Pressure= -6.4530E-01 GPa]
- sigma(1 1)=  6.31234913E-01  sigma(3 2)=  0.00000000E+00
- sigma(2 2)=  6.73444379E-01  sigma(3 1)=  0.00000000E+00
- sigma(3 3)=  6.31234913E-01  sigma(2 1)=  0.00000000E+00

== END DATASET(S) ==============================================================

 -outvars: echo values of variables after computation  --------
            acell      1.1132300400E+01  1.1132300400E+01  1.1132300400E+01 Bohr
              amu      1.32905430E+02  1.26904470E+02  1.78490000E+02
                       7.99040000E+01
           diemac      1.20000000E+01
             ecut      2.00000000E+01 Hartree
           etotal     -1.8401981743E+02
            fcart     -4.5161016480E-20  3.1894199131E-05 -9.0411614718E-21
                      -4.5161016480E-20  3.1894199131E-05 -9.0411614718E-21
                       7.0730040155E-21  2.6019170741E-03 -6.1275181968E-20
                       2.6510232904E-21 -1.1567394346E-04 -1.7841606251E-03
                       2.1832157268E-19 -1.1567394346E-04  1.7841606251E-03
                      -1.2883608392E-20 -1.7132088799E-03 -4.1318569560E-20
                       1.7841606251E-03 -1.1567394346E-04 -2.1809262674E-19
                      -1.7841606251E-03 -1.1567394346E-04  6.8408183215E-20
                      -7.5533608474E-20 -4.8980081862E-04  2.1331430522E-20
-          fftalg         112
             iscf          17
           istwfk        1    1    1    1
              ixc        -428
              kpt      0.00000000E+00  0.00000000E+00  0.00000000E+00
                       5.00000000E-01  0.00000000E+00  0.00000000E+00
                       5.00000000E-01  5.00000000E-01  0.00000000E+00
                       5.00000000E-01  0.00000000E+00  5.00000000E-01
         kptns_hf      0.00000000E+00  0.00000000E+00  0.00000000E+00
                       5.00000000E-01  0.00000000E+00  0.00000000E+00
                       0.00000000E+00  5.00000000E-01  0.00000000E+00
                       5.00000000E-01  5.00000000E-01  0.00000000E+00
                       0.00000000E+00  0.00000000E+00  5.00000000E-01
                       5.00000000E-01  0.00000000E+00  5.00000000E-01
                       0.00000000E+00  5.00000000E-01  5.00000000E-01
                       5.00000000E-01  5.00000000E-01  5.00000000E-01
         kptrlatt        2    0    0      0    2    0      0    0    2
          kptrlen      3.17506010E+01
P           mkmem           1
            natom           9
            nband          42
          nbandhf          36
            ngfft          72      72      72
             nkpt           4
           nkpthf           8
-           npkpt           4
            nstep        2500
             nsym           8
           ntypat           4
              occ      2.000000  2.000000  2.000000  2.000000  2.000000  2.000000
                       2.000000  2.000000  2.000000  2.000000  2.000000  2.000000
                       2.000000  2.000000  2.000000  2.000000  2.000000  2.000000
                       2.000000  2.000000  2.000000  2.000000  2.000000  2.000000
                       2.000000  2.000000  2.000000  2.000000  2.000000  2.000000
                       2.000000  2.000000  2.000000  2.000000  2.000000  2.000000
                       0.000000  0.000000  0.000000  0.000000  0.000000  0.000000
            rprim      0.0000000000E+00  1.0000000000E+00  1.0166808740E+00
                       1.0166808740E+00  0.0000000000E+00  1.0166808740E+00
                       1.0166808740E+00  1.0000000000E+00  0.0000000000E+00
          spgroup         107
           strten      2.1455242206E-05  2.2889913030E-05  2.1455242206E-05
                       0.0000000000E+00  0.0000000000E+00  0.0000000000E+00
           symrel      1  0  0   0  1  0   0  0  1       0  0  1   0  1  0   1  0  0
                       0 -1  1   0 -1  0   1 -1  0       1 -1  0   0 -1  0   0 -1  1
                       0 -1  1  -1  0  1   0  0  1       0  0  1  -1  0  1   0 -1  1
                       1  0  0   1  0 -1   1 -1  0       1 -1  0   1  0 -1   1  0  0
           toldfe      1.00000000E-08 Hartree
            typat      1  1  4  2  2  2  2  2  3
          usefock           1
              wtk        0.12500    0.50000    0.25000    0.12500
           xangst      2.9946130033E+00  2.9283960424E+00  2.9946130033E+00
                       8.9838390098E+00  8.8193556933E+00  8.9838390098E+00
                       5.9892260065E+00  9.1321656508E+00  5.9892260065E+00
                       5.9892260065E+00  5.8718729416E+00  2.8709953785E+00
                       5.9892260065E+00  5.8718729416E+00  9.1074566346E+00
                       5.9892260065E+00  2.8161143515E+00  5.9892260065E+00
                       9.1074566346E+00  5.8718729416E+00  5.9892260065E+00
                       2.8709953785E+00  5.8718729416E+00  5.9892260065E+00
                       1.4926445576E-18 -5.5808595348E-02  1.4926445576E-18
            xcart      5.6589984502E+00  5.5338665288E+00  5.6589984502E+00
                       1.6976995350E+01  1.6666166929E+01  1.6976995350E+01
                       1.1317996900E+01  1.7257292080E+01  1.1317996900E+01
                       1.1317996900E+01  1.1096231747E+01  5.4253949941E+00
                       1.1317996900E+01  1.1096231747E+01  1.7210598806E+01
                       1.1317996900E+01  5.3216848832E+00  1.1317996900E+01
                       1.7210598806E+01  1.1096231747E+01  1.1317996900E+01
                       5.4253949941E+00  1.1096231747E+01  1.1317996900E+01
                       2.8206894277E-18 -1.0546296107E-01  2.8206894277E-18
             xred      2.4855000000E-01  2.5145000000E-01  2.4855000000E-01
                       7.4855000000E-01  7.5145000000E-01  7.4855000000E-01
                       7.7510000000E-01  2.2490000000E-01  7.7510000000E-01
                       2.3806000000E-01  2.4130000000E-01  7.5870000000E-01
                       7.5870000000E-01  7.6194000000E-01  2.3806000000E-01
                       2.3902000000E-01  7.6098000000E-01  2.3902000000E-01
                       2.3806000000E-01  7.6194000000E-01  7.5870000000E-01
                       7.5870000000E-01  2.4130000000E-01  2.3806000000E-01
                      -4.7368000000E-03  4.7368000000E-03 -4.7368000000E-03
            znucl       55.00000   53.00000   72.00000   35.00000

- Timing analysis has been suppressed with timopt=0

 Suggested references for the acknowledgment of ABINIT usage.

 Calculation completed.
.Delivered   0 WARNINGs and   2 COMMENTs to log file.