.Version 9.2.2 of ABINIT

 ABINIT is a project of the Universite Catholique de Louvain,
 Corning Inc. and other collaborators, see ~abinit/doc/developers/contributors.txt .
 acknowledgments of the ABINIT effort.

.Starting date : Sat  5 Nov 2022.
- ( at 11h43 )

- input  file    -> Cs2TiI6.in
- output file    -> Cs2TiI6.out
- root for input  files -> Cs2TiI6i
- root for output files -> Cs2TiI6o

- inpspheads : Reading pseudopotential header in XML form from
-   ../../../Psps_for_tests/ATOMICDATA/Cs.GGA_PBE-JTH.xml
- inpspheads : Reading pseudopotential header in XML form from
-   ../../../Psps_for_tests/ATOMICDATA/I.GGA_PBE-JTH.xml
- inpspheads : Reading pseudopotential header in XML form from
-   ../../../Psps_for_tests/ATOMICDATA/Hf.GGA_PBE-JTH.xml
- inpspheads : Reading pseudopotential header in XML form from
-   ../../../Psps_for_tests/ATOMICDATA/Cl.GGA_PBE-JTH.xml

 DATASET    1 : space group I4 m m (#107); Bravais tI (body-center tetrag.)
     intxc =       0    ionmov =       2      iscf =      17    lmnmax =      18
     lnmax =       6     mgfft =      64  mpssoang =       3    mqgrid =    4031
     natom =       9  nloc_mem =       2    nspden =       1   nspinor =       1
    nsppol =       1      nsym =       8    n1xccc =       1    ntypat =       4
    occopt =       1   xclevel =       2
-    mband =          42        mffmem =           1         mkmem =           4
       mpw =       11301          nfft =      262144          nkpt =          20
Pmy_natom=         2
 PAW method is used; the additional fine FFT grid is defined by:
   mgfftf=       100    nfftf =   1000000
  Rough estimation (10% accuracy) of disk space for files :

[...]

 DATASET   10 : space group I4 m m (#107); Bravais tI (body-center tetrag.)
     intxc =       0    ionmov =       2      iscf =      17    lmnmax =      18
     lnmax =       6     mgfft =      64  mpssoang =       3    mqgrid =    3995
     natom =       9  nloc_mem =       2    nspden =       1   nspinor =       1
    nsppol =       1      nsym =       8    n1xccc =       1    ntypat =       4
    occopt =       1   xclevel =       2
-    mband =          42        mffmem =           1         mkmem =           4
       mpw =       11001          nfft =      262144          nkpt =          20
Pmy_natom=         2
 PAW method is used; the additional fine FFT grid is defined by:
   mgfftf=       100    nfftf =   1000000
  Rough estimation (10% accuracy) of disk space for files :

------------- Echo of variables that govern the present computation ------------
-
- outvars: echo of selected default values
-   iomode0 =  0 , fftalg0 =112 , wfoptalg0 = 10
-
- outvars: echo of global parameters not present in the input file
-  max_nthreads =    0
-
 -outvars: echo values of preprocessed input variables --------
            acell1     1.5017081802E+01  1.5213546564E+01  1.5017081802E+01 Bohr
            acell2     1.5002049688E+01  1.5198317788E+01  1.5002049688E+01 Bohr
            acell3     1.4987017574E+01  1.5183089013E+01  1.4987017574E+01 Bohr
            acell4     1.4971985460E+01  1.5167860238E+01  1.4971985460E+01 Bohr
            acell5     1.4956953346E+01  1.5152631462E+01  1.4956953346E+01 Bohr
            acell6     1.4941921233E+01  1.5137402687E+01  1.4941921233E+01 Bohr
            acell7     1.4926889119E+01  1.5122173912E+01  1.4926889119E+01 Bohr
            acell8     1.4911857005E+01  1.5106945136E+01  1.4911857005E+01 Bohr
            acell9     1.4896824891E+01  1.5091716361E+01  1.4896824891E+01 Bohr
            acell10    1.4881792777E+01  1.5076487586E+01  1.4881792777E+01 Bohr
              amu      1.32905430E+02  1.26904470E+02  1.78490000E+02
                       3.54527000E+01
           diemac      1.20000000E+01
          dilatmx      1.15000000E+00
             ecut      1.60000000E+01 Hartree
           ecutsm      5.00000000E-01 Hartree
-          fftalg         112
          getxred1          0
          getxred2         -1
          getxred3         -1
          getxred4         -1
          getxred5         -1
          getxred6         -1
          getxred7         -1
          getxred8         -1
          getxred9         -1
          getxred10        -1
           ionmov           2
              ixc     -101130
           jdtset        1    2    3    4    5    6    7    8    9   10
              kpt      0.00000000E+00 -1.25000000E-01  0.00000000E+00
                       0.00000000E+00 -3.75000000E-01  0.00000000E+00
                       1.25000000E-01 -2.50000000E-01  0.00000000E+00
                       1.25000000E-01 -1.25000000E-01  1.25000000E-01
                       1.25000000E-01  5.00000000E-01  0.00000000E+00
                       2.50000000E-01 -3.75000000E-01  0.00000000E+00
                       1.25000000E-01 -3.75000000E-01  1.25000000E-01
                       2.50000000E-01 -2.50000000E-01  1.25000000E-01
                       2.50000000E-01 -1.25000000E-01  2.50000000E-01
                       1.25000000E-01  2.50000000E-01  0.00000000E+00
                       2.50000000E-01  3.75000000E-01  0.00000000E+00
                       3.75000000E-01  5.00000000E-01  0.00000000E+00
                       1.25000000E-01  3.75000000E-01  1.25000000E-01
                       2.50000000E-01  5.00000000E-01  1.25000000E-01
                       3.75000000E-01 -3.75000000E-01  1.25000000E-01
                       2.50000000E-01 -3.75000000E-01  2.50000000E-01
                       3.75000000E-01 -2.50000000E-01  2.50000000E-01
                       3.75000000E-01 -1.25000000E-01  3.75000000E-01
                       5.00000000E-01  2.50000000E-01  1.25000000E-01
                      -3.75000000E-01  3.75000000E-01  1.25000000E-01
         kptrlatt        4    4   -4     -4    4    4      4   -4    4
          kptrlen1     8.38233366E+01
          kptrlen2     8.37394294E+01
          kptrlen3     8.36555221E+01
          kptrlen4     8.35716149E+01
          kptrlen5     8.34877077E+01
          kptrlen6     8.34038004E+01
          kptrlen7     8.33198932E+01
          kptrlen8     8.32359859E+01
          kptrlen9     8.31520787E+01
          kptrlen10    8.30681714E+01
P           mkmem           4
            natom           9
            nband          42
           ndtset          10
            ngfft          64      64      64
          ngfftdg         100     100     100
             nkpt          20
            nstep        2500
             nsym           8
            ntime        1000
           ntypat           4
              occ      2.000000  2.000000  2.000000  2.000000  2.000000  2.000000
                       2.000000  2.000000  2.000000  2.000000  2.000000  2.000000
                       2.000000  2.000000  2.000000  2.000000  2.000000  2.000000
                       2.000000  2.000000  2.000000  2.000000  2.000000  2.000000
                       2.000000  2.000000  2.000000  2.000000  2.000000  2.000000
                       2.000000  2.000000  2.000000  2.000000  2.000000  2.000000
                       0.000000  0.000000  0.000000  0.000000  0.000000  0.000000
          optcell           3
        optforces           1
        pawecutdg      4.00000000E+01 Hartree
            prtwf           0
            rprim      0.0000000000E+00  6.9773323591E-01  7.1635768405E-01
                       7.0710678119E-01  0.0000000000E+00  7.0710678119E-01
                       7.1635768405E-01  6.9773323591E-01  0.0000000000E+00
           shiftk     -5.00000000E-01  5.00000000E-01  5.00000000E-01
          spgroup         107
           symrel      1  0  0   0  1  0   0  0  1       0  0  1   0  1  0   1  0  0
                       0 -1  1   0 -1  0   1 -1  0       1 -1  0   0 -1  0   0 -1  1
                       0 -1  1  -1  0  1   0  0  1       0  0  1  -1  0  1   0 -1  1
                       1  0  0   1  0 -1   1 -1  0       1 -1  0   1  0 -1   1  0  0
           toldff      1.00000000E-08
           tolmxf      1.00000000E-05
            typat      1  1  4  2  2  2  2  2  3
           useylm           1
              wtk        0.03125    0.03125    0.06250    0.03125    0.06250    0.06250
                         0.03125    0.06250    0.03125    0.06250    0.06250    0.06250
                         0.03125    0.06250    0.06250    0.03125    0.06250    0.03125
                         0.06250    0.06250
           xangst1     2.8463388831E+00  2.7531133420E+00  2.8463388831E+00
                       8.5390166494E+00  8.2977882541E+00  8.5390166494E+00
                       5.6926777662E+00  8.5860792707E+00  5.6926777662E+00
                       5.6926777662E+00  5.5327187728E+00  2.8429214905E+00
                       5.6926777663E+00  5.5327187728E+00  8.5424340420E+00
                       5.6926777663E+00  2.7561897943E+00  5.6926777663E+00
                       8.5424340420E+00  5.5327187728E+00  5.6926777663E+00
                       2.8429214905E+00  5.5327187728E+00  5.6926777662E+00
                       7.8022568510E-13 -8.8752877777E-02  7.8022568510E-13
           xangst2     2.8434896951E+00  2.7503574728E+00  2.8434896951E+00
                       8.5304690852E+00  8.2894821597E+00  8.5304690852E+00
                       5.6869793901E+00  8.5774845967E+00  5.6869793901E+00
                       5.6869793901E+00  5.5271805158E+00  2.8400757233E+00
                       5.6869793902E+00  5.5271805158E+00  8.5338830570E+00
                       5.6869793902E+00  2.7534308456E+00  5.6869793902E+00
                       8.5338830570E+00  5.5271805158E+00  5.6869793902E+00
                       2.8400757233E+00  5.5271805158E+00  5.6869793901E+00
                       7.7945618571E-13 -8.8664036057E-02  7.7945618571E-13
           xangst3     2.8406405070E+00  2.7476016036E+00  2.8406405070E+00
                       8.5219215210E+00  8.2811760654E+00  8.5219215210E+00
                       5.6812810140E+00  8.5688899228E+00  5.6812810140E+00
                       5.6812810140E+00  5.5216422587E+00  2.8372299560E+00
                       5.6812810140E+00  5.5216422587E+00  8.5253320720E+00
                       5.6812810140E+00  2.7506718968E+00  5.6812810140E+00
                       8.5253320720E+00  5.5216422587E+00  5.6812810140E+00
                       2.8372299560E+00  5.5216422587E+00  5.6812810140E+00
                       7.7865228780E-13 -8.8575194338E-02  7.7865228780E-13
           xangst4     2.8377913189E+00  2.7448457344E+00  2.8377913189E+00
                       8.5133739568E+00  8.2728699710E+00  8.5133739568E+00
                       5.6755826378E+00  8.5602952488E+00  5.6755826378E+00
                       5.6755826378E+00  5.5161040017E+00  2.8343841887E+00
                       5.6755826379E+00  5.5161040017E+00  8.5167810870E+00
                       5.6755826379E+00  2.7479129481E+00  5.6755826379E+00
                       8.5167810870E+00  5.5161040017E+00  5.6755826379E+00
                       2.8343841887E+00  5.5161040017E+00  5.6755826378E+00
                       7.7787778665E-13 -8.8486352618E-02  7.7787778665E-13
[...]
                       8.0762799738E-13 -9.1820487568E-02  8.0762799738E-13
           xangst7     2.8305787969E+00  2.7358981838E+00  2.8305787969E+00
                       8.4917363906E+00  8.2420740936E+00  8.4917363906E+00
                       5.6611575937E+00  8.5031208439E+00  5.6611575937E+00
                       5.6611575937E+00  5.4971947711E+00  2.8401861159E+00
                       5.6611575938E+00  5.4971947711E+00  8.4821290716E+00
                       5.6611575938E+00  2.7493949101E+00  5.6611575938E+00
                       8.4821290716E+00  5.4971947711E+00  5.6611575938E+00
                       2.8401861159E+00  5.4971947711E+00  5.6611575937E+00
                       8.1450367514E-13 -9.2507106940E-02  8.1389480148E-13
           xangst8     2.8278700218E+00  2.7336981895E+00  2.8278700218E+00
                       8.4836100655E+00  8.2337776432E+00  8.4836100655E+00
                       5.6557400437E+00  8.4900355203E+00  5.6557400437E+00
                       5.6557400437E+00  5.4915143331E+00  2.8393266610E+00
                       5.6557400437E+00  5.4915143331E+00  8.4721534264E+00
                       5.6557400437E+00  2.7477463063E+00  5.6557400437E+00
                       8.4721534264E+00  5.4915143331E+00  5.6557400437E+00
                       2.8393266610E+00  5.4915143331E+00  5.6557400437E+00
                       8.2121898485E-13 -9.3412277382E-02  8.2121898485E-13
           xangst9     2.8252393689E+00  2.7308832499E+00  2.8252393689E+00
                       8.4757181067E+00  8.2245625011E+00  8.4757181067E+00
                       5.6504787378E+00  8.4765198684E+00  5.6504787378E+00
                       5.6504787378E+00  5.4856259795E+00  2.8384697330E+00
                       5.6504787378E+00  5.4856259795E+00  8.4624877427E+00
                       5.6504787378E+00  2.7462303093E+00  5.6504787378E+00
                       8.4624877427E+00  5.4856259795E+00  5.6504787378E+00
                       2.8384697330E+00  5.4856259795E+00  5.6504787378E+00
                       8.2716770106E-13 -9.4088665139E-02  8.2716770106E-13
           xangst10    2.8225989364E+00  2.7287051283E+00  2.8225989364E+00
                       8.4677968093E+00  8.2160224011E+00  8.4677968093E+00
                       5.6451978729E+00  8.4627217755E+00  5.6451978729E+00
                       5.6451978729E+00  5.4797417914E+00  2.8375822712E+00
                       5.6451978729E+00  5.4797417914E+00  8.4528134745E+00
                       5.6451978729E+00  2.7444687725E+00  5.6451978729E+00
                       8.4528134745E+00  5.4797417914E+00  5.6451978729E+00
                       2.8375822712E+00  5.4797417914E+00  5.6451978729E+00
                       8.3740161607E-13 -9.5259263621E-02  8.3801856607E-13
            xcart1     5.3789437355E+00  5.2025884595E+00  5.3789437355E+00
                       1.6136831206E+01  1.5679949348E+01  1.6136831206E+01
                       1.0757887471E+01  1.6218671744E+01  1.0757887471E+01
                       1.0757887471E+01  1.0455614459E+01  5.3762305081E+00
                       1.0757887471E+01  1.0455614459E+01  1.6139544434E+01
                       1.0757887471E+01  5.2112386626E+00  1.0757887471E+01
                       1.6139544434E+01  1.0455614459E+01  1.0757887471E+01
                       5.3762305081E+00  1.0455614459E+01  1.0757887471E+01
                       1.4804555087E-12 -1.6882922305E-01  1.4816498742E-12
            xcart2     5.3737325735E+00  5.1975544879E+00  5.3737325735E+00
                       1.6121197721E+01  1.5663752958E+01  1.6121197721E+01
                       1.0747465147E+01  1.6195264972E+01  1.0747465147E+01
                       1.0747465147E+01  1.0445350462E+01  5.3747230832E+00
                       1.0747465147E+01  1.0445350462E+01  1.6120207211E+01
                       1.0747465147E+01  5.2086831960E+00  1.0747465147E+01
                       1.6120207211E+01  1.0445350462E+01  1.0747465147E+01
                       5.3747230832E+00  1.0445350462E+01  1.0747465147E+01
                       1.4927340725E-12 -1.7003679407E-01  1.4927340725E-12
            xcart3     5.3685024025E+00  5.1923006074E+00  5.3685024025E+00
                       1.6105507208E+01  1.5647410764E+01  1.6105507208E+01
                       1.0737004805E+01  1.6172280567E+01  1.0737004805E+01
                       1.0737004805E+01  1.0435099765E+01  5.3732158166E+00
                       1.0737004805E+01  1.0435099765E+01  1.6100793794E+01
                       1.0737004805E+01  5.2062596010E+00  1.0737004805E+01
                       1.6100793794E+01  1.0435099765E+01  1.0737004805E+01
                       5.3732158166E+00  1.0435099765E+01  1.0737004805E+01
                       1.5022060276E-12 -1.7089221416E-01  1.5031000628E-12
            xcart4     5.3633954757E+00  5.1869198175E+00  5.3633954757E+00
                       1.6090186427E+01  1.5630461737E+01  1.6090186427E+01
                       1.0726790951E+01  1.6148323688E+01  1.0726790951E+01
                       1.0726790951E+01  1.0424327641E+01  5.3716880916E+00
                       1.0726790951E+01  1.0424327641E+01  1.6081893811E+01
                       1.0726790951E+01  5.2038248618E+00  1.0726790951E+01
                       1.6081893811E+01  1.0424327641E+01  1.0726790951E+01
                       5.3716880916E+00  1.0424327641E+01  1.0726790951E+01
                       1.5105301781E-12 -1.7179069744E-01  1.5105115701E-12
            xcart5     5.3590069094E+00  5.1796786518E+00  5.3590069094E+00
                       1.6077020728E+01  1.5608855933E+01  1.6077020728E+01
                       1.0718013819E+01  1.6119394088E+01  1.0718013819E+01
                       1.0718013819E+01  1.0410629327E+01  5.3703165396E+00
                       1.0718013819E+01  1.0410629327E+01  1.6065711098E+01
                       1.0718013819E+01  5.2014760408E+00  1.0718013819E+01
                       1.6065711098E+01  1.0410629327E+01  1.0718013819E+01
                       5.3703165396E+00  1.0410629327E+01  1.0718013819E+01
                       1.5117932180E-12 -1.7199095229E-01  1.5129645638E-12
            xcart6     5.3538932165E+00  5.1754245410E+00  5.3538932165E+00
                       1.6061679649E+01  1.5593060690E+01  1.6061679649E+01
                       1.0707786433E+01  1.6094753094E+01  1.0707786433E+01
                       1.0707786433E+01  1.0399808487E+01  5.3687444740E+00
                       1.0707786433E+01  1.0399808487E+01  1.6046828392E+01
                       1.0707786433E+01  5.1984831764E+00  1.0707786433E+01
                       1.6046828392E+01  1.0399808487E+01  1.0707786433E+01
                       5.3687444740E+00  1.0399808487E+01  1.0707786433E+01
                       1.5261957323E-12 -1.7351557489E-01  1.5261957323E-12
            xcart7     5.3490187237E+00  5.1700982948E+00  5.3490187237E+00
                       1.6047056171E+01  1.5575262804E+01  1.6047056171E+01
                       1.0698037447E+01  1.6068569670E+01  1.0698037447E+01
                       1.0698037447E+01  1.0388192617E+01  5.3671739254E+00
                       1.0698037447E+01  1.0388192617E+01  1.6028900969E+01
                       1.0698037447E+01  5.1956034112E+00  1.0698037447E+01
                       1.6028900969E+01  1.0388192617E+01  1.0698037447E+01
                       5.3671739254E+00  1.0388192617E+01  1.0698037447E+01
                       1.5391888802E-12 -1.7481309746E-01  1.5380382758E-12
            xcart8     5.3438998807E+00  5.1659409081E+00  5.3438998807E+00
                       1.6031699642E+01  1.5559584785E+01  1.6031699642E+01
                       1.0687799761E+01  1.6043841992E+01  1.0687799761E+01
                       1.0687799761E+01  1.0377458144E+01  5.3655497910E+00
                       1.0687799761E+01  1.0377458144E+01  1.6010049732E+01
                       1.0687799761E+01  5.1924880015E+00  1.0687799761E+01
                       1.6010049732E+01  1.0377458144E+01  1.0687799761E+01
                       5.3655497910E+00  1.0377458144E+01  1.0687799761E+01
                       1.5518789765E-12 -1.7652362170E-01  1.5518789765E-12
            xcart9     5.3389286671E+00  5.1606214433E+00  5.3389286671E+00
                       1.6016786001E+01  1.5542170690E+01  1.6016786001E+01
                       1.0677857334E+01  1.6018301111E+01  1.0677857334E+01
                       1.0677857334E+01  1.0366330769E+01  5.3639304318E+00
                       1.0677857334E+01  1.0366330769E+01  1.5991784237E+01
                       1.0677857334E+01  5.1896231824E+00  1.0677857334E+01
                       1.5991784237E+01  1.0366330769E+01  1.0677857334E+01
                       5.3639304318E+00  1.0366330769E+01  1.0677857334E+01
                       1.5631204210E-12 -1.7780180932E-01  1.5631204210E-12
            xcart10    5.3339389729E+00  5.1565053900E+00  5.3339389729E+00
                       1.6001816919E+01  1.5526032240E+01  1.6001816919E+01
                       1.0667877946E+01  1.5992226494E+01  1.0667877946E+01
                       1.0667877946E+01  1.0355211265E+01  5.3622533722E+00
                       1.0667877946E+01  1.0355211265E+01  1.5973502519E+01
                       1.0667877946E+01  5.1862943602E+00  1.0667877946E+01
                       1.5973502519E+01  1.0355211265E+01  1.0667877946E+01
                       5.3622533722E+00  1.0355211265E+01  1.0667877946E+01
                       1.5824597176E-12 -1.8001391986E-01  1.5836255842E-12
             xred1     2.4827762042E-01  2.5172237958E-01  2.4827762042E-01
                       7.4827762042E-01  7.5172237958E-01  7.4827762042E-01
                       7.7398649888E-01  2.2601350112E-01  7.7398649888E-01
                       2.4883611405E-01  2.5091167775E-01  7.4908832225E-01
                       7.4908832225E-01  7.5116388595E-01  2.4883611405E-01
                       2.4869042490E-01  7.5130957510E-01  2.4869042490E-01
                       2.4883611405E-01  7.5116388595E-01  7.4908832225E-01
                       7.4908832225E-01  2.5091167775E-01  2.4883611405E-01
                      -8.0568582508E-03  8.0568582508E-03 -8.0568582508E-03
             xred2     2.4830192656E-01  2.5169807344E-01  2.4830192656E-01
                       7.4830192656E-01  7.5169807344E-01  7.4830192656E-01
                       7.7369376366E-01  2.2630623634E-01  7.7369376366E-01
                       2.4905011254E-01  2.5104204963E-01  7.4895795037E-01
                       7.4895795037E-01  7.5094988746E-01  2.4905011254E-01
                       2.4883357652E-01  7.5116642348E-01  2.4883357652E-01
                       2.4905011254E-01  7.5094988746E-01  7.4895795037E-01
                       7.4895795037E-01  2.5104204963E-01  2.4905011254E-01
                      -8.1231401519E-03  8.1231401519E-03 -8.1231401519E-03
             xred3     2.4831400767E-01  2.5168599233E-01  2.4831400767E-01
                       7.4831400767E-01  7.5168599233E-01  7.4831400767E-01
                       7.7341512067E-01  2.2658487933E-01  7.7341512067E-01
                       2.4926252683E-01  2.5117646096E-01  7.4882353904E-01
                       7.4882353904E-01  7.5073747317E-01  2.4926252683E-01
                       2.4898157565E-01  7.5101842435E-01  2.4898157565E-01
                       2.4926252683E-01  7.5073747317E-01  7.4882353904E-01
                       7.4882353904E-01  2.5117646096E-01  2.4926252683E-01
                      -8.1726644483E-03  8.1726644483E-03 -8.1726644483E-03
             xred4     2.4833145007E-01  2.5166854993E-01  2.4833145007E-01
                       7.4833145007E-01  7.5166854993E-01  7.4833145007E-01
                       7.7312485615E-01  2.2687514385E-01  7.7312485615E-01
                       2.4946662562E-01  2.5130644956E-01  7.4869355044E-01
                       7.4869355044E-01  7.5053337438E-01  2.4946662562E-01
                       2.4914080405E-01  7.5085919595E-01  2.4914080405E-01
                       2.4946662562E-01  7.5053337438E-01  7.4869355044E-01
                       7.4869355044E-01  2.5130644956E-01  2.4946662562E-01
                      -8.2247334649E-03  8.2247334649E-03 -8.2247334649E-03
             xred5     2.4832633063E-01  2.5167366937E-01  2.4832633063E-01
                       7.4832633063E-01  7.5167366937E-01  7.4832633063E-01
                       7.7280276541E-01  2.2719723459E-01  7.7280276541E-01
                       2.4963836531E-01  2.5141683301E-01  7.4858316699E-01
                       7.4858316699E-01  7.5036163469E-01  2.4963836531E-01
                       2.4937135022E-01  7.5062864978E-01  2.4937135022E-01
                       2.4963836531E-01  7.5036163469E-01  7.4858316699E-01
                       7.4858316699E-01  2.5141683301E-01  2.4963836531E-01
                      -8.2456625120E-03  8.2456625120E-03 -8.2456625120E-03
             xred6     2.4839725956E-01  2.5160274044E-01  2.4839725956E-01
                       7.4839725956E-01  7.5160274044E-01  7.4839725956E-01
                       7.7247625391E-01  2.2752374609E-01  7.7247625391E-01
                       2.4983783120E-01  2.5154912750E-01  7.4845087250E-01
                       7.4845087250E-01  7.5016216880E-01  2.4983783120E-01
                       2.4950397106E-01  7.5049602894E-01  2.4950397106E-01
                       2.4983783120E-01  7.5016216880E-01  7.4845087250E-01
                       7.4845087250E-01  2.5154912750E-01  2.4983783120E-01
                      -8.3279725080E-03  8.3279725080E-03 -8.3279725080E-03
             xred7     2.4843904632E-01  2.5156095368E-01  2.4843904632E-01
                       7.4843904632E-01  7.5156095368E-01  7.4843904632E-01
                       7.7214395100E-01  2.2785604900E-01  7.7214395100E-01
                       2.5003297817E-01  2.5166408093E-01  7.4833591907E-01
                       7.4833591907E-01  7.4996702183E-01  2.5003297817E-01
                       2.4966464522E-01  7.5033535478E-01  2.4966464522E-01
                       2.5003297817E-01  7.4996702183E-01  7.4833591907E-01
                       7.4833591907E-01  2.5166408093E-01  2.5003297817E-01
                      -8.4003043542E-03  8.4003043542E-03 -8.4003043542E-03
             xred8     2.4851442716E-01  2.5148557284E-01  2.4851442716E-01
                       7.4851442716E-01  7.5148557284E-01  7.4851442716E-01
                       7.7181026127E-01  2.2818973873E-01  7.7181026127E-01
                       2.5023419682E-01  2.5179146897E-01  7.4820853103E-01
                       7.4820853103E-01  7.4976580318E-01  2.5023419682E-01
                       2.4979151023E-01  7.5020848977E-01  2.4979151023E-01
                       2.5023419682E-01  7.4976580318E-01  7.4820853103E-01
                       7.4820853103E-01  2.5179146897E-01  2.5023419682E-01
                      -8.4919025415E-03  8.4919025415E-03 -8.4919025415E-03
             xred9     2.4854775143E-01  2.5145224857E-01  2.4854775143E-01
                       7.4854775143E-01  7.5145224857E-01  7.4854775143E-01
                       7.7147932022E-01  2.2852067978E-01  7.7147932022E-01
                       2.5043777154E-01  2.5190368742E-01  7.4809631258E-01
                       7.4809631258E-01  7.4956222846E-01  2.5043777154E-01
                       2.4994454388E-01  7.5005545612E-01  2.4994454388E-01
                       2.5043777154E-01  7.4956222846E-01  7.4809631258E-01
                       7.4809631258E-01  2.5190368742E-01  2.5043777154E-01
                      -8.5633562535E-03  8.5633562535E-03 -8.5633562535E-03
             xred10    2.4863744820E-01  2.5136255180E-01  2.4863744820E-01
                       7.4863744820E-01  7.5136255180E-01  7.4863744820E-01
                       7.7111649963E-01  2.2888350037E-01  7.7111649963E-01
                       2.5063681491E-01  2.5201735862E-01  7.4798264138E-01
                       7.4798264138E-01  7.4936318509E-01  2.5063681491E-01
                       2.5007381896E-01  7.4992618104E-01  2.5007381896E-01
                       2.5063681491E-01  7.4936318509E-01  7.4798264138E-01
                       7.4798264138E-01  2.5201735862E-01  2.5063681491E-01
                      -8.6799485874E-03  8.6799485874E-03 -8.6799485874E-03
            znucl       55.00000   53.00000   72.00000   17.00000

- Timing analysis has been suppressed with timopt=0

 Suggested references for the acknowledgment of ABINIT usage.

 Calculation completed.
.Delivered   0 WARNINGs and 175 COMMENTs to log file.