.Version 9.2.2 of ABINIT

 ABINIT is a project of the Universite Catholique de Louvain,
 Corning Inc. and other collaborators, see ~abinit/doc/developers/contributors.txt .
 acknowledgments of the ABINIT effort.

.Starting date : Thu 15 Dec 2022.
- ( at 10h14 )

- The starting date is more than 2 years after the initial release
- of this version of ABINIT, namely Nov 2020.
- Note that the use beyond 3 years after the release will not be supported.
- Action: please, switch to a more recent version of ABINIT.

- input  file    -> Cs2TiI6.in
- output file    -> Cs2TiI6.out
- root for input  files -> Cs2TiI6i
- root for output files -> Cs2TiI6o

- inpspheads : Reading pseudopotential header in XML form from
-   ../../../Psps_for_tests/ATOMICDATA/Cs.GGA_PBE-JTH.xml
- inpspheads : Reading pseudopotential header in XML form from
-   ../../../Psps_for_tests/ATOMICDATA/I.GGA_PBE-JTH.xml
- inpspheads : Reading pseudopotential header in XML form from
-   ../../../Psps_for_tests/ATOMICDATA/Zr.GGA_PBE-JTH.xml
- inpspheads : Reading pseudopotential header in XML form from
-   ../../../Psps_for_tests/ATOMICDATA/Cl.GGA_PBE-JTH.xml

 DATASET    1 : space group Fm m 2 (# 42); Bravais oF (face-center ortho.)
     intxc =       0    ionmov =       0      iscf =      17    lmnmax =      18
     lnmax =       6     mgfft =      54  mpssoang =       3    mqgrid =    3284
     natom =       9  nloc_mem =       2    nspden =       1   nspinor =       1
    nsppol =       1      nsym =       4    n1xccc =       1    ntypat =       4
    occopt =       1   xclevel =       2
-    mband =          42        mffmem =           1         mkmem =          70
       mpw =        6146          nfft =      157464          nkpt =         280
Pmy_natom=         3
 PAW method is used; the additional fine FFT grid is defined by:
   mgfftf=        90    nfftf =    729000
  Rough estimation (10% accuracy) of disk space for files :

[...]

 DATASET   10 : space group Fm m 2 (# 42); Bravais oF (face-center ortho.)
     intxc =       0    ionmov =       0      iscf =      17    lmnmax =      18
     lnmax =       6     mgfft =      54  mpssoang =       3    mqgrid =    3251
     natom =       9  nloc_mem =       2    nspden =       1   nspinor =       1
    nsppol =       1      nsym =       4    n1xccc =       1    ntypat =       4
    occopt =       1   xclevel =       2
-    mband =          42        mffmem =           1         mkmem =          70
       mpw =        5948          nfft =      157464          nkpt =         280
Pmy_natom=         3
 PAW method is used; the additional fine FFT grid is defined by:
   mgfftf=        90    nfftf =    729000
  Rough estimation (10% accuracy) of disk space for files :

------------- Echo of variables that govern the present computation ------------
-
- outvars: echo of selected default values
-   iomode0 =  0 , fftalg0 =112 , wfoptalg0 = 10
-
- outvars: echo of global parameters not present in the input file
-  max_nthreads =    0
-
 -outvars: echo values of preprocessed input variables --------
            acell1     1.4170718915E+01  1.3946642697E+01  1.4282583462E+01 Bohr
            acell2     1.4155354924E+01  1.3933031641E+01  1.4269405240E+01 Bohr
            acell3     1.4140829005E+01  1.3919018268E+01  1.4255808148E+01 Bohr
            acell4     1.4126527425E+01  1.3904899036E+01  1.4242096692E+01 Bohr
            acell5     1.4111894834E+01  1.3890944034E+01  1.4228545291E+01 Bohr
            acell6     1.4083552906E+01  1.3862884319E+01  1.4200633404E+01 Bohr
            acell7     1.4068820077E+01  1.3848900451E+01  1.4187223959E+01 Bohr
            acell8     1.4054202082E+01  1.3834974743E+01  1.4173623560E+01 Bohr
            acell9     1.4039109088E+01  1.3821169449E+01  1.4160390050E+01 Bohr
            acell10    1.4024160191E+01  1.3807482271E+01  1.4146863540E+01 Bohr
              amu      1.32905430E+02  1.26904470E+02  9.12240000E+01
                       3.54527000E+01
           diemac      1.20000000E+01
             ecut      1.60000000E+01 Hartree
-          fftalg         112
           istwfk        2    0    0    0    0    0    3    0    0    0
                         0    0    0    0    0    0    0    0    0    0
                         0    0    0    0    0    0    0    0    0    0
                         0    0    0    0    0    0    0    0    0    0
                         0    0    7    0    0    0    0    0    0    0
                       outvar_i_n : Printing only first  50 k-points.
              ixc     -101130
           jdtset        1    2    3    4    5    6    7    8    9   10
              kpt      0.00000000E+00  0.00000000E+00  0.00000000E+00
                       8.33333333E-02  0.00000000E+00  0.00000000E+00
                       1.66666667E-01  0.00000000E+00  0.00000000E+00
                       2.50000000E-01  0.00000000E+00  0.00000000E+00
                       3.33333333E-01  0.00000000E+00  0.00000000E+00
                       4.16666667E-01  0.00000000E+00  0.00000000E+00
                       5.00000000E-01  0.00000000E+00  0.00000000E+00
                       8.33333333E-02  8.33333333E-02  0.00000000E+00
                       1.66666667E-01  8.33333333E-02  0.00000000E+00
                       2.50000000E-01  8.33333333E-02  0.00000000E+00
                       3.33333333E-01  8.33333333E-02  0.00000000E+00
                       4.16666667E-01  8.33333333E-02  0.00000000E+00
                       5.00000000E-01  8.33333333E-02  0.00000000E+00
                      -4.16666667E-01  8.33333333E-02  0.00000000E+00
                      -3.33333333E-01  8.33333333E-02  0.00000000E+00
                      -2.50000000E-01  8.33333333E-02  0.00000000E+00
                      -1.66666667E-01  8.33333333E-02  0.00000000E+00
                      -8.33333333E-02  8.33333333E-02  0.00000000E+00
                       1.66666667E-01  1.66666667E-01  0.00000000E+00
                       2.50000000E-01  1.66666667E-01  0.00000000E+00
                       3.33333333E-01  1.66666667E-01  0.00000000E+00
                       4.16666667E-01  1.66666667E-01  0.00000000E+00
                       5.00000000E-01  1.66666667E-01  0.00000000E+00
                      -4.16666667E-01  1.66666667E-01  0.00000000E+00
                      -3.33333333E-01  1.66666667E-01  0.00000000E+00
                      -2.50000000E-01  1.66666667E-01  0.00000000E+00
                      -1.66666667E-01  1.66666667E-01  0.00000000E+00
                       2.50000000E-01  2.50000000E-01  0.00000000E+00
                       3.33333333E-01  2.50000000E-01  0.00000000E+00
                       4.16666667E-01  2.50000000E-01  0.00000000E+00
                       5.00000000E-01  2.50000000E-01  0.00000000E+00
                      -4.16666667E-01  2.50000000E-01  0.00000000E+00
                      -3.33333333E-01  2.50000000E-01  0.00000000E+00
                      -2.50000000E-01  2.50000000E-01  0.00000000E+00
                       3.33333333E-01  3.33333333E-01  0.00000000E+00
                       4.16666667E-01  3.33333333E-01  0.00000000E+00
                       5.00000000E-01  3.33333333E-01  0.00000000E+00
                      -4.16666667E-01  3.33333333E-01  0.00000000E+00
                      -3.33333333E-01  3.33333333E-01  0.00000000E+00
                       4.16666667E-01  4.16666667E-01  0.00000000E+00
                       5.00000000E-01  4.16666667E-01  0.00000000E+00
                      -4.16666667E-01  4.16666667E-01  0.00000000E+00
                       5.00000000E-01  5.00000000E-01  0.00000000E+00
                       8.33333333E-02  0.00000000E+00  8.33333333E-02
                       1.66666667E-01  0.00000000E+00  8.33333333E-02
                       2.50000000E-01  0.00000000E+00  8.33333333E-02
                       3.33333333E-01  0.00000000E+00  8.33333333E-02
                       4.16666667E-01  0.00000000E+00  8.33333333E-02
                       5.00000000E-01  0.00000000E+00  8.33333333E-02
                      -4.16666667E-01  0.00000000E+00  8.33333333E-02
                       outvar_i_n : Printing only first  50 k-points.
         kptrlatt       12    0    0      0   12    0      0    0   12
          kptrlen1     1.67359712E+02
          kptrlen2     1.67196380E+02
          kptrlen3     1.67028219E+02
          kptrlen4     1.66858788E+02
          kptrlen5     1.66691328E+02
          kptrlen6     1.66354612E+02
          kptrlen7     1.66186805E+02
          kptrlen8     1.66019697E+02
          kptrlen9     1.65854033E+02
          kptrlen10    1.65689787E+02
P           mkmem          70
            natom           9
            nband          42
           ndtset          10
            ngfft          54      54      54
          ngfftdg          90      90      90
             nkpt         280
            nstep        2500
             nsym           4
           ntypat           4
              occ      2.000000  2.000000  2.000000  2.000000  2.000000  2.000000
                       2.000000  2.000000  2.000000  2.000000  2.000000  2.000000
                       2.000000  2.000000  2.000000  2.000000  2.000000  2.000000
                       2.000000  2.000000  2.000000  2.000000  2.000000  2.000000
                       2.000000  2.000000  2.000000  2.000000  2.000000  2.000000
                       2.000000  2.000000  2.000000  2.000000  2.000000  2.000000
                       0.000000  0.000000  0.000000  0.000000  0.000000  0.000000
        pawecutdg      4.00000000E+01 Hartree
            prtwf           0
            rprim1     0.0000000000E+00  7.2361096128E-01  6.9020806770E-01
                       7.1286880341E-01  0.0000000000E+00  7.0129741845E-01
                       6.9610141034E-01  7.1794347028E-01  0.0000000000E+00
            rprim2     0.0000000000E+00  7.2365192772E-01  6.9016511611E-01
                       7.1298648153E-01  0.0000000000E+00  7.0117777856E-01
                       6.9617920577E-01  7.1786803345E-01  0.0000000000E+00
            rprim3     0.0000000000E+00  7.2368976444E-01  6.9012544139E-01
                       7.1304020648E-01  0.0000000000E+00  7.0112314463E-01
                       6.9619481106E-01  7.1785289931E-01  0.0000000000E+00
            rprim4     0.0000000000E+00  7.2372661576E-01  6.9008679573E-01
                       7.1307672844E-01  0.0000000000E+00  7.0108599997E-01
                       6.9619383495E-01  7.1785384597E-01  0.0000000000E+00
            rprim5     0.0000000000E+00  7.2376430028E-01  6.9004727204E-01
                       7.1313843190E-01  0.0000000000E+00  7.0102323567E-01
                       6.9621776812E-01  7.1783063417E-01  0.0000000000E+00
            rprim6     0.0000000000E+00  7.2380495546E-01  6.9000462784E-01
                       7.1317298724E-01  0.0000000000E+00  7.0098808140E-01
                       6.9621081962E-01  7.1783737339E-01  0.0000000000E+00
            rprim7     0.0000000000E+00  7.2385149911E-01  6.8995580093E-01
                       7.1324751159E-01  0.0000000000E+00  7.0091225357E-01
[...]
                       1.3590521148E-12 -1.2492582451E-01 -7.5691302537E-13
           xangst7     2.6135252122E+00  2.7046086059E+00  2.5683256043E+00
                       7.8405756365E+00  8.0936098616E+00  7.7049768129E+00
                       5.2270504243E+00  5.3198658027E+00  2.4426001274E+00
                       5.2270504244E+00  5.3198658028E+00  7.8307022899E+00
                       7.6334317116E+00  5.4388256092E+00  5.1366512087E+00
                       5.2270504243E+00  8.2023704024E+00  5.1366512086E+00
                       5.2270504244E+00  2.7194920253E+00  5.1366512087E+00
                       2.8206691371E+00  5.4388256093E+00  5.1366512086E+00
                       2.2231470696E-12 -1.2545367275E-01  1.2959764077E-12
           xangst8     2.6111124169E+00  2.7022586797E+00  2.5655240037E+00
                       7.8333372506E+00  8.0859141460E+00  7.6965720112E+00
                       5.2222248338E+00  5.3148417467E+00  2.4421811850E+00
                       5.2222248337E+00  5.3148417467E+00  7.8199148299E+00
                       7.6250975569E+00  5.4338436818E+00  5.1310480074E+00
                       5.2222248338E+00  8.1916503243E+00  5.1310480075E+00
                       5.2222248337E+00  2.7178773362E+00  5.1310480074E+00
                       2.8193521106E+00  5.4338436818E+00  5.1310480075E+00
                      -1.9503295705E-12 -1.2582761210E-01 -1.0651268442E-12
           xangst9     2.6088811214E+00  2.6997476441E+00  2.5625830631E+00
                       7.8266433641E+00  8.0779756528E+00  7.6877491892E+00
                       5.2177622427E+00  5.3093954479E+00  2.4417658847E+00
                       5.2177622428E+00  5.3093954480E+00  7.8085663675E+00
                       7.6174992682E+00  5.4290020390E+00  5.1251661262E+00
                       5.2177622427E+00  8.1810027326E+00  5.1251661261E+00
                       5.2177622428E+00  2.7163605210E+00  5.1251661262E+00
                       2.8180252174E+00  5.4290020390E+00  5.1251661261E+00
                       1.0671395196E-12 -1.2605745448E-01  1.2102482624E-12
           xangst10    2.6065888684E+00  2.6972614230E+00  2.5597486903E+00
                       7.8197666053E+00  8.0699641657E+00  7.6792460708E+00
                       5.2131777370E+00  5.3041159980E+00  2.4413168945E+00
                       5.2131777368E+00  5.3041159980E+00  7.7976778665E+00
                       7.6096693232E+00  5.4239243665E+00  5.1194973804E+00
                       5.2131777370E+00  8.1699915729E+00  5.1194973806E+00
                       5.2131777368E+00  2.7147447052E+00  5.1194973804E+00
                       2.8166861506E+00  5.4239243665E+00  5.1194973806E+00
                      -3.3917123112E-12 -1.2642065470E-01 -3.9914235461E-12
            xcart1     4.9710632455E+00  5.1427445896E+00  4.8903722599E+00
                       1.4913189737E+01  1.5396832125E+01  1.4671116780E+01
                       9.9421264911E+00  1.0119833376E+01  4.6213557869E+00
                       9.9421264910E+00  1.0119833377E+01  1.4940133253E+01
                       1.4537181534E+01  1.0342453771E+01  9.7807445197E+00
                       9.9421264911E+00  1.5641303791E+01  9.7807445201E+00
                       9.9421264910E+00  5.1595880401E+00  9.7807445196E+00
                       5.3470714477E+00  1.0342453771E+01  9.7807445200E+00
                      -2.2630526613E-12 -2.3234255485E-01 -8.9653301205E-12
            xcart2     4.9670316034E+00  5.1375841999E+00  4.8847660873E+00
                       1.4901094810E+01  1.5381134078E+01  1.4654298262E+01
                       9.9340632068E+00  1.0109559686E+01  4.6207171522E+00
                       9.9340632068E+00  1.0109559686E+01  1.4918347197E+01
                       1.4523271978E+01  1.0332936967E+01  9.7695321747E+00
                       9.9340632068E+00  1.5620481094E+01  9.7695321747E+00
                       9.9340632068E+00  5.1569023064E+00  9.7695321747E+00
                       5.3448544353E+00  1.0332936967E+01  9.7695321747E+00
                      -3.4900752349E-13 -2.3269595940E-01 -6.6047698967E-13
            xcart3     4.9624098300E+00  5.1330071588E+00  4.8794729292E+00
                       1.4887229490E+01  1.5366580370E+01  1.4638418788E+01
                       9.9248196600E+00  1.0100268664E+01  4.6199334238E+00
                       9.9248196599E+00  1.0100268665E+01  1.4897958293E+01
                       1.4507152564E+01  1.0323603829E+01  9.7589458584E+00
                       9.9248196600E+00  1.5600560492E+01  9.7589458586E+00
                       9.9248196599E+00  5.1539990720E+00  9.7589458583E+00
                       5.3424867556E+00  1.0323603829E+01  9.7589458586E+00
                      -3.3154774674E-12 -2.3330638888E-01 -5.3981679799E-12
            xcart4     4.9576299569E+00  5.1286404279E+00  4.8742650227E+00
                       1.4872889871E+01  1.5352384313E+01  1.4622795068E+01
                       9.9152599138E+00  1.0090976180E+01  4.6191295608E+00
                       9.9152599138E+00  1.0090976180E+01  1.4877930530E+01
                       1.4490438079E+01  1.0314529625E+01  9.7485300452E+00
                       9.9152599138E+00  1.5580852277E+01  9.7485300454E+00
                       9.9152599138E+00  5.1510512519E+00  9.7485300452E+00
                       5.3400817488E+00  1.0314529625E+01  9.7485300454E+00
                       1.6844956028E-12 -2.3398879793E-01 -4.2829164484E-12
            xcart5     4.9530830230E+00  5.1245059709E+00  4.8689372667E+00
                       1.4859249069E+01  1.5338191661E+01  1.4606811800E+01
                       9.9061660461E+00  1.0081338886E+01  4.6182935687E+00
                       9.9061660460E+00  1.0081338886E+01  1.4857455498E+01
                       1.4474584673E+01  1.0305197808E+01  9.7378745333E+00
                       9.9061660461E+00  1.5560473419E+01  9.7378745334E+00
                       9.9061660460E+00  5.1480945179E+00  9.7378745333E+00
                       5.3377474187E+00  1.0305197808E+01  9.7378745334E+00
                      -8.8450429157E-13 -2.3485343730E-01 -3.3514175907E-12
            xcart6     4.9433173107E+00  5.1149434231E+00  4.8588583408E+00
                       1.4829951932E+01  1.5308688807E+01  1.4576575022E+01
                       9.8866346214E+00  1.0062649759E+01  4.6168010249E+00
                       9.8866346215E+00  1.0062649759E+01  1.4818632338E+01
                       1.4440543827E+01  1.0287192499E+01  9.7177166815E+00
                       9.8866346214E+00  1.5520521577E+01  9.7177166815E+00
                       9.8866346215E+00  5.1422003405E+00  9.7177166815E+00
                       5.3327254162E+00  1.0287192500E+01  9.7177166815E+00
                       2.5682362973E-12 -2.3607559524E-01 -1.4303583244E-12
            xcart7     4.9388468924E+00  5.1109695617E+00  4.8534320122E+00
                       1.4816540677E+01  1.5294706065E+01  1.4560296037E+01
                       9.8776937847E+00  1.0053089431E+01  4.6158452929E+00
                       9.8776937848E+00  1.0053089431E+01  1.4797882756E+01
                       1.4425095389E+01  1.0277890886E+01  9.7068640245E+00
                       9.8776937847E+00  1.5500233701E+01  9.7068640244E+00
                       9.8776937848E+00  5.1390951484E+00  9.7068640245E+00
                       5.3302921805E+00  1.0277890886E+01  9.7068640244E+00
                       4.2011391147E-12 -2.3707308386E-01  2.4490404852E-12
            xcart8     4.9342873701E+00  5.1065288448E+00  4.8481377544E+00
                       1.4802862110E+01  1.5280163270E+01  1.4544413263E+01
                       9.8685747402E+00  1.0043595341E+01  4.6150536065E+00
                       9.8685747401E+00  1.0043595341E+01  1.4777497411E+01
                       1.4409346119E+01  1.0268476407E+01  9.6962755087E+00
                       9.8685747402E+00  1.5479975689E+01  9.6962755088E+00
                       9.8685747401E+00  5.1360438281E+00  9.6962755087E+00
                       5.3278033613E+00  1.0268476408E+01  9.6962755088E+00
                      -3.6855887571E-12 -2.3777972682E-01 -2.0127980322E-12
            xcart9     4.9300708327E+00  5.1017836753E+00  4.8425801820E+00
                       1.4790212498E+01  1.5265161692E+01  1.4527740546E+01
                       9.8601416653E+00  1.0033303328E+01  4.6142688028E+00
                       9.8601416654E+00  1.0033303328E+01  1.4756051925E+01
                       1.4394987434E+01  1.0259327029E+01  9.6851603640E+00
                       9.8601416653E+00  1.5459854657E+01  9.6851603639E+00
                       9.8601416654E+00  5.1331774629E+00  9.6851603640E+00
                       5.3252958964E+00  1.0259327029E+01  9.6851603639E+00
                       2.0166014376E-12 -2.3821406597E-01  2.2870377687E-12
            xcart10    4.9257391024E+00  5.0970853984E+00  4.8372239936E+00
                       1.4777217307E+01  1.5250022175E+01  1.4511671981E+01
                       9.8514782049E+00  1.0023326613E+01  4.6134203342E+00
                       9.8514782046E+00  1.0023326613E+01  1.4735475640E+01
                       1.4380190983E+01  1.0249731618E+01  9.6744479870E+00
                       9.8514782049E+00  1.5439046581E+01  9.6744479874E+00
                       9.8514782046E+00  5.1301240135E+00  9.6744479870E+00
                       5.3227654270E+00  1.0249731618E+01  9.6744479873E+00
                      -6.4094073897E-12 -2.3890041492E-01 -7.5426973825E-12
             xred1     2.5076558844E-01  2.4923441156E-01  2.5076558844E-01
                       7.5076558844E-01  7.4923441156E-01  7.5076558844E-01
                       2.2970127571E-01  2.4279402130E-01  7.5720597870E-01
                       7.5720597870E-01  7.7029872429E-01  2.2970127571E-01
                       2.7321867782E-01  7.2678132218E-01  7.3539898175E-01
                       7.6268628176E-01  2.3731371824E-01  7.6268628176E-01
                       2.5158689265E-01  7.4841310735E-01  2.5158689265E-01
                       7.3539898175E-01  2.6460101825E-01  2.7321867782E-01
                      -1.1329265234E-02  1.1329265234E-02 -1.1329265234E-02
             xred2     2.5077166905E-01  2.4922833095E-01  2.5077166905E-01
                       7.5077166905E-01  7.4922833095E-01  7.5077166905E-01
                       2.2994587880E-01  2.4302632392E-01  7.5697367608E-01
                       7.5697367608E-01  7.7005412120E-01  2.2994587880E-01
                       2.7337962192E-01  7.2662037808E-01  7.3534656092E-01
                       7.6245448502E-01  2.3754551498E-01  7.6245448502E-01
                       2.5171460908E-01  7.4828539092E-01  2.5171460908E-01
                       7.3534656092E-01  2.6465343908E-01  2.7337962192E-01
                      -1.1358169881E-02  1.1358169881E-02 -1.1358169881E-02
             xred3     2.5079251659E-01  2.4920748341E-01  2.5079251659E-01
                       7.5079251659E-01  7.4920748341E-01  7.5079251659E-01
                       2.3018938377E-01  2.4321558136E-01  7.5678441864E-01
                       7.5678441864E-01  7.6981061623E-01  2.3018938377E-01
                       2.7354658710E-01  7.2645341290E-01  7.3525098691E-01
                       7.6222450213E-01  2.3777549787E-01  7.6222450213E-01
                       2.5181815606E-01  7.4818184394E-01  2.5181815606E-01
                       7.3525098691E-01  2.6474901309E-01  2.7354658710E-01
                      -1.1399067758E-02  1.1399067758E-02 -1.1399067758E-02
             xred4     2.5082007557E-01  2.4917992443E-01  2.5082007557E-01
                       7.5082007557E-01  7.4917992443E-01  7.5082007557E-01
                       2.3042105130E-01  2.4340726326E-01  7.5659273674E-01
                       7.5659273674E-01  7.6957894870E-01  2.3042105130E-01
                       2.7372596541E-01  7.2627403459E-01  7.3515392643E-01
                       7.6199347576E-01  2.3800652424E-01  7.6199347576E-01
                       2.5191609403E-01  7.4808390597E-01  2.5191609403E-01
                       7.3515392643E-01  2.6484607357E-01  2.7372596541E-01
                      -1.1443400801E-02  1.1443400801E-02 -1.1443400801E-02
             xred5     2.5086467934E-01  2.4913532066E-01  2.5086467934E-01
                       7.5086467934E-01  7.4913532066E-01  7.5086467934E-01
                       2.3065157654E-01  2.4360936745E-01  7.5639063255E-01
                       7.5639063255E-01  7.6934842346E-01  2.3065157654E-01
                       2.7389527951E-01  7.2610472049E-01  7.3506447515E-01
                       7.6174624379E-01  2.3825375621E-01  7.6174624379E-01
                       2.5201943129E-01  7.4798056871E-01  2.5201943129E-01
                       7.3506447515E-01  2.6493552485E-01  2.7389527951E-01
                      -1.1496997481E-02  1.1496997481E-02 -1.1496997481E-02
             xred6     2.5088636368E-01  2.4911363632E-01  2.5088636368E-01
                       7.5088636368E-01  7.4911363632E-01  7.5088636368E-01
                       2.3111536723E-01  2.4397576541E-01  7.5602423459E-01
                       7.5602423459E-01  7.6888463277E-01  2.3111536723E-01
                       2.7427721484E-01  7.2572278516E-01  7.3488988837E-01
                       7.6127669432E-01  2.3872330568E-01  7.6127669432E-01
                       2.5222330689E-01  7.4777669311E-01  2.5222330689E-01
                       7.3488988837E-01  2.6511011163E-01  2.7427721484E-01
                      -1.1579433582E-02  1.1579433582E-02 -1.1579433582E-02
             xred7     2.5093783407E-01  2.4906216593E-01  2.5093783407E-01
                       7.5093783407E-01  7.4906216593E-01  7.5093783407E-01
                       2.3134742603E-01  2.4417641785E-01  7.5582358215E-01
                       7.5582358215E-01  7.6865257397E-01  2.3134742603E-01
                       2.7443739116E-01  7.2556260884E-01  7.3480817237E-01
                       7.6102880785E-01  2.3897119215E-01  7.6102880785E-01
                       2.5231874110E-01  7.4768125890E-01  2.5231874110E-01
                       7.3480817237E-01  2.6519182763E-01  2.7443739116E-01
                      -1.1639788784E-02  1.1639788784E-02 -1.1639788784E-02
             xred8     2.5096876059E-01  2.4903123941E-01  2.5096876059E-01
                       7.5096876059E-01  7.4903123941E-01  7.5096876059E-01
                       2.3158975347E-01  2.4437172291E-01  7.5562827709E-01
                       7.5562827709E-01  7.6841024653E-01  2.3158975347E-01
                       2.7459899829E-01  7.2540100171E-01  7.3472333219E-01
                       7.6078887064E-01  2.3921112936E-01  7.6078887064E-01
                       2.5241932300E-01  7.4758067700E-01  2.5241932300E-01
                       7.3472333219E-01  2.6527666781E-01  2.7459899829E-01
                      -1.1686075835E-02  1.1686075835E-02 -1.1686075835E-02
             xred9     2.5098858209E-01  2.4901141791E-01  2.5098858209E-01
                       7.5098858209E-01  7.4901141791E-01  7.5098858209E-01
                       2.3181415446E-01  2.4461252609E-01  7.5538747391E-01
                       7.5538747391E-01  7.6818584554E-01  2.3181415446E-01
                       2.7476188175E-01  7.2523811825E-01  7.3467877979E-01
                       7.6056674423E-01  2.3943325577E-01  7.6056674423E-01
                       2.5253303845E-01  7.4746696155E-01  2.5253303845E-01
                       7.3467877979E-01  2.6532122021E-01  2.7476188175E-01
                      -1.1719236733E-02  1.1719236733E-02 -1.1719236733E-02
             xred10    2.5101532248E-01  2.4898467752E-01  2.5101532248E-01
                       7.5101532248E-01  7.4898467752E-01  7.5101532248E-01
                       2.3205036915E-01  2.4481614978E-01  7.5518385022E-01
                       7.5518385022E-01  7.6794963085E-01  2.3205036915E-01
                       2.7491743606E-01  7.2508256394E-01  7.3461624305E-01
                       7.6032417615E-01  2.3967582385E-01  7.6032417615E-01
                       2.5264236970E-01  7.4735763030E-01  2.5264236970E-01
                       7.3461624305E-01  2.6538375695E-01  2.7491743606E-01
                      -1.1765089263E-02  1.1765089263E-02 -1.1765089263E-02
            znucl       55.00000   53.00000   40.00000   17.00000

- Timing analysis has been suppressed with timopt=0

 Suggested references for the acknowledgment of ABINIT usage.

 Calculation completed.
.Delivered   0 WARNINGs and  20 COMMENTs to log file.