.Version 9.2.2 of ABINIT

 ABINIT is a project of the Universite Catholique de Louvain,
 Corning Inc. and other collaborators, see ~abinit/doc/developers/contributors.txt .
 acknowledgments of the ABINIT effort.

.Starting date : Sat 22 Oct 2022.
- ( at 04h12 )

- input  file    -> Cs2TiI6.in
- output file    -> Cs2TiI6.out
- root for input  files -> Cs2TiI6i
- root for output files -> Cs2TiI6o

- inpspheads : Reading pseudopotential header in XML form from
-   ../../../Psps_for_tests/ATOMICDATA/Cs.GGA_PBE-JTH.xml
- inpspheads : Reading pseudopotential header in XML form from
-   ../../../Psps_for_tests/ATOMICDATA/I.GGA_PBE-JTH.xml
- inpspheads : Reading pseudopotential header in XML form from
-   ../../../Psps_for_tests/ATOMICDATA/Zr.GGA_PBE-JTH.xml
- inpspheads : Reading pseudopotential header in XML form from
-   ../../../Psps_for_tests/ATOMICDATA/Br.GGA_PBE-JTH.xml

 DATASET    1 : space group Im m 2 (# 44); Bravais oI (body-center ortho.)
     intxc =       0    ionmov =       0      iscf =      17    lmnmax =      18
     lnmax =       6     mgfft =      60  mpssoang =       3    mqgrid =    3604
     natom =       9  nloc_mem =       2    nspden =       1   nspinor =       1
    nsppol =       1      nsym =       4    n1xccc =       1    ntypat =       4
    occopt =       1   xclevel =       2
-    mband =          42        mffmem =           1         mkmem =          47
       mpw =        7992          nfft =      216000          nkpt =         280
Pmy_natom=         2
 PAW method is used; the additional fine FFT grid is defined by:
   mgfftf=        90    nfftf =    729000
  Rough estimation (10% accuracy) of disk space for files :

[...]

 DATASET    3 : space group Im m 2 (# 44); Bravais oI (body-center ortho.)
     intxc =       0    ionmov =       0      iscf =      17    lmnmax =      18
     lnmax =       6     mgfft =      60  mpssoang =       3    mqgrid =    3604
     natom =       9  nloc_mem =       2    nspden =       1   nspinor =       1
    nsppol =       1      nsym =       4    n1xccc =       1    ntypat =       4
    occopt =       1   xclevel =       2
-    mband =          42        mffmem =           1         mkmem =          47
       mpw =        7992          nfft =      216000          nkpt =         280
Pmy_natom=         2
 PAW method is used; the additional fine FFT grid is defined by:
   mgfftf=        90    nfftf =    729000
  Rough estimation (10% accuracy) of disk space for files :

 DATASET    4 : space group I4/m m m (#139); Bravais tI (body-center tetrag.)
     intxc =       0    ionmov =       0      iscf =      17    lmnmax =      18
     lnmax =       6     mgfft =      60  mpssoang =       3    mqgrid =    3585
     natom =       9  nloc_mem =       2    nspden =       1   nspinor =       1
    nsppol =       1      nsym =      16    n1xccc =       1    ntypat =       4
    occopt =       1   xclevel =       2
-    mband =          42        mffmem =           1         mkmem =          28
       mpw =        7968          nfft =      216000          nkpt =         163
Pmy_natom=         2
 PAW method is used; the additional fine FFT grid is defined by:
   mgfftf=        90    nfftf =    729000
  Rough estimation (10% accuracy) of disk space for files :

------------- Echo of variables that govern the present computation ------------
-
- outvars: echo of selected default values
-   iomode0 =  0 , fftalg0 =112 , wfoptalg0 = 10
-
- outvars: echo of global parameters not present in the input file
-  max_nthreads =    0
-
 -outvars: echo values of preprocessed input variables --------
            acell1     1.5411958368E+01  1.5599031910E+01  1.5411958368E+01 Bohr
            acell2     1.5599032608E+01  1.5411958511E+01  1.5411958511E+01 Bohr
            acell3     1.5413833771E+01  1.5411958852E+01  1.5411958852E+01 Bohr
            acell4     1.5420047701E+01  1.5420047701E+01  1.5418496941E+01 Bohr
              amu      1.32905430E+02  1.26904470E+02  9.12240000E+01
                       7.99040000E+01
           diemac      1.20000000E+01
             ecut      1.60000000E+01 Hartree
-          fftalg         112
           istwfk1       2    0    0    0    0    0    3    0    0    0
                         0    0    0    0    0    0    0    0    0    0
                         0    0    0    0    0    0    0    0    0    0
                         0    0    0    0    0    0    0    0    0    0
                         0    0    0    0    0    0    0    0    0    0
           istwfk2       2    0    0    0    0    0    3    0    0    0
                         0    0    0    0    0    0    0    0    0    0
                         0    0    0    0    0    0    0    0    0    0
                         0    0    0    0    0    0    0    0    0    0
                         0    0    0    0    0    0    0    0    0    0
           istwfk3       2    0    0    0    0    0    3    0    0    0
                         0    0    0    0    0    0    0    0    0    0
                         0    0    0    0    0    0    0    0    0    0
                         0    0    0    0    0    0    0    0    0    0
                         0    0    0    0    0    0    0    0    0    0
           istwfk4       2    0    0    0    0    0    3    0    0    0
                         0    0    0    0    0    0    0    0    0    0
                         0    0    0    0    0    0    0    0    0    0
                         0    0    0    0    0    0    0    0    0    0
                         0    0    7    0    0    0    0    0    0    0
                       outvar_i_n : Printing only first  50 k-points.
              ixc     -101130
           jdtset        1    2    3    4
              kpt1     0.00000000E+00  0.00000000E+00  0.00000000E+00
                       8.33333333E-02  0.00000000E+00  0.00000000E+00
                       1.66666667E-01  0.00000000E+00  0.00000000E+00
                       2.50000000E-01  0.00000000E+00  0.00000000E+00
                       3.33333333E-01  0.00000000E+00  0.00000000E+00
                       4.16666667E-01  0.00000000E+00  0.00000000E+00
                       5.00000000E-01  0.00000000E+00  0.00000000E+00
                       0.00000000E+00  8.33333333E-02  0.00000000E+00
                       8.33333333E-02  8.33333333E-02  0.00000000E+00
                       1.66666667E-01  8.33333333E-02  0.00000000E+00
                       2.50000000E-01  8.33333333E-02  0.00000000E+00
                       3.33333333E-01  8.33333333E-02  0.00000000E+00
                       4.16666667E-01  8.33333333E-02  0.00000000E+00
                       5.00000000E-01  8.33333333E-02  0.00000000E+00
                      -4.16666667E-01  8.33333333E-02  0.00000000E+00
                      -3.33333333E-01  8.33333333E-02  0.00000000E+00
                      -2.50000000E-01  8.33333333E-02  0.00000000E+00
                      -1.66666667E-01  8.33333333E-02  0.00000000E+00
                      -8.33333333E-02  8.33333333E-02  0.00000000E+00
                       0.00000000E+00  1.66666667E-01  0.00000000E+00
                       8.33333333E-02  1.66666667E-01  0.00000000E+00
                       1.66666667E-01  1.66666667E-01  0.00000000E+00
                       2.50000000E-01  1.66666667E-01  0.00000000E+00
                       3.33333333E-01  1.66666667E-01  0.00000000E+00
                       4.16666667E-01  1.66666667E-01  0.00000000E+00
                       5.00000000E-01  1.66666667E-01  0.00000000E+00
                      -4.16666667E-01  1.66666667E-01  0.00000000E+00
                      -3.33333333E-01  1.66666667E-01  0.00000000E+00
                      -2.50000000E-01  1.66666667E-01  0.00000000E+00
                      -1.66666667E-01  1.66666667E-01  0.00000000E+00
                      -8.33333333E-02  1.66666667E-01  0.00000000E+00
                       0.00000000E+00  2.50000000E-01  0.00000000E+00
                       8.33333333E-02  2.50000000E-01  0.00000000E+00
                       1.66666667E-01  2.50000000E-01  0.00000000E+00
                       2.50000000E-01  2.50000000E-01  0.00000000E+00
                       3.33333333E-01  2.50000000E-01  0.00000000E+00
                       4.16666667E-01  2.50000000E-01  0.00000000E+00
                       5.00000000E-01  2.50000000E-01  0.00000000E+00
                      -4.16666667E-01  2.50000000E-01  0.00000000E+00
                      -3.33333333E-01  2.50000000E-01  0.00000000E+00
                      -2.50000000E-01  2.50000000E-01  0.00000000E+00
                      -1.66666667E-01  2.50000000E-01  0.00000000E+00
                      -8.33333333E-02  2.50000000E-01  0.00000000E+00
                       0.00000000E+00  3.33333333E-01  0.00000000E+00
                       8.33333333E-02  3.33333333E-01  0.00000000E+00
                       1.66666667E-01  3.33333333E-01  0.00000000E+00
                       2.50000000E-01  3.33333333E-01  0.00000000E+00
                       3.33333333E-01  3.33333333E-01  0.00000000E+00
                       4.16666667E-01  3.33333333E-01  0.00000000E+00
                       5.00000000E-01  3.33333333E-01  0.00000000E+00
              kpt2     0.00000000E+00  0.00000000E+00  0.00000000E+00
                       8.33333333E-02  0.00000000E+00  0.00000000E+00
                       1.66666667E-01  0.00000000E+00  0.00000000E+00
                       2.50000000E-01  0.00000000E+00  0.00000000E+00
                       3.33333333E-01  0.00000000E+00  0.00000000E+00
                       4.16666667E-01  0.00000000E+00  0.00000000E+00
                       5.00000000E-01  0.00000000E+00  0.00000000E+00
                       0.00000000E+00  8.33333333E-02  0.00000000E+00
                       8.33333333E-02  8.33333333E-02  0.00000000E+00
                       1.66666667E-01  8.33333333E-02  0.00000000E+00
                       2.50000000E-01  8.33333333E-02  0.00000000E+00
                       3.33333333E-01  8.33333333E-02  0.00000000E+00
                       4.16666667E-01  8.33333333E-02  0.00000000E+00
                       5.00000000E-01  8.33333333E-02  0.00000000E+00
                      -4.16666667E-01  8.33333333E-02  0.00000000E+00
                      -3.33333333E-01  8.33333333E-02  0.00000000E+00
                      -2.50000000E-01  8.33333333E-02  0.00000000E+00
                      -1.66666667E-01  8.33333333E-02  0.00000000E+00
                      -8.33333333E-02  8.33333333E-02  0.00000000E+00
                       0.00000000E+00  1.66666667E-01  0.00000000E+00
                       8.33333333E-02  1.66666667E-01  0.00000000E+00
                       1.66666667E-01  1.66666667E-01  0.00000000E+00
                       2.50000000E-01  1.66666667E-01  0.00000000E+00
                       3.33333333E-01  1.66666667E-01  0.00000000E+00
                       4.16666667E-01  1.66666667E-01  0.00000000E+00
                       5.00000000E-01  1.66666667E-01  0.00000000E+00
                      -4.16666667E-01  1.66666667E-01  0.00000000E+00
                      -3.33333333E-01  1.66666667E-01  0.00000000E+00
[...]
                       2.000000  2.000000  2.000000  2.000000  2.000000  2.000000
                       2.000000  2.000000  2.000000  2.000000  2.000000  2.000000
                       2.000000  2.000000  2.000000  2.000000  2.000000  2.000000
                       2.000000  2.000000  2.000000  2.000000  2.000000  2.000000
                       2.000000  2.000000  2.000000  2.000000  2.000000  2.000000
                       0.000000  0.000000  0.000000  0.000000  0.000000  0.000000
        pawecutdg      4.00000000E+01 Hartree
            prtwf           0
            rprim1     4.2500107890E-03  7.0273421604E-01  7.1143977891E-01
                       7.0710678119E-01  0.0000000000E+00  7.0710678119E-01
                       7.1143977891E-01  7.0273421604E-01  4.2500107890E-03
            rprim2     0.0000000000E+00  7.0710678119E-01  7.0710678119E-01
                       7.0273423287E-01  4.2500530348E-03  7.1143976203E-01
                       7.0273423287E-01  7.1143976203E-01  4.2500530348E-03
            rprim3     0.0000000000E+00  7.0710678119E-01  7.0710678119E-01
                       7.0273309554E-01 -4.2480939568E-03  7.1144089715E-01
                       7.0273309554E-01  7.1144089715E-01 -4.2480939568E-03
            rprim4     0.0000000000E+00  7.0703566902E-01  7.0717788620E-01
                       7.0703566902E-01  0.0000000000E+00  7.0717788620E-01
                       7.0710678119E-01  7.0710678119E-01  0.0000000000E+00
          spgroup1         44
          spgroup2         44
          spgroup3         44
          spgroup4        139
           strten1     2.9744416360E-06  2.9711766940E-06  2.9744416360E-06
                       6.3194460173E-14 -7.7507120983E-09  6.3194345241E-14
           strten2     2.9747876041E-06  2.9785794192E-06  2.9785794192E-06
                      -7.8165871939E-09  1.1914231681E-13  1.1914294136E-13
           strten3     2.9690768111E-06  2.9725960619E-06  2.9725960619E-06
                       8.7809765513E-09  7.2950282440E-14  7.2950037571E-14
           strten4     2.9876784515E-06  2.9876784515E-06  2.9492279252E-06
                       2.8314610082E-14  2.8315654975E-14 -5.6644267149E-14
           symafm1       1    1    1    1
           symafm2       1    1    1    1
           symafm3       1    1    1    1
           symafm4       1    1    1    1    1    1    1    1    1    1
                         1    1    1    1    1    1
           symrel1     1  0  0   0  1  0   0  0  1       1 -1  0   0 -1  0   0 -1  1
                       0  0 -1   0 -1  0  -1  0  0       0  1 -1   0  1  0  -1  1  0
           symrel2     1  0  0   0  1  0   0  0  1      -1  0  0  -1  1  0  -1  0  1
                      -1  0  0   0  0 -1   0 -1  0       1  0  0   1  0 -1   1 -1  0
           symrel3     1  0  0   0  1  0   0  0  1       1  0  0   1 -1  0   1  0 -1
                       1  0  0   0  0  1   0  1  0       1  0  0   1  0 -1   1 -1  0
           symrel4     1  0  0   0  1  0   0  0  1      -1  0  0   0 -1  0   0  0 -1
                      -1  0  1   0 -1  1   0  0  1       1  0 -1   0  1 -1   0  0 -1
                       0  1 -1   1  0 -1   0  0 -1       0 -1  1  -1  0  1   0  0  1
                       0 -1  0  -1  0  0   0  0 -1       0  1  0   1  0  0   0  0  1
                       0  1 -1   0  1  0  -1  1  0       0 -1  1   0 -1  0   1 -1  0
                      -1  0  1  -1  0  0  -1  1  0       1  0 -1   1  0  0   1 -1  0
                       1  0  0   1  0 -1   1 -1  0      -1  0  0  -1  0  1  -1  1  0
                       0 -1  0   0 -1  1   1 -1  0       0  1  0   0  1 -1  -1  1  0
            tnons1     0.0000000  0.0000000  0.0000000     0.0000000 -0.0000000  0.0000000
                       0.0000000 -0.0000000  0.0000000     0.0000000 -0.0000000  0.0000000
            tnons2     0.0000000  0.0000000  0.0000000     0.0000000  0.0000000  0.0000000
                       0.0000000  0.0000000  0.0000000    -0.0000000  0.0000000  0.0000000
            tnons3     0.0000000  0.0000000  0.0000000     0.0000000 -0.0000000  0.0000000
                       0.0000000 -0.0000000  0.0000000     0.0000000  0.0000000  0.0000000
            tnons4     0.0000000  0.0000000  0.0000000    -0.0000000  0.0000000 -0.0000000
                      -0.0000000  0.0000000 -0.0000000     0.0000000  0.0000000 -0.0000000
                      -0.0000000  0.0000000 -0.0000000     0.0000000  0.0000000 -0.0000000
                       0.0000000  0.0000000 -0.0000000    -0.0000000  0.0000000  0.0000000
                      -0.0000000  0.0000000 -0.0000000     0.0000000 -0.0000000 -0.0000000
                      -0.0000000  0.0000000 -0.0000000     0.0000000 -0.0000000 -0.0000000
                       0.0000000 -0.0000000 -0.0000000    -0.0000000  0.0000000 -0.0000000
                       0.0000000 -0.0000000 -0.0000000    -0.0000000  0.0000000 -0.0000000
           toldfe      1.00000000E-08 Hartree
            typat1     1  1  2  4  2  4  4  4  3
            typat2     1  1  2  4  4  2  4  4  3
            typat3     1  1  4  2  4  2  4  4  3
            typat4     1  1  2  2  4  4  4  4  3
           useylm           1
              wtk1       0.00058    0.00231    0.00231    0.00231    0.00231    0.00231
                         0.00116    0.00231    0.00231    0.00463    0.00463    0.00463
                         0.00463    0.00463    0.00463    0.00463    0.00463    0.00463
                         0.00463    0.00231    0.00463    0.00231    0.00463    0.00463
                         0.00463    0.00463    0.00463    0.00463    0.00463    0.00463
                         0.00463    0.00231    0.00463    0.00463    0.00231    0.00463
                         0.00463    0.00463    0.00463    0.00463    0.00463    0.00463
                         0.00463    0.00231    0.00463    0.00463    0.00463    0.00231
                         0.00463    0.00463
              wtk2       0.00058    0.00231    0.00231    0.00231    0.00231    0.00231
                         0.00116    0.00231    0.00231    0.00463    0.00463    0.00463
                         0.00463    0.00463    0.00463    0.00463    0.00463    0.00463
                         0.00463    0.00231    0.00463    0.00231    0.00463    0.00463
                         0.00463    0.00463    0.00463    0.00463    0.00463    0.00463
                         0.00463    0.00231    0.00463    0.00463    0.00231    0.00463
                         0.00463    0.00463    0.00463    0.00463    0.00463    0.00463
                         0.00463    0.00231    0.00463    0.00463    0.00463    0.00231
                         0.00463    0.00463
              wtk3       0.00058    0.00231    0.00231    0.00231    0.00231    0.00231
                         0.00116    0.00231    0.00231    0.00463    0.00463    0.00463
                         0.00463    0.00463    0.00463    0.00463    0.00463    0.00463
                         0.00463    0.00231    0.00463    0.00231    0.00463    0.00463
                         0.00463    0.00463    0.00463    0.00463    0.00463    0.00463
                         0.00463    0.00231    0.00463    0.00463    0.00231    0.00463
                         0.00463    0.00463    0.00463    0.00463    0.00463    0.00463
                         0.00463    0.00231    0.00463    0.00463    0.00463    0.00231
                         0.00463    0.00463
              wtk4       0.00058    0.00463    0.00463    0.00463    0.00463    0.00463
                         0.00231    0.00116    0.00463    0.00463    0.00463    0.00463
                         0.00463    0.00463    0.00463    0.00463    0.00463    0.00231
                         0.00116    0.00463    0.00463    0.00463    0.00463    0.00463
                         0.00463    0.00463    0.00231    0.00116    0.00463    0.00463
                         0.00463    0.00463    0.00463    0.00231    0.00116    0.00463
                         0.00463    0.00463    0.00231    0.00116    0.00463    0.00231
                         0.00058    0.00231    0.00926    0.00926    0.00926    0.00926
                         0.00926    0.00926
                       outvars : Printing only first  50 k-points.
           xangst1     2.9354824125E+00  2.8540064980E+00  2.9014381081E+00
                       8.7724029332E+00  8.6085121103E+00  8.7383586287E+00
                       5.8155419793E+00  5.7312593041E+00  2.8864422782E+00
                       5.8845387039E+00  5.7312593041E+00  8.9458427671E+00
                       8.7873987631E+00  5.7312593041E+00  5.8582990620E+00
                       5.8557184710E+00  8.8277222857E+00  5.8181225701E+00
                       5.8557184711E+00  2.6347963225E+00  5.8181225702E+00
                       2.7279982742E+00  5.7312593041E+00  5.7893023374E+00
                       6.0564156844E-02  2.2709406363E-18 -6.0564156844E-02
           xangst2     2.8540068090E+00  2.9354823877E+00  2.9014383940E+00
                       8.6085121802E+00  8.7724031694E+00  8.7383591758E+00
                       5.7312594946E+00  5.8155421079E+00  2.8864426227E+00
                       5.7312594946E+00  5.8845394317E+00  8.9458428793E+00
                       8.8277226478E+00  5.8557186705E+00  5.8181228928E+00
                       5.7312594946E+00  8.7873989408E+00  5.8582994556E+00
                       5.7312594946E+00  2.7279986842E+00  5.7893021318E+00
                       2.6347963413E+00  5.8557186706E+00  5.8181228930E+00
                       2.5461377005E-19  6.0564191095E-02 -6.0564191095E-02
           xangst3     2.8772512466E+00  2.9008388847E+00  2.9008388847E+00
                       8.5852494448E+00  8.6684610781E+00  8.6684610781E+00
                       5.7312503457E+00  5.8152191490E+00  2.6586882835E+00
                       5.7312503457E+00  5.7462477282E+00  8.7181109176E+00
                       8.8277056777E+00  5.7864239352E+00  5.7864239352E+00
                       5.7312503457E+00  8.7181109176E+00  5.7462477282E+00
                       5.7312503457E+00  2.6586882835E+00  5.8152191490E+00
                       2.6347950138E+00  5.7864239353E+00  5.7864239353E+00
                      -1.9811946666E-35  6.0563635350E-02  6.0563635350E-02
           xangst4     2.8846835404E+00  2.8846835404E+00  2.8852637820E+00
                       8.6540506211E+00  8.6540506211E+00  8.6557913461E+00
                       5.7693670807E+00  5.7693670807E+00  2.9044457323E+00
                       5.7693670807E+00  5.7693670807E+00  8.6366093957E+00
                       8.9004214553E+00  5.7693670808E+00  5.7705275640E+00
                       5.7693670808E+00  8.9004214553E+00  5.7705275640E+00
                       5.7693670807E+00  2.6383127062E+00  5.7705275640E+00
                       2.6383127062E+00  5.7693670807E+00  5.7705275640E+00
                      -2.2121263481E-20 -3.8244105276E-20  6.3894944041E-21
            xcart1     5.5472578276E+00  5.3932906627E+00  5.4829234158E+00
                       1.6577439071E+01  1.6267730300E+01  1.6513104659E+01
                       1.0989781655E+01  1.0830510481E+01  5.4545854042E+00
                       1.1120166569E+01  1.0830510481E+01  1.6905192858E+01
                       1.6605777083E+01  1.0830510481E+01  1.1070580832E+01
                       1.1065704222E+01  1.6681977497E+01  1.0994658265E+01
                       1.1065704222E+01  4.9790434655E+00  1.0994658265E+01
                       5.1551696291E+00  1.0830510481E+01  1.0940195918E+01
                       1.1444966990E-01  4.2914558666E-18 -1.1444966990E-01
            xcart2     5.3932912503E+00  5.5472577807E+00  5.4829239562E+00
                       1.6267730432E+01  1.6577439517E+01  1.6513105693E+01
                       1.0830510841E+01  1.0989781898E+01  5.4545860551E+00
                       1.0830510841E+01  1.1120167944E+01  1.6905193070E+01
                       1.6681978182E+01  1.1065704598E+01  1.0994658875E+01
                       1.0830510841E+01  1.6605777419E+01  1.1070581576E+01
                       1.0830510841E+01  5.1551704040E+00  1.0940195530E+01
                       4.9790435010E+00  1.1065704599E+01  1.0994658875E+01
                       4.8115029506E-19  1.1444973463E-01 -1.1444973463E-01
            xcart3     5.4372168717E+00  5.4817910477E+00  5.4817910477E+00
                       1.6223770233E+01  1.6381017431E+01  1.6381017431E+01
                       1.0830493552E+01  1.0989171594E+01  5.0241927285E+00
                       1.0830493552E+01  1.0858834498E+01  1.6474842030E+01
                       1.6681946113E+01  1.0934756526E+01  1.0934756526E+01
                       1.0830493552E+01  1.6474842030E+01  1.0858834498E+01
                       1.0830493552E+01  5.0241927285E+00  1.0989171594E+01
                       4.9790409923E+00  1.0934756526E+01  1.0934756526E+01
                      -3.7439153357E-35  1.1444868442E-01  1.1444868442E-01
            xcart4     5.4512618713E+00  5.4512618713E+00  5.4523583691E+00
                       1.6353785614E+01  1.6353785614E+01  1.6357075107E+01
                       1.0902523743E+01  1.0902523743E+01  5.4886070020E+00
                       1.0902523743E+01  1.0902523743E+01  1.6320826475E+01
                       1.6819359018E+01  1.0902523743E+01  1.0904716738E+01
                       1.0902523743E+01  1.6819359018E+01  1.0904716738E+01
                       1.0902523743E+01  4.9856884676E+00  1.0904716738E+01
                       4.9856884676E+00  1.0902523743E+01  1.0904716738E+01
                      -4.1803129692E-20 -7.2270885170E-20  1.2074394551E-20
             xred1     2.4603464399E-01  2.5101401398E-01  2.5193732806E-01
                       7.4806267194E-01  7.4898598602E-01  7.5396535601E-01
                       2.4607279518E-01  2.4542596792E-01  7.5392720482E-01
                       7.6538816128E-01  7.7039433024E-01  2.3461183872E-01
                       2.4607279518E-01  7.5457403208E-01  7.5392720482E-01
                       7.6687886433E-01  2.2986190143E-01  7.7339733280E-01
                       2.2660266720E-01  7.7013809857E-01  2.3312113567E-01
                       7.6538816128E-01  2.2960566976E-01  2.3461183872E-01
                      -1.0500760390E-02 -1.6524964519E-19  1.0500760390E-02
             xred2     2.5101399512E-01  2.4603468957E-01  2.5193732019E-01
                       7.4898600488E-01  7.4806267981E-01  7.5396531043E-01
                       2.4542597510E-01  2.4607279502E-01  7.5392720498E-01
                       7.7039434536E-01  7.6538812764E-01  2.3461187236E-01
                       2.2986189544E-01  7.6687888077E-01  7.7339732836E-01
                       7.5457402490E-01  2.4607279502E-01  7.5392720498E-01
                       2.2960565464E-01  7.6538812764E-01  2.3461187236E-01
                       7.7013810456E-01  2.2660267164E-01  2.3312111923E-01
                       1.0455050580E-18 -1.0500767109E-02  1.0500767109E-02
             xred3     2.5193803614E-01  2.5101427028E-01  2.5101427028E-01
                       7.5396657670E-01  7.4898572972E-01  7.4898572972E-01
                       2.3461013468E-01  2.2960619582E-01  7.7039380418E-01
                       7.5392736910E-01  7.5457485687E-01  2.4542514313E-01
                       2.3312202406E-01  7.7013785345E-01  7.7013785345E-01
                       7.5392736910E-01  2.4542514313E-01  7.5457485687E-01
                       2.3461013468E-01  7.7039380418E-01  2.2960619582E-01
                       7.7339773096E-01  2.2986214655E-01  2.2986214655E-01
                       1.0500624576E-02 -1.1277902017E-19  1.1277902017E-19
             xred4     2.5000000000E-01  2.5000000000E-01  2.5000000000E-01
                       7.5000000000E-01  7.5000000000E-01  7.5000000000E-01
                       2.5166206210E-01  2.5166206210E-01  7.4833793790E-01
                       7.4833793790E-01  7.4833793790E-01  2.5166206210E-01
                       2.2864836552E-01  7.7135163448E-01  7.7135163448E-01
                       7.7135163448E-01  2.2864836552E-01  7.7135163448E-01
                       2.2864836552E-01  7.7135163448E-01  2.2864836552E-01
                       7.7135163448E-01  2.2864836552E-01  2.2864836552E-01
                      -8.4364820404E-22  1.9509116792E-21 -5.7851734225E-21
            znucl       55.00000   53.00000   40.00000   35.00000

- Timing analysis has been suppressed with timopt=0

 Suggested references for the acknowledgment of ABINIT usage.

 Calculation completed.
.Delivered   0 WARNINGs and   0 COMMENTs to log file.