.Version 9.2.2 of ABINIT

 ABINIT is a project of the Universite Catholique de Louvain,
 Corning Inc. and other collaborators, see ~abinit/doc/developers/contributors.txt .
 acknowledgments of the ABINIT effort.

.Starting date : Sat  8 Oct 2022.
- ( at 13h41 )

- input  file    -> Cs2TiI6.in
- output file    -> Cs2TiI6.out
- root for input  files -> Cs2TiI6i
- root for output files -> Cs2TiI6o

- inpspheads : Reading pseudopotential header in XML form from
-   ../../../Psps_for_tests/ATOMICDATA/Cs.GGA_PBE-JTH.xml
- inpspheads : Reading pseudopotential header in XML form from
-   ../../../Psps_for_tests/ATOMICDATA/I.GGA_PBE-JTH.xml
- inpspheads : Reading pseudopotential header in XML form from
-   ../../../Psps_for_tests/ATOMICDATA/Hf.GGA_PBE-JTH.xml
- inpspheads : Reading pseudopotential header in XML form from
-   ../../../Psps_for_tests/ATOMICDATA/Cl.GGA_PBE-JTH.xml

 Symmetries : space group I4 m m (#107); Bravais tI (body-center tetrag.)
     intxc =       0    ionmov =       0      iscf =      17    lmnmax =      18
     lnmax =       6     mgfft =      60  mpssoang =       3    mqgrid =    3694
     natom =       9  nloc_mem =       2    nspden =       1   nspinor =       1
    nsppol =       1      nsym =       8    n1xccc =       1    ntypat =       4
    occopt =       1   xclevel =       2
-    mband =          42        mffmem =           1         mkmem =          28
       mpw =        8736          nfft =      216000          nkpt =         163
Pmy_natom=         2
 PAW method is used; the additional fine FFT grid is defined by:
   mgfftf=        96    nfftf =    884736
  Rough estimation (10% accuracy) of disk space for files :

------------- Echo of variables that govern the present computation ------------
-
- outvars: echo of selected default values
-   iomode0 =  0 , fftalg0 =112 , wfoptalg0 = 10
-
- outvars: echo of global parameters not present in the input file
-  max_nthreads =    0
-
 -outvars: echo values of preprocessed input variables --------
            acell      1.5827843700E+01  1.6020280040E+01  1.5827843700E+01 Bohr
              amu      1.32905430E+02  1.26904470E+02  1.78490000E+02
                       3.54527000E+01
           diemac      1.20000000E+01
             ecut      1.60000000E+01 Hartree
-          fftalg         112
           istwfk        2    0    0    0    0    0    3    0    0    0
                         0    0    0    0    0    0    0    0    0    0
                         0    0    0    0    0    0    0    0    0    0
                         0    0    0    0    0    0    0    0    0    0
                         0    0    7    0    0    0    0    0    0    0
                       outvar_i_n : Printing only first  50 k-points.
              ixc     -101130
              kpt      0.00000000E+00  0.00000000E+00  0.00000000E+00
                       8.33333333E-02  0.00000000E+00  0.00000000E+00
                       1.66666667E-01  0.00000000E+00  0.00000000E+00
                       2.50000000E-01  0.00000000E+00  0.00000000E+00
                       3.33333333E-01  0.00000000E+00  0.00000000E+00
                       4.16666667E-01  0.00000000E+00  0.00000000E+00
                       5.00000000E-01  0.00000000E+00  0.00000000E+00
                       8.33333333E-02  8.33333333E-02  0.00000000E+00
                       1.66666667E-01  8.33333333E-02  0.00000000E+00
                       2.50000000E-01  8.33333333E-02  0.00000000E+00
                       3.33333333E-01  8.33333333E-02  0.00000000E+00
                       4.16666667E-01  8.33333333E-02  0.00000000E+00
                       5.00000000E-01  8.33333333E-02  0.00000000E+00
                      -4.16666667E-01  8.33333333E-02  0.00000000E+00
                      -3.33333333E-01  8.33333333E-02  0.00000000E+00
                      -2.50000000E-01  8.33333333E-02  0.00000000E+00
                      -1.66666667E-01  8.33333333E-02  0.00000000E+00
                      -8.33333333E-02  8.33333333E-02  0.00000000E+00
                       1.66666667E-01  1.66666667E-01  0.00000000E+00
                       2.50000000E-01  1.66666667E-01  0.00000000E+00
                       3.33333333E-01  1.66666667E-01  0.00000000E+00
                       4.16666667E-01  1.66666667E-01  0.00000000E+00
                       5.00000000E-01  1.66666667E-01  0.00000000E+00
                      -4.16666667E-01  1.66666667E-01  0.00000000E+00
                      -3.33333333E-01  1.66666667E-01  0.00000000E+00
                      -2.50000000E-01  1.66666667E-01  0.00000000E+00
                      -1.66666667E-01  1.66666667E-01  0.00000000E+00
                       2.50000000E-01  2.50000000E-01  0.00000000E+00
                       3.33333333E-01  2.50000000E-01  0.00000000E+00
                       4.16666667E-01  2.50000000E-01  0.00000000E+00
                       5.00000000E-01  2.50000000E-01  0.00000000E+00
                      -4.16666667E-01  2.50000000E-01  0.00000000E+00
                      -3.33333333E-01  2.50000000E-01  0.00000000E+00
                      -2.50000000E-01  2.50000000E-01  0.00000000E+00
                       3.33333333E-01  3.33333333E-01  0.00000000E+00
                       4.16666667E-01  3.33333333E-01  0.00000000E+00
                       5.00000000E-01  3.33333333E-01  0.00000000E+00
                      -4.16666667E-01  3.33333333E-01  0.00000000E+00
                      -3.33333333E-01  3.33333333E-01  0.00000000E+00
                       4.16666667E-01  4.16666667E-01  0.00000000E+00
                       5.00000000E-01  4.16666667E-01  0.00000000E+00
                      -4.16666667E-01  4.16666667E-01  0.00000000E+00
                       5.00000000E-01  5.00000000E-01  0.00000000E+00
                       8.33333333E-02  0.00000000E+00  8.33333333E-02
                       1.66666667E-01  0.00000000E+00  8.33333333E-02
                       2.50000000E-01  0.00000000E+00  8.33333333E-02
                       3.33333333E-01  0.00000000E+00  8.33333333E-02
                       4.16666667E-01  0.00000000E+00  8.33333333E-02
                       5.00000000E-01  0.00000000E+00  8.33333333E-02
                      -4.16666667E-01  0.00000000E+00  8.33333333E-02
                       outvar_i_n : Printing only first  50 k-points.
         kptrlatt       12    0    0      0   12    0      0    0   12
          kptrlen      1.89934124E+02
P           mkmem          28
            natom           9
            nband          42
            ngfft          60      60      60
          ngfftdg          96      96      96
             nkpt         163
            nstep        2500
             nsym           8
           ntypat           4
              occ      2.000000  2.000000  2.000000  2.000000  2.000000  2.000000
                       2.000000  2.000000  2.000000  2.000000  2.000000  2.000000
                       2.000000  2.000000  2.000000  2.000000  2.000000  2.000000
                       2.000000  2.000000  2.000000  2.000000  2.000000  2.000000
                       2.000000  2.000000  2.000000  2.000000  2.000000  2.000000
                       2.000000  2.000000  2.000000  2.000000  2.000000  2.000000
                       0.000000  0.000000  0.000000  0.000000  0.000000  0.000000
        pawecutdg      4.00000000E+01 Hartree
            prtwf           0
            rprim      0.0000000000E+00  6.9840389529E-01  7.1570384870E-01
                       7.0710678119E-01  0.0000000000E+00  7.0710678119E-01
                       7.1570384870E-01  6.9840389529E-01  0.0000000000E+00
          spgroup         107
           symrel      1  0  0   0  1  0   0  0  1       0  0  1   0  1  0   1  0  0
                       0 -1  1   0 -1  0   1 -1  0       1 -1  0   0 -1  0   0 -1  1
                       0 -1  1  -1  0  1   0  0  1       0  0  1  -1  0  1   0 -1  1
                       1  0  0   1  0 -1   1 -1  0       1 -1  0   1  0 -1   1  0  0
           toldfe      1.00000000E-08 Hartree
            typat      1  1  4  2  2  2  2  2  3
           useylm           1
              wtk        0.00058    0.00463    0.00463    0.00463    0.00463    0.00463
                         0.00231    0.00231    0.00926    0.00926    0.00926    0.00926
                         0.00926    0.00926    0.00926    0.00926    0.00926    0.00463
                         0.00231    0.00926    0.00926    0.00926    0.00926    0.00926
                         0.00926    0.00926    0.00463    0.00231    0.00926    0.00926
                         0.00926    0.00926    0.00926    0.00463    0.00231    0.00926
                         0.00926    0.00926    0.00463    0.00231    0.00926    0.00463
                         0.00116    0.00116    0.00463    0.00463    0.00463    0.00463
                         0.00463    0.00463
                       outvars : Printing only first  50 k-points.
           xangst      2.9972725824E+00  2.8988453003E+00  2.9972725824E+00
                       8.9918177473E+00  8.7484906546E+00  8.9918177473E+00
                       5.9945451648E+00  9.2113872251E+00  5.9945451648E+00
                       5.9945451648E+00  5.8221380866E+00  2.8745186128E+00
                       5.9945451649E+00  5.8221380866E+00  9.1145717169E+00
                       5.9945451649E+00  2.8053877254E+00  5.9945451649E+00
                       9.1145717169E+00  5.8221380866E+00  5.9945451649E+00
                       2.8745186128E+00  5.8221380866E+00  5.9945451648E+00
                       4.4691245480E-13 -7.3322505490E-02  4.4691245480E-13
            xcart      5.6640243264E+00  5.4780237191E+00  5.6640243264E+00
                       1.6992072979E+01  1.6532251413E+01  1.6992072979E+01
                       1.1328048653E+01  1.7406999159E+01  1.1328048653E+01
                       1.1328048653E+01  1.1002246492E+01  5.4320529422E+00
                       1.1328048653E+01  1.1002246492E+01  1.7224044363E+01
                       1.1328048653E+01  5.3014144976E+00  1.1328048653E+01
                       1.7224044363E+01  1.1002246492E+01  1.1328048653E+01
                       5.4320529422E+00  1.1002246492E+01  1.1328048653E+01
                       8.4454214495E-13 -1.3855945475E-01  8.4454214495E-13
             xred      2.4777957677E-01  2.5222042323E-01  2.4777957677E-01
                       7.4777957677E-01  7.5222042323E-01  7.4777957677E-01
                       7.8734578485E-01  2.1265421515E-01  7.8734578485E-01
                       2.3741000298E-01  2.4211238509E-01  7.5788761491E-01
                       7.5788761491E-01  7.6258999702E-01  2.3741000298E-01
                       2.3979126558E-01  7.6020873442E-01  2.3979126558E-01
                       2.3741000298E-01  7.6258999702E-01  7.5788761491E-01
                       7.5788761491E-01  2.4211238509E-01  2.3741000298E-01
                      -6.2672607525E-03  6.2672607525E-03 -6.2672607525E-03
            znucl       55.00000   53.00000   72.00000   17.00000

 chkinp: Checking input parameters for consistency.

== DATASET  1 ==================================================================
[...]
   0.00000   0.00000   0.00000   0.00000  -0.00049   0.00000   0.00000   0.00746   0.46587   0.00000   0.00000   0.00000 ...
   0.00000   0.00000   0.00000  -0.00049   0.00000   0.00000   0.00746   0.00000   0.00000   0.46587   0.00000   0.00000 ...
  -0.00068  -0.02909   0.00023   0.00000   0.00000   0.10516   0.00000   0.00000   0.00000   0.00000   1.33046   0.00000 ...
   0.00000   0.00000   0.00000   0.00000   0.00000   0.00000   0.00000   0.00000   0.00000   0.00000   0.00000   0.41010 ...
   ...  only 12  components have been written...

 ----iterations are completed or convergence reached----

 Mean square residual over all n,k,spin=   13.400E-07; max=  89.553E-05
 reduced coordinates (array xred) for    9 atoms
       0.247779576770      0.252220423230      0.247779576770
       0.747779576770      0.752220423230      0.747779576770
       0.787345784850      0.212654215150      0.787345784850
       0.237410002980      0.242112385090      0.757887614910
       0.757887614910      0.762589997020      0.237410002980
       0.239791265580      0.760208734420      0.239791265580
       0.237410002980      0.762589997020      0.757887614910
       0.757887614910      0.242112385090      0.237410002980
      -0.006267260752      0.006267260752     -0.006267260752
 rms dE/dt=  2.0711E-04; max dE/dt=  4.0515E-04; dE/dt below (all hartree)
    1       0.000215268718      0.000000000000      0.000215268718
    2       0.000215268718      0.000000000000      0.000215268718
    3       0.000405145201      0.000000000000      0.000405145201
    4      -0.000151054734     -0.000036943942     -0.000114110792
    5      -0.000077166850      0.000036943942     -0.000114110792
    6       0.000065191181      0.000000000000      0.000065191181
    7      -0.000114110792      0.000036943942     -0.000077166850
    8      -0.000114110792     -0.000036943942     -0.000151054734
    9      -0.000510364476      0.000000000000     -0.000510364476

 cartesian coordinates (angstrom) at end:
    1      2.99727258242492     2.89884530028282     2.99727258242492
    2      8.99181774727445     8.74849065457619     8.99181774727445
    3      5.99454516482904     9.21138722514055     5.99454516482904
    4      5.99454516483114     5.82213808662950     2.87451861284229
    5      5.99454516486825     5.82213808662950     9.11457171685710
    6      5.99454516486808     2.80538772540035     5.99454516486808
    7      9.11457171685710     5.82213808662950     5.99454516486825
    8      2.87451861284229     5.82213808662950     5.99454516483114
    9      0.00000000000045    -0.07332250549001     0.00000000000045

 cartesian forces (hartree/bohr) at end:
    1      0.00000000000000    -0.00002013661244    -0.00000000000000
    2     -0.00000000000000    -0.00002013661244     0.00000000000000
    3      0.00000000000000    -0.00003731343277    -0.00000000000000
    4     -0.00000000000000     0.00000966008793     0.00000326128030
    5      0.00000000000000     0.00000966008793    -0.00000326128030
    6     -0.00000000000000    -0.00000656012921     0.00000000000000
    7     -0.00000326128030     0.00000966008793     0.00000000000000
    8      0.00000326128030     0.00000966008793    -0.00000000000000
    9      0.00000000000000     0.00004550643515    -0.00000000000000
 frms,max,avg= 1.3239870E-05 4.5506435E-05   0.000E+00  6.627E-07  0.000E+00 h/b

 cartesian forces (eV/Angstrom) at end:
    1      0.00000000000000    -0.00103546615761    -0.00000000000000
    2     -0.00000000000000    -0.00103546615761     0.00000000000000
    3      0.00000000000000    -0.00191873369764    -0.00000000000000
    4     -0.00000000000000     0.00049674165202     0.00016770176160
    5      0.00000000000000     0.00049674165202    -0.00016770176160
    6     -0.00000000000000    -0.00033733537891     0.00000000000000
    7     -0.00016770176160     0.00049674165202     0.00000000000000
    8      0.00016770176160     0.00049674165202    -0.00000000000000
    9      0.00000000000000     0.00234003478369    -0.00000000000000
 frms,max,avg= 6.8082145E-04 2.3400348E-03   0.000E+00  3.408E-05  0.000E+00 e/A
 length scales= 15.827843700000 16.020280040000 15.827843700000 bohr
              =  8.375734147165  8.477567072397  8.375734147165 angstroms
 prteigrs : about to open file Cs2TiI6o_EIG
 Fermi (or HOMO) energy (hartree) =  -0.12480   Average Vxc (hartree)=  -0.27608
 Eigenvalues (hartree) for nkpt= 163  k points:
 kpt#   1, nband= 42, wtk=  0.00058, kpt=  0.0000  0.0000  0.0000 (reduced coord)
  -2.42478   -1.26867   -1.26828   -1.26828   -0.88128   -0.88119   -0.64979   -0.54924
  -0.53409   -0.53409   -0.53110   -0.52809   -0.39793   -0.39740   -0.39740   -0.39616
  -0.39616   -0.39612   -0.27076   -0.23001   -0.22797   -0.22797   -0.20469   -0.20469
  -0.20307   -0.19670   -0.19136   -0.16724   -0.16724   -0.15143   -0.14027   -0.14027
  -0.14019   -0.12531   -0.12480   -0.12480   -0.04144   -0.03368   -0.03368    0.02183
   0.03463    0.05043
 prteigrs : prtvol=0 or 1, do not print more k-points.

--- !EnergyTerms
iteration_state     : {dtset: 1, }
comment             : Components of total free energy in Hartree
kinetic             :  3.92159956396939E+01
hartree             :  3.97567418153685E+01
xc                  : -5.81459404594860E+01
Ewald energy        : -1.11549604109011E+02
psp_core            :  1.56363680591626E+01
local_psp           : -8.36724784007367E+01
spherical_terms     : -6.08941193663227E+00
total_energy        : -1.64848329391641E+02
total_energy_eV     : -4.48575116975567E+03
...

--- !EnergyTermsDC
iteration_state     : {dtset: 1, }
comment             : '"Double-counting" decomposition of free energy'
band_energy         : -3.39984807489105E+01
Ewald energy        : -1.11549604109011E+02
psp_core            :  1.56363680591626E+01
xc_dc               : -6.03342563920160E+01
spherical_terms     :  2.53977819223184E+01
total_energy_dc     : -1.64848191268457E+02
total_energy_dc_eV  : -4.48574741123267E+03
...

 Cartesian components of stress tensor (hartree/bohr^3)
  sigma(1 1)=  3.53571206E-06  sigma(3 2)=  3.36158898E-14
  sigma(2 2)=  3.60727996E-06  sigma(3 1)= -6.56052002E-14
  sigma(3 3)=  3.53571206E-06  sigma(2 1)=  3.36157788E-14

-Cartesian components of stress tensor (GPa)         [Pressure= -1.0473E-01 GPa]
- sigma(1 1)=  1.04024223E-01  sigma(3 2)=  9.89013458E-10
- sigma(2 2)=  1.06129823E-01  sigma(3 1)= -1.93017130E-09
- sigma(3 3)=  1.04024223E-01  sigma(2 1)=  9.89010191E-10

== END DATASET(S) ==============================================================

 -outvars: echo values of variables after computation  --------
            acell      1.5827843700E+01  1.6020280040E+01  1.5827843700E+01 Bohr
              amu      1.32905430E+02  1.26904470E+02  1.78490000E+02
                       3.54527000E+01
           diemac      1.20000000E+01
             ecut      1.60000000E+01 Hartree
           etotal     -1.6484819127E+02
            fcart      1.6011901895E-21 -2.0136612445E-05 -1.6637538392E-21
                      -9.2875705057E-23 -2.0136612445E-05  3.0312055303E-23
                       8.8978472055E-22 -3.7313432766E-05 -9.5234837030E-22
                      -1.9400165586E-17  9.6600879308E-06  3.2612802986E-06
                       1.9397929715E-17  9.6600879307E-06 -3.2612802986E-06
                      -4.0869774439E-22 -6.5601292123E-06  3.4613409464E-22
                      -3.2612802986E-06  9.6600879307E-06  1.9398587692E-17
                       3.2612802986E-06  9.6600879308E-06 -1.9397922166E-17
                       2.6766051148E-24  4.5506435145E-05 -6.5240254870E-23
-          fftalg         112
           istwfk        2    0    0    0    0    0    3    0    0    0
                         0    0    0    0    0    0    0    0    0    0
                         0    0    0    0    0    0    0    0    0    0
                         0    0    0    0    0    0    0    0    0    0
                         0    0    7    0    0    0    0    0    0    0
                       outvar_i_n : Printing only first  50 k-points.
              ixc     -101130
              kpt      0.00000000E+00  0.00000000E+00  0.00000000E+00
                       8.33333333E-02  0.00000000E+00  0.00000000E+00
                       1.66666667E-01  0.00000000E+00  0.00000000E+00
                       2.50000000E-01  0.00000000E+00  0.00000000E+00
                       3.33333333E-01  0.00000000E+00  0.00000000E+00
                       4.16666667E-01  0.00000000E+00  0.00000000E+00
                       5.00000000E-01  0.00000000E+00  0.00000000E+00
                       8.33333333E-02  8.33333333E-02  0.00000000E+00
                       1.66666667E-01  8.33333333E-02  0.00000000E+00
                       2.50000000E-01  8.33333333E-02  0.00000000E+00
                       3.33333333E-01  8.33333333E-02  0.00000000E+00
                       4.16666667E-01  8.33333333E-02  0.00000000E+00
                       5.00000000E-01  8.33333333E-02  0.00000000E+00
                      -4.16666667E-01  8.33333333E-02  0.00000000E+00
                      -3.33333333E-01  8.33333333E-02  0.00000000E+00
                      -2.50000000E-01  8.33333333E-02  0.00000000E+00
                      -1.66666667E-01  8.33333333E-02  0.00000000E+00
                      -8.33333333E-02  8.33333333E-02  0.00000000E+00
                       1.66666667E-01  1.66666667E-01  0.00000000E+00
                       2.50000000E-01  1.66666667E-01  0.00000000E+00
                       3.33333333E-01  1.66666667E-01  0.00000000E+00
                       4.16666667E-01  1.66666667E-01  0.00000000E+00
                       5.00000000E-01  1.66666667E-01  0.00000000E+00
                      -4.16666667E-01  1.66666667E-01  0.00000000E+00
                      -3.33333333E-01  1.66666667E-01  0.00000000E+00
                      -2.50000000E-01  1.66666667E-01  0.00000000E+00
                      -1.66666667E-01  1.66666667E-01  0.00000000E+00
                       2.50000000E-01  2.50000000E-01  0.00000000E+00
                       3.33333333E-01  2.50000000E-01  0.00000000E+00
                       4.16666667E-01  2.50000000E-01  0.00000000E+00
                       5.00000000E-01  2.50000000E-01  0.00000000E+00
                      -4.16666667E-01  2.50000000E-01  0.00000000E+00
                      -3.33333333E-01  2.50000000E-01  0.00000000E+00
                      -2.50000000E-01  2.50000000E-01  0.00000000E+00
                       3.33333333E-01  3.33333333E-01  0.00000000E+00
                       4.16666667E-01  3.33333333E-01  0.00000000E+00
                       5.00000000E-01  3.33333333E-01  0.00000000E+00
                      -4.16666667E-01  3.33333333E-01  0.00000000E+00
                      -3.33333333E-01  3.33333333E-01  0.00000000E+00
                       4.16666667E-01  4.16666667E-01  0.00000000E+00
                       5.00000000E-01  4.16666667E-01  0.00000000E+00
                      -4.16666667E-01  4.16666667E-01  0.00000000E+00
                       5.00000000E-01  5.00000000E-01  0.00000000E+00
                       8.33333333E-02  0.00000000E+00  8.33333333E-02
                       1.66666667E-01  0.00000000E+00  8.33333333E-02
                       2.50000000E-01  0.00000000E+00  8.33333333E-02
                       3.33333333E-01  0.00000000E+00  8.33333333E-02
                       4.16666667E-01  0.00000000E+00  8.33333333E-02
                       5.00000000E-01  0.00000000E+00  8.33333333E-02
                      -4.16666667E-01  0.00000000E+00  8.33333333E-02
                       outvar_i_n : Printing only first  50 k-points.
         kptrlatt       12    0    0      0   12    0      0    0   12
          kptrlen      1.89934124E+02
P           mkmem          28
            natom           9
            nband          42
            ngfft          60      60      60
          ngfftdg          96      96      96
             nkpt         163
            nstep        2500
             nsym           8
           ntypat           4
              occ      2.000000  2.000000  2.000000  2.000000  2.000000  2.000000
                       2.000000  2.000000  2.000000  2.000000  2.000000  2.000000
                       2.000000  2.000000  2.000000  2.000000  2.000000  2.000000
                       2.000000  2.000000  2.000000  2.000000  2.000000  2.000000
                       2.000000  2.000000  2.000000  2.000000  2.000000  2.000000
                       2.000000  2.000000  2.000000  2.000000  2.000000  2.000000
                       0.000000  0.000000  0.000000  0.000000  0.000000  0.000000
        pawecutdg      4.00000000E+01 Hartree
            prtwf           0
            rprim      0.0000000000E+00  6.9840389529E-01  7.1570384870E-01
                       7.0710678119E-01  0.0000000000E+00  7.0710678119E-01
                       7.1570384870E-01  6.9840389529E-01  0.0000000000E+00
          spgroup         107
           strten      3.5357120559E-06  3.6072799623E-06  3.5357120559E-06
                       3.3615889842E-14 -6.5605200175E-14  3.3615778783E-14
           symrel      1  0  0   0  1  0   0  0  1       0  0  1   0  1  0   1  0  0
                       0 -1  1   0 -1  0   1 -1  0       1 -1  0   0 -1  0   0 -1  1
                       0 -1  1  -1  0  1   0  0  1       0  0  1  -1  0  1   0 -1  1
                       1  0  0   1  0 -1   1 -1  0       1 -1  0   1  0 -1   1  0  0
           toldfe      1.00000000E-08 Hartree
            typat      1  1  4  2  2  2  2  2  3
           useylm           1
              wtk        0.00058    0.00463    0.00463    0.00463    0.00463    0.00463
                         0.00231    0.00231    0.00926    0.00926    0.00926    0.00926
                         0.00926    0.00926    0.00926    0.00926    0.00926    0.00463
                         0.00231    0.00926    0.00926    0.00926    0.00926    0.00926
                         0.00926    0.00926    0.00463    0.00231    0.00926    0.00926
                         0.00926    0.00926    0.00926    0.00463    0.00231    0.00926
                         0.00926    0.00926    0.00463    0.00231    0.00926    0.00463
                         0.00116    0.00116    0.00463    0.00463    0.00463    0.00463
                         0.00463    0.00463
                       outvars : Printing only first  50 k-points.
           xangst      2.9972725824E+00  2.8988453003E+00  2.9972725824E+00
                       8.9918177473E+00  8.7484906546E+00  8.9918177473E+00
                       5.9945451648E+00  9.2113872251E+00  5.9945451648E+00
                       5.9945451648E+00  5.8221380866E+00  2.8745186128E+00
                       5.9945451649E+00  5.8221380866E+00  9.1145717169E+00
                       5.9945451649E+00  2.8053877254E+00  5.9945451649E+00
                       9.1145717169E+00  5.8221380866E+00  5.9945451649E+00
                       2.8745186128E+00  5.8221380866E+00  5.9945451648E+00
                       4.4691245480E-13 -7.3322505490E-02  4.4691245480E-13
            xcart      5.6640243264E+00  5.4780237191E+00  5.6640243264E+00
                       1.6992072979E+01  1.6532251413E+01  1.6992072979E+01
                       1.1328048653E+01  1.7406999159E+01  1.1328048653E+01
                       1.1328048653E+01  1.1002246492E+01  5.4320529422E+00
                       1.1328048653E+01  1.1002246492E+01  1.7224044363E+01
                       1.1328048653E+01  5.3014144976E+00  1.1328048653E+01
                       1.7224044363E+01  1.1002246492E+01  1.1328048653E+01
                       5.4320529422E+00  1.1002246492E+01  1.1328048653E+01
                       8.4454214495E-13 -1.3855945475E-01  8.4454214495E-13
             xred      2.4777957677E-01  2.5222042323E-01  2.4777957677E-01
                       7.4777957677E-01  7.5222042323E-01  7.4777957677E-01
                       7.8734578485E-01  2.1265421515E-01  7.8734578485E-01
                       2.3741000298E-01  2.4211238509E-01  7.5788761491E-01
                       7.5788761491E-01  7.6258999702E-01  2.3741000298E-01
                       2.3979126558E-01  7.6020873442E-01  2.3979126558E-01
                       2.3741000298E-01  7.6258999702E-01  7.5788761491E-01
                       7.5788761491E-01  2.4211238509E-01  2.3741000298E-01
                      -6.2672607525E-03  6.2672607525E-03 -6.2672607525E-03
            znucl       55.00000   53.00000   72.00000   17.00000

- Timing analysis has been suppressed with timopt=0

 Suggested references for the acknowledgment of ABINIT usage.

 Calculation completed.
.Delivered   0 WARNINGs and   0 COMMENTs to log file.