.Version 9.2.2 of ABINIT

 ABINIT is a project of the Universite Catholique de Louvain,
 Corning Inc. and other collaborators, see ~abinit/doc/developers/contributors.txt .
 acknowledgments of the ABINIT effort.

.Starting date : Sun 27 Nov 2022.
- ( at 20h49 )

- input  file    -> Cs2TiI6.in
- output file    -> Cs2TiI6.out
- root for input  files -> Cs2TiI6i
- root for output files -> Cs2TiI6o

- inpspheads : Reading pseudopotential header in XML form from
-   ../../../Psps_for_tests/ATOMICDATA/Cs.GGA_PBE-JTH.xml
- inpspheads : Reading pseudopotential header in XML form from
-   ../../../Psps_for_tests/ATOMICDATA/I.GGA_PBE-JTH.xml
- inpspheads : Reading pseudopotential header in XML form from
-   ../../../Psps_for_tests/ATOMICDATA/Zr.GGA_PBE-JTH.xml
- inpspheads : Reading pseudopotential header in XML form from
-   ../../../Psps_for_tests/ATOMICDATA/Br.GGA_PBE-JTH.xml

 DATASET    1 : space group I4/m m m (#139); Bravais tI (body-center tetrag.)
     intxc =       0    ionmov =       0      iscf =      17    lmnmax =      18
     lnmax =       6     mgfft =      54  mpssoang =       3    mqgrid =    3315
     natom =       9  nloc_mem =       2    nspden =       1   nspinor =       1
    nsppol =       1      nsym =      16    n1xccc =       1    ntypat =       4
    occopt =       1   xclevel =       2
-    mband =          42        mffmem =           1         mkmem =          28
       mpw =        6291          nfft =      157464          nkpt =         163
Pmy_natom=         2
 PAW method is used; the additional fine FFT grid is defined by:
   mgfftf=        90    nfftf =    729000
  Rough estimation (10% accuracy) of disk space for files :

[...]

 DATASET   10 : space group I4/m m m (#139); Bravais tI (body-center tetrag.)
     intxc =       0    ionmov =       0      iscf =      17    lmnmax =      18
     lnmax =       6     mgfft =      54  mpssoang =       3    mqgrid =    3300
     natom =       9  nloc_mem =       2    nspden =       1   nspinor =       1
    nsppol =       1      nsym =      16    n1xccc =       1    ntypat =       4
    occopt =       1   xclevel =       2
-    mband =          42        mffmem =           1         mkmem =          28
       mpw =        6209          nfft =      157464          nkpt =         163
Pmy_natom=         2
 PAW method is used; the additional fine FFT grid is defined by:
   mgfftf=        90    nfftf =    729000
  Rough estimation (10% accuracy) of disk space for files :

------------- Echo of variables that govern the present computation ------------
-
- outvars: echo of selected default values
-   iomode0 =  0 , fftalg0 =112 , wfoptalg0 = 10
-
- outvars: echo of global parameters not present in the input file
-  max_nthreads =    0
-
 -outvars: echo values of preprocessed input variables --------
            acell1     1.4253373934E+01  1.4253373934E+01  1.4263964653E+01 Bohr
            acell2     1.4246217268E+01  1.4246217268E+01  1.4256999713E+01 Bohr
            acell3     1.4239288705E+01  1.4239288705E+01  1.4249576186E+01 Bohr
            acell4     1.4232176304E+01  1.4232176304E+01  1.4242522241E+01 Bohr
            acell5     1.4226321678E+01  1.4226321678E+01  1.4232942173E+01 Bohr
            acell6     1.4219712561E+01  1.4219712561E+01  1.4224878642E+01 Bohr
            acell7     1.4212778538E+01  1.4212778538E+01  1.4217466964E+01 Bohr
            acell8     1.4205778878E+01  1.4205778878E+01  1.4210186915E+01 Bohr
            acell9     1.4198747780E+01  1.4198747780E+01  1.4202969896E+01 Bohr
            acell10    1.4191706233E+01  1.4191706233E+01  1.4195773828E+01 Bohr
              amu      1.32905430E+02  1.26904470E+02  9.12240000E+01
                       7.99040000E+01
           diemac      1.20000000E+01
             ecut      1.60000000E+01 Hartree
-          fftalg         112
           istwfk        2    0    0    0    0    0    3    0    0    0
                         0    0    0    0    0    0    0    0    0    0
                         0    0    0    0    0    0    0    0    0    0
                         0    0    0    0    0    0    0    0    0    0
                         0    0    7    0    0    0    0    0    0    0
                       outvar_i_n : Printing only first  50 k-points.
              ixc     -101130
           jdtset        1    2    3    4    5    6    7    8    9   10
              kpt      0.00000000E+00  0.00000000E+00  0.00000000E+00
                       8.33333333E-02  0.00000000E+00  0.00000000E+00
                       1.66666667E-01  0.00000000E+00  0.00000000E+00
                       2.50000000E-01  0.00000000E+00  0.00000000E+00
                       3.33333333E-01  0.00000000E+00  0.00000000E+00
                       4.16666667E-01  0.00000000E+00  0.00000000E+00
                       5.00000000E-01  0.00000000E+00  0.00000000E+00
                       8.33333333E-02  8.33333333E-02  0.00000000E+00
                       1.66666667E-01  8.33333333E-02  0.00000000E+00
                       2.50000000E-01  8.33333333E-02  0.00000000E+00
                       3.33333333E-01  8.33333333E-02  0.00000000E+00
                       4.16666667E-01  8.33333333E-02  0.00000000E+00
                       5.00000000E-01  8.33333333E-02  0.00000000E+00
                      -4.16666667E-01  8.33333333E-02  0.00000000E+00
                      -3.33333333E-01  8.33333333E-02  0.00000000E+00
                      -2.50000000E-01  8.33333333E-02  0.00000000E+00
                      -1.66666667E-01  8.33333333E-02  0.00000000E+00
                      -8.33333333E-02  8.33333333E-02  0.00000000E+00
                       1.66666667E-01  1.66666667E-01  0.00000000E+00
                       2.50000000E-01  1.66666667E-01  0.00000000E+00
                       3.33333333E-01  1.66666667E-01  0.00000000E+00
                       4.16666667E-01  1.66666667E-01  0.00000000E+00
                       5.00000000E-01  1.66666667E-01  0.00000000E+00
                      -4.16666667E-01  1.66666667E-01  0.00000000E+00
                      -3.33333333E-01  1.66666667E-01  0.00000000E+00
                      -2.50000000E-01  1.66666667E-01  0.00000000E+00
                      -1.66666667E-01  1.66666667E-01  0.00000000E+00
                       2.50000000E-01  2.50000000E-01  0.00000000E+00
                       3.33333333E-01  2.50000000E-01  0.00000000E+00
                       4.16666667E-01  2.50000000E-01  0.00000000E+00
                       5.00000000E-01  2.50000000E-01  0.00000000E+00
                      -4.16666667E-01  2.50000000E-01  0.00000000E+00
                      -3.33333333E-01  2.50000000E-01  0.00000000E+00
                      -2.50000000E-01  2.50000000E-01  0.00000000E+00
                       3.33333333E-01  3.33333333E-01  0.00000000E+00
                       4.16666667E-01  3.33333333E-01  0.00000000E+00
                       5.00000000E-01  3.33333333E-01  0.00000000E+00
                      -4.16666667E-01  3.33333333E-01  0.00000000E+00
                      -3.33333333E-01  3.33333333E-01  0.00000000E+00
                       4.16666667E-01  4.16666667E-01  0.00000000E+00
                       5.00000000E-01  4.16666667E-01  0.00000000E+00
                      -4.16666667E-01  4.16666667E-01  0.00000000E+00
                       5.00000000E-01  5.00000000E-01  0.00000000E+00
                       8.33333333E-02  0.00000000E+00  8.33333333E-02
                       1.66666667E-01  0.00000000E+00  8.33333333E-02
                       2.50000000E-01  0.00000000E+00  8.33333333E-02
                       3.33333333E-01  0.00000000E+00  8.33333333E-02
                       4.16666667E-01  0.00000000E+00  8.33333333E-02
                       5.00000000E-01  0.00000000E+00  8.33333333E-02
                      -4.16666667E-01  0.00000000E+00  8.33333333E-02
                       outvar_i_n : Printing only first  50 k-points.
         kptrlatt       12    0    0      0   12    0      0    0   12
          kptrlen1     1.71040487E+02
          kptrlen2     1.70954607E+02
          kptrlen3     1.70871464E+02
          kptrlen4     1.70786116E+02
          kptrlen5     1.70715860E+02
          kptrlen6     1.70636551E+02
          kptrlen7     1.70553342E+02
          kptrlen8     1.70469347E+02
          kptrlen9     1.70384973E+02
          kptrlen10    1.70300475E+02
P           mkmem          28
            natom           9
            nband          42
           ndtset          10
            ngfft          54      54      54
          ngfftdg          90      90      90
             nkpt         163
            nstep        2500
             nsym          16
           ntypat           4
              occ      2.000000  2.000000  2.000000  2.000000  2.000000  2.000000
                       2.000000  2.000000  2.000000  2.000000  2.000000  2.000000
                       2.000000  2.000000  2.000000  2.000000  2.000000  2.000000
                       2.000000  2.000000  2.000000  2.000000  2.000000  2.000000
                       2.000000  2.000000  2.000000  2.000000  2.000000  2.000000
                       2.000000  2.000000  2.000000  2.000000  2.000000  2.000000
                       0.000000  0.000000  0.000000  0.000000  0.000000  0.000000
        pawecutdg      4.00000000E+01 Hartree
            prtwf           0
            rprim1     0.0000000000E+00  7.0763218451E-01  7.0658098718E-01
                       7.0763218451E-01  0.0000000000E+00  7.0658098718E-01
                       7.0710678119E-01  7.0710678119E-01  0.0000000000E+00
            rprim2     0.0000000000E+00  7.0764196464E-01  7.0657119237E-01
                       7.0764196464E-01  0.0000000000E+00  7.0657119237E-01
                       7.0710678119E-01  7.0710678119E-01  0.0000000000E+00
            rprim3     0.0000000000E+00  7.0761764573E-01  7.0659554729E-01
                       7.0761764573E-01  0.0000000000E+00  7.0659554729E-01
                       7.0710678119E-01  7.0710678119E-01  0.0000000000E+00
            rprim4     0.0000000000E+00  7.0762080535E-01  7.0659238309E-01
                       7.0762080535E-01  0.0000000000E+00  7.0659238309E-01
                       7.0710678119E-01  7.0710678119E-01  0.0000000000E+00
            rprim5     0.0000000000E+00  7.0743584709E-01  7.0677756207E-01
                       7.0743584709E-01  0.0000000000E+00  7.0677756207E-01
                       7.0710678119E-01  7.0710678119E-01  0.0000000000E+00
            rprim6     0.0000000000E+00  7.0736367608E-01  7.0684979293E-01
                       7.0736367608E-01  0.0000000000E+00  7.0684979293E-01
                       7.0710678119E-01  7.0710678119E-01  0.0000000000E+00
            rprim7     0.0000000000E+00  7.0734003733E-01  7.0687344807E-01
                       7.0734003733E-01  0.0000000000E+00  7.0687344807E-01
                       7.0710678119E-01  7.0710678119E-01  0.0000000000E+00
            rprim8     0.0000000000E+00  7.0732619567E-01  7.0688729860E-01
                       7.0732619567E-01  0.0000000000E+00  7.0688729860E-01
[...]
                      -1.8892734796E-20 -3.5649037900E-20 -7.0475408397E-22
           xangst7     2.6599799639E+00  2.6599799639E+00  2.6582253367E+00
                       7.9799398918E+00  7.9799398918E+00  7.9746760102E+00
                       5.3199599279E+00  5.3199599279E+00  2.8318924793E+00
                       5.3199599279E+00  5.3199599279E+00  7.8010088676E+00
                       8.0314800716E+00  5.3199599279E+00  5.3164506734E+00
                       5.3199599279E+00  8.0314800716E+00  5.3164506734E+00
                       5.3199599279E+00  2.6084397841E+00  5.3164506734E+00
                       2.6084397841E+00  5.3199599279E+00  5.3164506734E+00
                      -1.8855824658E-20 -3.6054405222E-20 -3.7196029527E-22
           xangst8     2.6586179222E+00  2.6586179222E+00  2.6569682455E+00
                       7.9758537666E+00  7.9758537666E+00  7.9709047365E+00
                       5.3172358443E+00  5.3172358443E+00  2.8312387115E+00
                       5.3172358445E+00  5.3172358445E+00  7.7966342705E+00
                       8.0264137526E+00  5.3172358443E+00  5.3139364910E+00
                       5.3172358443E+00  8.0264137526E+00  5.3139364910E+00
                       5.3172358445E+00  2.6080579363E+00  5.3139364910E+00
                       2.6080579363E+00  5.3172358445E+00  5.3139364910E+00
                      -1.8857323292E-20 -3.5424463539E-20 -8.5233579676E-22
           xangst9     2.6572676727E+00  2.6572676727E+00  2.6556875862E+00
                       7.9718030182E+00  7.9718030182E+00  7.9670627585E+00
                       5.3145353455E+00  5.3145353455E+00  2.8305945651E+00
                       5.3145353455E+00  5.3145353455E+00  7.7921557796E+00
                       8.0213354390E+00  5.3145353455E+00  5.3113751723E+00
                       5.3145353455E+00  8.0213354390E+00  5.3113751723E+00
                       5.3145353455E+00  2.6077352519E+00  5.3113751723E+00
                       2.6077352519E+00  5.3145353455E+00  5.3113751723E+00
                      -1.8863636754E-20 -3.5594132284E-20 -7.0376148705E-22
           xangst10    2.6559213432E+00  2.6559213432E+00  2.6543990927E+00
                       7.9677640295E+00  7.9677640295E+00  7.9631972780E+00
                       5.3118426863E+00  5.3118426863E+00  2.8299389508E+00
                       5.3118426864E+00  5.3118426864E+00  7.7876574199E+00
                       8.0162380450E+00  5.3118426863E+00  5.3087981853E+00
                       5.3118426863E+00  8.0162380450E+00  5.3087981853E+00
                       5.3118426864E+00  2.6074473277E+00  5.3087981853E+00
                       2.6074473277E+00  5.3118426864E+00  5.3087981853E+00
                      -1.8854079315E-20 -3.5576098183E-20 -7.0342003420E-22
            xcart1     5.0430730666E+00  5.0430730666E+00  5.0355815125E+00
                       1.5129219200E+01  1.5129219200E+01  1.5106744537E+01
                       1.0086146133E+01  1.0086146133E+01  5.3584180788E+00
                       1.0086146133E+01  1.0086146133E+01  1.4783907971E+01
                       1.5239261213E+01  1.0086146133E+01  1.0071163025E+01
                       1.0086146133E+01  1.5239261213E+01  1.0071163025E+01
                       1.0086146133E+01  4.9330310538E+00  1.0071163025E+01
                       4.9330310538E+00  1.0086146133E+01  1.0071163025E+01
                      -4.0003670578E-20 -6.2067995121E-20 -8.7435230501E-21
            xcart2     5.0406105882E+00  5.0406105882E+00  5.0329833609E+00
                       1.5121831765E+01  1.5121831765E+01  1.5098950083E+01
                       1.0081221176E+01  1.0081221176E+01  5.3571813957E+00
                       1.0081221176E+01  1.0081221176E+01  1.4774752048E+01
                       1.5230191816E+01  1.0081221176E+01  1.0065966722E+01
                       1.0081221176E+01  1.5230191816E+01  1.0065966722E+01
                       1.0081221176E+01  4.9322505367E+00  1.0065966722E+01
                       4.9322505367E+00  1.0081221176E+01  1.0065966722E+01
                      -3.4107217585E-20 -6.7890959988E-20 -1.3000618661E-21
            xcart3     5.0379859751E+00  5.0379859751E+00  5.0307089978E+00
                       1.5113957925E+01  1.5113957925E+01  1.5092126993E+01
                       1.0075971950E+01  1.0075971950E+01  5.3560822850E+00
                       1.0075971950E+01  1.0075971950E+01  1.4766753706E+01
                       1.5220209350E+01  1.0075971950E+01  1.0061417996E+01
                       1.0075971950E+01  1.5220209350E+01  1.0061417996E+01
                       1.0075971950E+01  4.9317345500E+00  1.0061417996E+01
                       4.9317345500E+00  1.0075971950E+01  1.0061417996E+01
                      -3.7328584341E-20 -6.6531925559E-20 -2.4535918013E-21
            xcart4     5.0354920290E+00  5.0354920290E+00  5.0281736856E+00
                       1.5106476087E+01  1.5106476087E+01  1.5084521057E+01
                       1.0070984058E+01  1.0070984058E+01  5.3548526181E+00
                       1.0070984058E+01  1.0070984058E+01  1.4757842124E+01
                       1.5210817645E+01  1.0070984058E+01  1.0056347371E+01
                       1.0070984058E+01  1.5210817645E+01  1.0056347371E+01
                       1.0070984058E+01  4.9311504711E+00  1.0056347371E+01
                       4.9311504711E+00  1.0070984058E+01  1.0056347371E+01
                      -3.2965056051E-20 -7.1102055171E-20  1.3905928106E-21
            xcart5     5.0321049635E+00  5.0321049635E+00  5.0274224764E+00
                       1.5096314891E+01  1.5096314891E+01  1.5082267429E+01
                       1.0064209927E+01  1.0064209927E+01  5.3539349467E+00
                       1.0064209927E+01  1.0064209927E+01  1.4755754959E+01
                       1.5197917693E+01  1.0064209927E+01  1.0054844953E+01
                       1.0064209927E+01  1.5197917693E+01  1.0054844953E+01
                       1.0064209927E+01  4.9305021615E+00  1.0054844953E+01
                       4.9305021615E+00  1.0064209927E+01  1.0054844953E+01
                      -3.5845865606E-20 -6.7282697484E-20 -1.3812652594E-21
            xcart6     5.0292540748E+00  5.0292540748E+00  5.0256004396E+00
                       1.5087762224E+01  1.5087762224E+01  1.5076801319E+01
                       1.0058508150E+01  1.0058508150E+01  5.3527900147E+00
                       1.0058508150E+01  1.0058508150E+01  1.4749611744E+01
                       1.5187112530E+01  1.0058508150E+01  1.0051200879E+01
                       1.0058508150E+01  1.5187112530E+01  1.0051200879E+01
                       1.0058508150E+01  4.9299037698E+00  1.0051200879E+01
                       4.9299037698E+00  1.0058508150E+01  1.0051200879E+01
                      -3.5702094665E-20 -6.7366918531E-20 -1.3317922097E-21
            xcart7     5.0266336508E+00  5.0266336508E+00  5.0233178859E+00
                       1.5079900952E+01  1.5079900952E+01  1.5069953658E+01
                       1.0053267302E+01  1.0053267302E+01  5.3515012237E+00
                       1.0053267302E+01  1.0053267302E+01  1.4741770320E+01
                       1.5177297777E+01  1.0053267302E+01  1.0046635772E+01
                       1.0053267302E+01  1.5177297777E+01  1.0046635772E+01
                       1.0053267302E+01  4.9292368261E+00  1.0046635772E+01
                       4.9292368261E+00  1.0053267302E+01  1.0046635772E+01
                      -3.5632344614E-20 -6.8132951754E-20 -7.0290309037E-22
            xcart8     5.0240597650E+00  5.0240597650E+00  5.0209423278E+00
                       1.5072179295E+01  1.5072179295E+01  1.5062826983E+01
                       1.0048119530E+01  1.0048119530E+01  5.3502657816E+00
                       1.0048119530E+01  1.0048119530E+01  1.4733503530E+01
                       1.5167723822E+01  1.0048119530E+01  1.0041884656E+01
                       1.0048119530E+01  1.5167723822E+01  1.0041884656E+01
                       1.0048119530E+01  4.9285152383E+00  1.0041884656E+01
                       4.9285152383E+00  1.0048119530E+01  1.0041884656E+01
                      -3.5635176621E-20 -6.6942534493E-20 -1.6106812291E-21
            xcart9     5.0215081632E+00  5.0215081632E+00  5.0185222324E+00
                       1.5064524490E+01  1.5064524490E+01  1.5055566697E+01
                       1.0043016326E+01  1.0043016326E+01  5.3490485213E+00
                       1.0043016326E+01  1.0043016326E+01  1.4725040408E+01
                       1.5158127200E+01  1.0043016326E+01  1.0037044465E+01
                       1.0043016326E+01  1.5158127200E+01  1.0037044465E+01
                       1.0043016326E+01  4.9279054532E+00  1.0037044465E+01
                       4.9279054532E+00  1.0043016326E+01  1.0037044465E+01
                      -3.5647107335E-20 -6.7263161954E-20 -1.3299164734E-21
            xcart10    5.0189639691E+00  5.0189639691E+00  5.0160873325E+00
                       1.5056891907E+01  1.5056891907E+01  1.5048261998E+01
                       1.0037927938E+01  1.0037927938E+01  5.3478095898E+00
                       1.0037927938E+01  1.0037927938E+01  1.4716539740E+01
                       1.5148494521E+01  1.0037927938E+01  1.0032174665E+01
                       1.0037927938E+01  1.5148494521E+01  1.0032174665E+01
                       1.0037927938E+01  4.9273613552E+00  1.0032174665E+01
                       4.9273613552E+00  1.0037927938E+01  1.0032174665E+01
                      -3.5629046392E-20 -6.7229082442E-20 -1.3292712210E-21
             xred1     2.5000000000E-01  2.5000000000E-01  2.5000000000E-01
                       7.5000000000E-01  7.5000000000E-01  7.5000000000E-01
                       2.6602776986E-01  2.6602776986E-01  7.3397223014E-01
                       7.3397223014E-01  7.3397223014E-01  2.6602776986E-01
                       2.4454489300E-01  7.5545510700E-01  7.5545510700E-01
                       7.5545510700E-01  2.4454489300E-01  7.5545510700E-01
                       2.4454489300E-01  7.5545510700E-01  2.4454489300E-01
                       7.5545510700E-01  2.4454489300E-01  2.4454489300E-01
                      -1.5278806757E-21  6.5970656031E-22 -4.6259063409E-21
             xred2     2.5000000000E-01  2.5000000000E-01  2.5000000000E-01
                       7.5000000000E-01  7.5000000000E-01  7.5000000000E-01
                       2.6610367110E-01  2.6610367110E-01  7.3389632890E-01
                       7.3389632890E-01  7.3389632890E-01  2.6610367110E-01
                       2.4462564854E-01  7.5537435146E-01  7.5537435146E-01
                       7.5537435146E-01  2.4462564854E-01  7.5537435146E-01
                       2.4462564854E-01  7.5537435146E-01  2.4462564854E-01
                       7.5537435146E-01  2.4462564854E-01  2.4462564854E-01
                      -1.7401549789E-21  1.6110007802E-21 -4.9942434437E-21
             xred3     2.5000000000E-01  2.5000000000E-01  2.5000000000E-01
                       7.5000000000E-01  7.5000000000E-01  7.5000000000E-01
                       2.6616935542E-01  2.6616935542E-01  7.3383064458E-01
                       7.3383064458E-01  7.3383064458E-01  2.6616935542E-01
                       2.4472748507E-01  7.5527251493E-01  7.5527251493E-01
                       7.5527251493E-01  2.4472748507E-01  7.5527251493E-01
                       2.4472748507E-01  7.5527251493E-01  2.4472748507E-01
                       7.5527251493E-01  2.4472748507E-01  2.4472748507E-01
                      -1.5710882446E-21  1.3272268125E-21 -5.0319398194E-21
             xred4     2.5000000000E-01  2.5000000000E-01  2.5000000000E-01
                       7.5000000000E-01  7.5000000000E-01  7.5000000000E-01
                       2.6624242483E-01  2.6624242483E-01  7.3375757517E-01
                       7.3375757517E-01  7.3375757517E-01  2.6624242483E-01
                       2.4481969402E-01  7.5518030598E-01  7.5518030598E-01
                       7.5518030598E-01  2.4481969402E-01  7.5518030598E-01
                       2.4481969402E-01  7.5518030598E-01  2.4481969402E-01
                       7.5518030598E-01  2.4481969402E-01  2.4481969402E-01
                      -1.8242697106E-21  1.9625498196E-21 -5.2358204218E-21
             xred5     2.5000000000E-01  2.5000000000E-01  2.5000000000E-01
                       7.5000000000E-01  7.5000000000E-01  7.5000000000E-01
                       2.6623657410E-01  2.6623657410E-01  7.3376342590E-01
                       7.3376342590E-01  7.3376342590E-01  2.6623657410E-01
                       2.4495227133E-01  7.5504772867E-01  7.5504772867E-01
                       7.5504772867E-01  2.4495227133E-01  7.5504772867E-01
                       2.4495227133E-01  7.5504772867E-01  2.4495227133E-01
                       7.5504772867E-01  2.4495227133E-01  2.4495227133E-01
                      -1.6304997546E-21  1.4931266508E-21 -5.0548434539E-21
             xred6     2.5000000000E-01  2.5000000000E-01  2.5000000000E-01
                       7.5000000000E-01  7.5000000000E-01  7.5000000000E-01
                       2.6627614347E-01  2.6627614347E-01  7.3372385653E-01
                       7.3372385653E-01  7.3372385653E-01  2.6627614347E-01
                       2.4506137970E-01  7.5493862030E-01  7.5493862030E-01
                       7.5493862030E-01  2.4506137970E-01  7.5493862030E-01
                       2.4506137970E-01  7.5493862030E-01  2.4506137970E-01
                       7.5493862030E-01  2.4506137970E-01  2.4506137970E-01
                      -1.6402822269E-21  1.5077814217E-21 -5.0572237581E-21
             xred7     2.5000000000E-01  2.5000000000E-01  2.5000000000E-01
                       7.5000000000E-01  7.5000000000E-01  7.5000000000E-01
                       2.6633299670E-01  2.6633299670E-01  7.3366700330E-01
                       7.3366700330E-01  7.3366700330E-01  2.6633299670E-01
                       2.4515596165E-01  7.5484403835E-01  7.5484403835E-01
                       7.5484403835E-01  2.4515596165E-01  7.5484403835E-01
                       2.4515596165E-01  7.5484403835E-01  2.4515596165E-01
                       7.5484403835E-01  2.4515596165E-01  2.4515596165E-01
                      -1.6514021364E-21  1.5814381100E-21 -5.1257927506E-21
             xred8     2.5000000000E-01  2.5000000000E-01  2.5000000000E-01
                       7.5000000000E-01  7.5000000000E-01  7.5000000000E-01
                       2.6639749236E-01  2.6639749236E-01  7.3360250764E-01
                       7.3360250764E-01  7.3360250764E-01  2.6639749236E-01
                       2.4524565137E-01  7.5475434863E-01  7.5475434863E-01
                       7.5475434863E-01  2.4524565137E-01  7.5475434863E-01
                       2.4524565137E-01  7.5475434863E-01  2.4524565137E-01
                       7.5475434863E-01  2.4524565137E-01  2.4524565137E-01
                      -1.6380696434E-21  1.4776733349E-21 -5.0241256355E-21
             xred9     2.5000000000E-01  2.5000000000E-01  2.5000000000E-01
                       7.5000000000E-01  7.5000000000E-01  7.5000000000E-01
                       2.6646531955E-01  2.6646531955E-01  7.3353468045E-01
                       7.3353468045E-01  7.3353468045E-01  2.6646531955E-01
                       2.4533991049E-01  7.5466008951E-01  7.5466008951E-01
                       7.5466008951E-01  2.4533991049E-01  7.5466008951E-01
                       2.4533991049E-01  7.5466008951E-01  2.4533991049E-01
                       7.5466008951E-01  2.4533991049E-01  2.4533991049E-01
                      -1.6402822269E-21  1.5077814217E-21 -5.0572237581E-21
             xred10    2.5000000000E-01  2.5000000000E-01  2.5000000000E-01
                       7.5000000000E-01  7.5000000000E-01  7.5000000000E-01
                       2.6653291875E-01  2.6653291875E-01  7.3346708125E-01
                       7.3346708125E-01  7.3346708125E-01  2.6653291875E-01
                       2.4543717516E-01  7.5456282484E-01  7.5456282484E-01
                       7.5456282484E-01  2.4543717516E-01  7.5456282484E-01
                       2.4543717516E-01  7.5456282484E-01  2.4543717516E-01
                       7.5456282484E-01  2.4543717516E-01  2.4543717516E-01
                      -1.6402822269E-21  1.5077814217E-21 -5.0572237581E-21
            znucl       55.00000   53.00000   40.00000   35.00000

- Timing analysis has been suppressed with timopt=0

 Suggested references for the acknowledgment of ABINIT usage.

 Calculation completed.
.Delivered   0 WARNINGs and  20 COMMENTs to log file.