.Version 9.2.2 of ABINIT

 ABINIT is a project of the Universite Catholique de Louvain,
 Corning Inc. and other collaborators, see ~abinit/doc/developers/contributors.txt .
 acknowledgments of the ABINIT effort.

.Starting date : Mon 17 Jul 2023.
- ( at 00h50 )

- The starting date is more than 2 years after the initial release
- of this version of ABINIT, namely Nov 2020.
- Note that the use beyond 3 years after the release will not be supported.
- Action: please, switch to a more recent version of ABINIT.

- input  file    -> Cs2TiI6.in
- output file    -> Cs2TiI6.out
- root for input  files -> Cs2TiI6i
- root for output files -> Cs2TiI6o

 Symmetries : space group I4 m m (#107); Bravais tI (body-center tetrag.)
     intxc =       0    ionmov =       0      iscf =      17    lmnmax =       8
     lnmax =       8     mgfft =      64  mpssoang =       4    mqgrid =    3001
     natom =       9  nloc_mem =       1    nspden =       1   nspinor =       1
    nsppol =       1      nsym =       8    n1xccc =    2501    ntypat =       4
    occopt =       1   xclevel =       2
-    mband =          42        mffmem =           1         mkmem =           1
       mpw =       10052          nfft =      262144          nkpt =           4
  Rough estimation (10% accuracy) of disk space for files :

------------- Echo of variables that govern the present computation ------------
-
- outvars: echo of selected default values
-   iomode0 =  0 , fftalg0 =112 , wfoptalg0 =  0
-
- outvars: echo of global parameters not present in the input file
-  max_nthreads =    0
-
 -outvars: echo values of preprocessed input variables --------
            acell      1.4855053973E+01  1.5002678802E+01  1.4855053973E+01 Bohr
              amu      1.32905430E+02  1.26904470E+02  1.78490000E+02
                       7.99040000E+01
           diemac      1.20000000E+01
             ecut      2.00000000E+01 Hartree
-          fftalg         112
             iscf          17
           istwfk        1    1    1    1
              ixc        -428
              kpt      0.00000000E+00  0.00000000E+00  0.00000000E+00
                       5.00000000E-01  0.00000000E+00  0.00000000E+00
                       5.00000000E-01  5.00000000E-01  0.00000000E+00
                       5.00000000E-01  0.00000000E+00  5.00000000E-01
         kptns_hf      0.00000000E+00  0.00000000E+00  0.00000000E+00
                       5.00000000E-01  0.00000000E+00  0.00000000E+00
                       0.00000000E+00  5.00000000E-01  0.00000000E+00
                       5.00000000E-01  5.00000000E-01  0.00000000E+00
                       0.00000000E+00  0.00000000E+00  5.00000000E-01
                       5.00000000E-01  0.00000000E+00  5.00000000E-01
                       0.00000000E+00  5.00000000E-01  5.00000000E-01
                       5.00000000E-01  5.00000000E-01  5.00000000E-01
         kptrlatt        2    0    0      0    2    0      0    0    2
          kptrlen      2.97101079E+01
P           mkmem           1
            natom           9
            nband          42
          nbandhf          36
            ngfft          64      64      64
             nkpt           4
           nkpthf           8
-           npkpt           4
            nstep        2500
             nsym           8
           ntypat           4
              occ      2.000000  2.000000  2.000000  2.000000  2.000000  2.000000
                       2.000000  2.000000  2.000000  2.000000  2.000000  2.000000
                       2.000000  2.000000  2.000000  2.000000  2.000000  2.000000
                       2.000000  2.000000  2.000000  2.000000  2.000000  2.000000
                       2.000000  2.000000  2.000000  2.000000  2.000000  2.000000
                       2.000000  2.000000  2.000000  2.000000  2.000000  2.000000
                       0.000000  0.000000  0.000000  0.000000  0.000000  0.000000
            rprim      0.0000000000E+00  7.0000924098E-01  7.1413378476E-01
                       7.0710678119E-01  0.0000000000E+00  7.0710678119E-01
                       7.1413378476E-01  7.0000924098E-01  0.0000000000E+00
          spgroup         107
           symrel      1  0  0   0  1  0   0  0  1       0  0  1   0  1  0   1  0  0
                       0 -1  1   0 -1  0   1 -1  0       1 -1  0   0 -1  0   0 -1  1
                       0 -1  1  -1  0  1   0  0  1       0  0  1  -1  0  1   0 -1  1
                       1  0  0   1  0 -1   1 -1  0       1 -1  0   1  0 -1   1  0  0
           toldfe      1.00000000E-08 Hartree
            typat      1  1  4  2  2  2  2  2  3
          usefock           1
              wtk        0.12500    0.50000    0.25000    0.12500
           xangst      2.8068871283E+00  2.7415357666E+00  2.8068871283E+00
                       8.4206613848E+00  8.2442776060E+00  8.4206613848E+00
                       5.6137742565E+00  8.3521497965E+00  5.6137742565E+00
                       5.6137742565E+00  5.4988569068E+00  2.8296109535E+00
                       5.6137742566E+00  5.4988569068E+00  8.3979375596E+00
                       5.6137742566E+00  2.7587867028E+00  5.6137742566E+00
                       8.3979375596E+00  5.4988569068E+00  5.6137742566E+00
                       2.8296109535E+00  5.4988569068E+00  5.6137742565E+00
                       1.2054961785E-12 -7.0207567086E-02  1.2054961785E-12
            xcart      5.3042479584E+00  5.1807517824E+00  5.3042479584E+00
                       1.5912743875E+01  1.5579426839E+01  1.5912743875E+01
                       1.0608495917E+01  1.5783275736E+01  1.0608495917E+01
                       1.0608495917E+01  1.0391333598E+01  5.3471897648E+00
                       1.0608495917E+01  1.0391333598E+01  1.5869802069E+01
                       1.0608495917E+01  5.2133513274E+00  1.0608495917E+01
                       1.5869802069E+01  1.0391333598E+01  1.0608495917E+01
                       5.3471897648E+00  1.0391333598E+01  1.0608495917E+01
                       2.2780576316E-12 -1.3267307425E-01  2.2780576316E-12
             xred      2.4910634068E-01  2.5089365932E-01  2.4910634068E-01
                       7.4910634068E-01  7.5089365932E-01  7.4910634068E-01
                       7.5890801716E-01  2.4109198284E-01  7.5890801716E-01
                       2.5167093501E-01  2.5237693443E-01  7.4762306557E-01
                       7.4762306557E-01  7.4832906499E-01  2.5167093501E-01
                       2.5067382619E-01  7.4932617381E-01  2.5067382619E-01
                       2.5167093501E-01  7.4832906499E-01  7.4762306557E-01
                       7.4762306557E-01  2.5237693443E-01  2.5167093501E-01
                      -6.3793259011E-03  6.3793259011E-03 -6.3793259011E-03
            znucl       55.00000   53.00000   72.00000   35.00000

 chkinp: Checking input parameters for consistency.

== DATASET  1 ==================================================================
-   mpi_nproc: 4, omp_nthreads: -1 (-1 if OMP is not activated)

--- !DatasetInfo
iteration_state: {dtset: 1, }
dimensions: {natom: 9, nkpt: 4, mband: 42, nsppol: 1, nspinor: 1, nspden: 1, mpw: 10052, }
cutoff_energies: {ecut:  20.0, pawecutdg:  -1.0, }
electrons: {nelect:   7.20000000E+01, charge:   0.00000000E+00, occopt:   1.00000000E+00, tsmear:   1.00000000E-02, }
meta: {optdriver: 0, ionmov: 0, optcell: 0, iscf: 17, paral_kgb: 0, }
...

 Real(R)+Recip(G) space primitive vectors, cartesian coordinates (Bohr,Bohr^-1):
 R(1)=  0.0000000 10.3986751 10.6084959  G(1)= -0.0471320  0.0480830  0.0471320
 R(2)= 10.6084959  0.0000000 10.6084959  G(2)=  0.0471320 -0.0480830  0.0471320
 R(3)= 10.6084959 10.3986751  0.0000000  G(3)=  0.0471320  0.0480830 -0.0471320
 Unit cell volume ucvol=  2.3405376E+03 bohr^3
 Angles (23,13,12)=  5.96707160E+01  6.06585681E+01  5.96707160E+01 degrees

 getcut: wavevector=  0.0000  0.0000  0.0000  ngfft=  64  64  64
         ecut(hartree)=     20.000   => boxcut(ratio)=   2.11900

--- Pseudopotential description ------------------------------------------------
- pspini: atom type   1  psp file is ../../../Psps_for_tests/ONCVPSP-PBE-PDv0.4/Cs-sp.psp8
- pspatm: opening atomic psp file    ../../../Psps_for_tests/ONCVPSP-PBE-PDv0.4/Cs-sp.psp8
- Cs    ONCVPSP-3.2.3.1  r_core=   2.27353   1.85623   2.01788   1.90105
- 55.00000   9.00000    170703                znucl, zion, pspdat
    8   32    3    4       600   0.00000      pspcod,pspxc,lmax,lloc,mmax,r2well
    5.99000000000000    5.00000000000000    0.00000000000000   rchrg,fchrg,qchrg
     nproj     2     2     2     2
     extension_switch     1
  pspatm : epsatm=   22.81663475
         --- l  ekb(1:nproj) -->
             0    6.176104    0.756334
             1    6.263084    0.786397
             2    3.737592    0.906929
             3   -9.272327   -2.535859
 pspatm: atomic psp has been read  and splines computed

- pspini: atom type   2  psp file is ../../../Psps_for_tests/ONCVPSP-PBE-PDv0.4/I.psp8
- pspatm: opening atomic psp file    ../../../Psps_for_tests/ONCVPSP-PBE-PDv0.4/I.psp8
- I     ONCVPSP-3.2.3.1  r_core=   2.02042   2.17032   2.27639
- 53.00000   7.00000    170510                znucl, zion, pspdat
    8   32    2    4       600   0.00000      pspcod,pspxc,lmax,lloc,mmax,r2well
    5.99000000000000    4.00000000000000    0.00000000000000   rchrg,fchrg,qchrg
     nproj     2     2     2
     extension_switch     1
  pspatm : epsatm=   19.17050482
         --- l  ekb(1:nproj) -->
             0    5.955518    0.916455
             1    4.011347    0.742302
             2    4.134838    0.711910
 pspatm: atomic psp has been read  and splines computed

- pspini: atom type   3  psp file is ../../../Psps_for_tests/ONCVPSP-PBE-PDv0.4/Hf-sp.psp8
- pspatm: opening atomic psp file    ../../../Psps_for_tests/ONCVPSP-PBE-PDv0.4/Hf-sp.psp8
- Hf    ONCVPSP-3.2.3.1  r_core=   1.71613   1.71613   1.71613   2.42541
- 72.00000  12.00000    170501                znucl, zion, pspdat
    8   32    3    4       600   0.00000      pspcod,pspxc,lmax,lloc,mmax,r2well
    5.99000000000000    5.40000000000000    0.00000000000000   rchrg,fchrg,qchrg
     nproj     2     2     2     2
     extension_switch     1
  pspatm : epsatm=   21.94432712
         --- l  ekb(1:nproj) -->
             0    5.751490   -0.631383
             1   -2.986358    2.305386
             2    1.422276    0.146986
             3    8.827595    0.343102
 pspatm: atomic psp has been read  and splines computed

- pspini: atom type   4  psp file is ../../../Psps_for_tests/ONCVPSP-PBE-PDv0.4/Br.psp8
- pspatm: opening atomic psp file    ../../../Psps_for_tests/ONCVPSP-PBE-PDv0.4/Br.psp8
- Br    ONCVPSP-3.2.3.1  r_core=   1.81012   1.51356   1.92136
- 35.00000   7.00000    170504                znucl, zion, pspdat
    8   32    2    4       600   0.00000      pspcod,pspxc,lmax,lloc,mmax,r2well
    5.99000000000000    8.00000000000000    0.00000000000000   rchrg,fchrg,qchrg
     nproj     2     2     2
     extension_switch     1
  pspatm : epsatm=   11.64859511
         --- l  ekb(1:nproj) -->
             0    8.455549    0.878460
             1    5.292495    0.880691
             2    2.589748    0.385882
 pspatm: atomic psp has been read  and splines computed

   1.26056675E+04                                ecore*ucvol(ha*bohr**3)

_setup2: Arith. and geom. avg. npw (full set) are    9991.125    9991.083

--- !BeginCycle
iteration_state: {dtset: 1, }
solver: {iscf: 17, nstep: 2500, nline: 4, wfoptalg: 0, }
tolerances: {toldfe: 1.00E-08, }
...

     iter   Etot(hartree)      deltaE(h)  residm     nres2
 ETOT  1  -179.06777366777    -1.791E+02 1.651E-02 3.285E+00
 ETOT  2  -184.00546857444    -4.938E+00 1.403E-03 1.809E+00
 ETOT  3  -184.01523533920    -9.767E-03 9.715E-04 6.632E-01
 ETOT  4  -184.00277603290     1.246E-02 5.120E-04 6.723E-02
 ETOT  5  -184.00304356969    -2.675E-04 4.044E-04 1.888E-02
 ETOT  6  -184.00285953573     1.840E-04 5.067E-04 1.431E-03
 ETOT  7  -184.00290924682    -4.971E-05 3.743E-04 7.198E-05
 ETOT  8  -184.00291081501    -1.568E-06 1.961E-04 2.580E-05
 ETOT  9  -184.00291093591    -1.209E-07 3.181E-04 3.465E-06
 ETOT 10  -184.00291088766     4.825E-08 3.957E-04 3.203E-07
 ETOT 11  -184.00291089677    -9.107E-09 3.746E-04 1.454E-07
 ETOT 12  -184.00291089156     5.207E-09 1.874E-04 9.239E-10

 At SCF step   12, etot is converged :
  for the second time, diff in etot=  5.207E-09 < toldfe=  1.000E-08

 Cartesian components of stress tensor (hartree/bohr^3)
  sigma(1 1)= -7.09561504E-05  sigma(3 2)=  3.82926954E-14
  sigma(2 2)= -6.82342513E-05  sigma(3 1)= -7.50703511E-14
  sigma(3 3)= -7.09561504E-05  sigma(2 1)=  3.82927733E-14

--- !ResultsGS
iteration_state: {dtset: 1, }
comment   : Summary of ground state results
lattice_vectors:
- [  0.0000000,  10.3986751,  10.6084959, ]
- [ 10.6084959,   0.0000000,  10.6084959, ]
- [ 10.6084959,  10.3986751,   0.0000000, ]
lattice_lengths: [  14.85505,   15.00268,   14.85505, ]
lattice_angles: [ 59.671,  60.659,  59.671, ] # degrees, (23, 13, 12)
lattice_volume:   2.3405376E+03
convergence: {deltae:  5.207E-09, res2:  9.239E-10, residm:  1.874E-04, diffor: null, }
etotal    :  -1.84002911E+02
entropy   :   0.00000000E+00
fermie    :   7.29507471E-02
cartesian_stress_tensor: # hartree/bohr^3
- [ -7.09561504E-05,   3.82927733E-14,  -7.50703511E-14, ]
- [  3.82927733E-14,  -6.82342513E-05,   3.82926954E-14, ]
- [ -7.50703511E-14,   3.82926954E-14,  -7.09561504E-05, ]
pressure_GPa:   2.0609E+00
xred      :
- [  2.4911E-01,   2.5089E-01,   2.4911E-01, Cs]
- [  7.4911E-01,   7.5089E-01,   7.4911E-01, Cs]
- [  7.5891E-01,   2.4109E-01,   7.5891E-01, Br]
- [  2.5167E-01,   2.5238E-01,   7.4762E-01,  I]
- [  7.4762E-01,   7.4833E-01,   2.5167E-01,  I]
- [  2.5067E-01,   7.4933E-01,   2.5067E-01,  I]
- [  2.5167E-01,   7.4833E-01,   7.4762E-01,  I]
- [  7.4762E-01,   2.5238E-01,   2.5167E-01,  I]
- [ -6.3793E-03,   6.3793E-03,  -6.3793E-03, Hf]
cartesian_forces: # hartree/bohr
- [ -4.87203005E-20,  -1.34025932E-05,   1.29240502E-19, ]
- [ -4.74427841E-20,  -1.34025932E-05,   1.27962985E-19, ]
- [  1.30401452E-20,   2.33822172E-03,   6.74800558E-20, ]
- [  3.40923574E-14,   3.47944129E-05,  -2.02559475E-03, ]
- [ -3.40924633E-14,   3.47944130E-05,   2.02559475E-03, ]
- [ -1.10094498E-19,  -2.25131133E-03,   1.90614699E-19, ]
- [  2.02559475E-03,   3.47944130E-05,  -3.40924325E-14, ]
- [ -2.02559475E-03,   3.47944129E-05,   3.40923354E-14, ]
- [ -5.24735078E-20,  -1.99282859E-04,   1.32993709E-19, ]
force_length_stats: {min:   1.34025932E-05, max:   2.33822172E-03, mean:   1.43546615E-03, }
...

 Integrated electronic density in atomic spheres:
 Atom  Sphere_radius  Integrated_density
    1        2.00000          4.45684739
    2        2.00000          4.45684739
    3        2.00000          4.23710200
    4        2.00000          2.89543199
    5        2.00000          2.89543199
    6        2.00000          2.88537593
    7        2.00000          2.89543199
    8        2.00000          2.89543199
    9        2.00000          8.23500842

 ----iterations are completed or convergence reached----

 Mean square residual over all n,k,spin=   25.083E-07; max=  18.745E-05
 reduced coordinates (array xred) for    9 atoms
       0.249106340680      0.250893659320      0.249106340680
       0.749106340680      0.750893659320      0.749106340680
       0.758908017160      0.241091982840      0.758908017160
       0.251670935010      0.252376934430      0.747623065570
       0.747623065570      0.748329064990      0.251670935010
       0.250673826190      0.749326173810      0.250673826190
       0.251670935010      0.748329064990      0.747623065570
       0.747623065570      0.252376934430      0.251670935010
      -0.006379325901      0.006379325901     -0.006379325901
 rms dE/dt=  1.4885E-02; max dE/dt=  2.3405E-02; dE/dt below (all hartree)
    1       0.000133515412      0.000000000000      0.000133515412
    2       0.000133515412      0.000000000000      0.000133515412
    3      -0.024320261706      0.000000000000     -0.024320261706
    4       0.021120844050      0.021488513644     -0.000367669593
    5      -0.021856183237     -0.021488513644     -0.000367669593
    6       0.023404801165      0.000000000000      0.023404801165
    7      -0.000367669593     -0.021488513644     -0.021856183237
    8      -0.000367669593      0.021488513644      0.021120844050
    9       0.002066423897      0.000000000000      0.002066423897

 cartesian coordinates (angstrom) at end:
    1      2.80688712827726     2.74153576661805     2.80688712827726
    2      8.42066138483145     8.24427760597533     8.42066138483145
    3      5.61377425650526     8.35214979650001     5.61377425650526
    4      5.61377425650739     5.49885690681028     2.82961095353332
    5      5.61377425660111     5.49885690681028     8.39793755957518
    6      5.61377425660130     2.75878670281497     5.61377425660130
    7      8.39793755957518     5.49885690681028     5.61377425660111
    8      2.82961095353332     5.49885690681028     5.61377425650739
    9      0.00000000000121    -0.07020756708576     0.00000000000121

 cartesian forces (hartree/bohr) at end:
    1     -0.00000000000000    -0.00001340259317     0.00000000000000
    2     -0.00000000000000    -0.00001340259317     0.00000000000000
    3      0.00000000000000     0.00233822172292     0.00000000000000
    4      0.00000000000003     0.00003479441292    -0.00202559475089
    5     -0.00000000000003     0.00003479441299     0.00202559475089
    6     -0.00000000000000    -0.00225131132930     0.00000000000000
    7      0.00202559475089     0.00003479441299    -0.00000000000003
    8     -0.00202559475089     0.00003479441292     0.00000000000003
    9     -0.00000000000000    -0.00019928285911     0.00000000000000
 frms,max,avg= 9.9986546E-04 2.3382217E-03   0.000E+00  5.629E-07  0.000E+00 h/b

 cartesian forces (eV/Angstrom) at end:
    1     -0.00000000000000    -0.00068918899303     0.00000000000000
    2     -0.00000000000000    -0.00068918899303     0.00000000000000
    3      0.00000000000000     0.12023618519327     0.00000000000000
    4      0.00000000000175     0.00178920050012    -0.10416026128193
    5     -0.00000000000175     0.00178920050370     0.10416026128193
    6     -0.00000000000000    -0.11576707344058     0.00000000000000
    7      0.10416026128193     0.00178920050370    -0.00000000000175
    8     -0.10416026128193     0.00178920050012     0.00000000000175
    9     -0.00000000000000    -0.01024753577427     0.00000000000000
 frms,max,avg= 5.1415145E-02 1.2023619E-01   0.000E+00  2.895E-05  0.000E+00 e/A
 length scales= 14.855053973000 15.002678802000 14.855053973000 bohr
              =  7.860955994886  7.939075689815  7.860955994886 angstroms
 prteigrs : about to open file Cs2TiI6o_EIG
 Fermi (or HOMO) energy (hartree) =   0.07295   Average Vxc (hartree)=  -0.26500
 Eigenvalues (hartree) for nkpt=   4  k points:
 kpt#   1, nband= 42, wtk=  0.12500, kpt=  0.0000  0.0000  0.0000 (reduced coord)
  -2.36075   -1.14771   -1.14728   -1.14728   -0.73362   -0.73324   -0.49654   -0.40998
  -0.38557   -0.38557   -0.37912   -0.37797   -0.22129   -0.21984   -0.21984   -0.21631
  -0.21611   -0.21611   -0.11232   -0.04696   -0.04460   -0.04460   -0.03663   -0.03663
  -0.03063   -0.01955   -0.00646    0.02018    0.02018    0.03216    0.05583    0.05583
   0.05838    0.07173    0.07295    0.07295    0.17407    0.17926    0.17926    0.24292
   0.25318    0.26435
 prteigrs : prtvol=0 or 1, do not print more k-points.

--- !EnergyTerms
iteration_state     : {dtset: 1, }
comment             : Components of total free energy in Hartree
kinetic             :  4.48704393953004E+01
hartree             :  3.08320753859296E+01
xc                  : -4.83447157016707E+01
Ewald energy        : -1.24598605953220E+02
psp_core            :  5.38579996035677E+00
local_psp           : -1.08507918654395E+02
non_local_psp+x     :  1.63600018586797E+01
total_energy        : -1.84002923709020E+02
...

--- !EnergyTermsDC
iteration_state     : {dtset: 1, }
comment             : '"Double-counting" decomposition of free energy'
band_energy         : -2.20875193932342E+01
Ewald energy        : -1.24598605953220E+02
psp_core            :  5.38579996035677E+00
xc_dc               : -4.27025855054645E+01
total_energy_dc     : -1.84002910891562E+02
...

 Cartesian components of stress tensor (hartree/bohr^3)
  sigma(1 1)= -7.09561504E-05  sigma(3 2)=  3.82926954E-14
  sigma(2 2)= -6.82342513E-05  sigma(3 1)= -7.50703511E-14
  sigma(3 3)= -7.09561504E-05  sigma(2 1)=  3.82927733E-14

-Cartesian components of stress tensor (GPa)         [Pressure=  2.0609E+00 GPa]
- sigma(1 1)= -2.08760167E+00  sigma(3 2)=  1.12660981E-09
- sigma(2 2)= -2.00752064E+00  sigma(3 1)= -2.20864561E-09
- sigma(3 3)= -2.08760167E+00  sigma(2 1)=  1.12661210E-09

== END DATASET(S) ==============================================================

 -outvars: echo values of variables after computation  --------
            acell      1.4855053973E+01  1.5002678802E+01  1.4855053973E+01 Bohr
              amu      1.32905430E+02  1.26904470E+02  1.78490000E+02
                       7.99040000E+01
           diemac      1.20000000E+01
             ecut      2.00000000E+01 Hartree
           etotal     -1.8400291089E+02
            fcart     -4.8720300510E-20 -1.3402593172E-05  1.2924050156E-19
                      -4.7442784144E-20 -1.3402593172E-05  1.2796298519E-19
                       1.3040145228E-20  2.3382217229E-03  6.7480055823E-20
                       3.4092357385E-14  3.4794412924E-05 -2.0255947509E-03
                      -3.4092463333E-14  3.4794412994E-05  2.0255947509E-03
                      -1.1009449827E-19 -2.2513113293E-03  1.9061469932E-19
                       2.0255947509E-03  3.4794412994E-05 -3.4092432518E-14
                      -2.0255947509E-03  3.4794412924E-05  3.4092335416E-14
                      -5.2473507823E-20 -1.9928285911E-04  1.3299370887E-19
-          fftalg         112
             iscf          17
           istwfk        1    1    1    1
              ixc        -428
              kpt      0.00000000E+00  0.00000000E+00  0.00000000E+00
                       5.00000000E-01  0.00000000E+00  0.00000000E+00
                       5.00000000E-01  5.00000000E-01  0.00000000E+00
                       5.00000000E-01  0.00000000E+00  5.00000000E-01
         kptns_hf      0.00000000E+00  0.00000000E+00  0.00000000E+00
                       5.00000000E-01  0.00000000E+00  0.00000000E+00
                       0.00000000E+00  5.00000000E-01  0.00000000E+00
                       5.00000000E-01  5.00000000E-01  0.00000000E+00
                       0.00000000E+00  0.00000000E+00  5.00000000E-01
                       5.00000000E-01  0.00000000E+00  5.00000000E-01
                       0.00000000E+00  5.00000000E-01  5.00000000E-01
                       5.00000000E-01  5.00000000E-01  5.00000000E-01
         kptrlatt        2    0    0      0    2    0      0    0    2
          kptrlen      2.97101079E+01
P           mkmem           1
            natom           9
            nband          42
          nbandhf          36
            ngfft          64      64      64
             nkpt           4
           nkpthf           8
-           npkpt           4
            nstep        2500
             nsym           8
           ntypat           4
              occ      2.000000  2.000000  2.000000  2.000000  2.000000  2.000000
                       2.000000  2.000000  2.000000  2.000000  2.000000  2.000000
                       2.000000  2.000000  2.000000  2.000000  2.000000  2.000000
                       2.000000  2.000000  2.000000  2.000000  2.000000  2.000000
                       2.000000  2.000000  2.000000  2.000000  2.000000  2.000000
                       2.000000  2.000000  2.000000  2.000000  2.000000  2.000000
                       0.000000  0.000000  0.000000  0.000000  0.000000  0.000000
            rprim      0.0000000000E+00  7.0000924098E-01  7.1413378476E-01
                       7.0710678119E-01  0.0000000000E+00  7.0710678119E-01
                       7.1413378476E-01  7.0000924098E-01  0.0000000000E+00
          spgroup         107
           strten     -7.0956150394E-05 -6.8234251275E-05 -7.0956150394E-05
                       3.8292695441E-14 -7.5070351114E-14  3.8292773308E-14
           symrel      1  0  0   0  1  0   0  0  1       0  0  1   0  1  0   1  0  0
                       0 -1  1   0 -1  0   1 -1  0       1 -1  0   0 -1  0   0 -1  1
                       0 -1  1  -1  0  1   0  0  1       0  0  1  -1  0  1   0 -1  1
                       1  0  0   1  0 -1   1 -1  0       1 -1  0   1  0 -1   1  0  0
           toldfe      1.00000000E-08 Hartree
            typat      1  1  4  2  2  2  2  2  3
          usefock           1
              wtk        0.12500    0.50000    0.25000    0.12500
           xangst      2.8068871283E+00  2.7415357666E+00  2.8068871283E+00
                       8.4206613848E+00  8.2442776060E+00  8.4206613848E+00
                       5.6137742565E+00  8.3521497965E+00  5.6137742565E+00
                       5.6137742565E+00  5.4988569068E+00  2.8296109535E+00
                       5.6137742566E+00  5.4988569068E+00  8.3979375596E+00
                       5.6137742566E+00  2.7587867028E+00  5.6137742566E+00
                       8.3979375596E+00  5.4988569068E+00  5.6137742566E+00
                       2.8296109535E+00  5.4988569068E+00  5.6137742565E+00
                       1.2054961785E-12 -7.0207567086E-02  1.2054961785E-12
            xcart      5.3042479584E+00  5.1807517824E+00  5.3042479584E+00
                       1.5912743875E+01  1.5579426839E+01  1.5912743875E+01
                       1.0608495917E+01  1.5783275736E+01  1.0608495917E+01
                       1.0608495917E+01  1.0391333598E+01  5.3471897648E+00
                       1.0608495917E+01  1.0391333598E+01  1.5869802069E+01
                       1.0608495917E+01  5.2133513274E+00  1.0608495917E+01
                       1.5869802069E+01  1.0391333598E+01  1.0608495917E+01
                       5.3471897648E+00  1.0391333598E+01  1.0608495917E+01
                       2.2780576316E-12 -1.3267307425E-01  2.2780576316E-12
             xred      2.4910634068E-01  2.5089365932E-01  2.4910634068E-01
                       7.4910634068E-01  7.5089365932E-01  7.4910634068E-01
                       7.5890801716E-01  2.4109198284E-01  7.5890801716E-01
                       2.5167093501E-01  2.5237693443E-01  7.4762306557E-01
                       7.4762306557E-01  7.4832906499E-01  2.5167093501E-01
                       2.5067382619E-01  7.4932617381E-01  2.5067382619E-01
                       2.5167093501E-01  7.4832906499E-01  7.4762306557E-01
                       7.4762306557E-01  2.5237693443E-01  2.5167093501E-01
                      -6.3793259011E-03  6.3793259011E-03 -6.3793259011E-03
            znucl       55.00000   53.00000   72.00000   35.00000

- Timing analysis has been suppressed with timopt=0

 Suggested references for the acknowledgment of ABINIT usage.

 Calculation completed.
.Delivered   0 WARNINGs and   0 COMMENTs to log file.