.Version 9.2.2 of ABINIT

 ABINIT is a project of the Universite Catholique de Louvain,
 Corning Inc. and other collaborators, see ~abinit/doc/developers/contributors.txt .
 acknowledgments of the ABINIT effort.

.Starting date : Thu 15 Dec 2022.
- ( at 16h22 )

- The starting date is more than 2 years after the initial release
- of this version of ABINIT, namely Nov 2020.
- Note that the use beyond 3 years after the release will not be supported.
- Action: please, switch to a more recent version of ABINIT.

- input  file    -> Cs2TiI6.in
- output file    -> Cs2TiI6.out
- root for input  files -> Cs2TiI6i
- root for output files -> Cs2TiI6o

- inpspheads : Reading pseudopotential header in XML form from
-   ../../../Psps_for_tests/ATOMICDATA/Cs.GGA_PBE-JTH.xml
- inpspheads : Reading pseudopotential header in XML form from
-   ../../../Psps_for_tests/ATOMICDATA/Cl.GGA_PBE-JTH.xml
- inpspheads : Reading pseudopotential header in XML form from
-   ../../../Psps_for_tests/ATOMICDATA/Zr.GGA_PBE-JTH.xml

 DATASET    1 : space group Fm -3 m (#225); Bravais cF (face-center cubic)
     intxc =       0    ionmov =       0      iscf =      17    lmnmax =      18
     lnmax =       6     mgfft =      50  mpssoang =       3    mqgrid =    3114
     natom =       9  nloc_mem =       2    nspden =       1   nspinor =       1
    nsppol =       1      nsym =      48    n1xccc =       1    ntypat =       3
    occopt =       1   xclevel =       2
-    mband =          42        mffmem =           1         mkmem =          18
       mpw =        5214          nfft =      125000          nkpt =          72
Pmy_natom=         3
 PAW method is used; the additional fine FFT grid is defined by:
   mgfftf=        80    nfftf =    512000
  Rough estimation (10% accuracy) of disk space for files :

[...]

 DATASET   10 : space group Fm -3 m (#225); Bravais cF (face-center cubic)
     intxc =       0    ionmov =       0      iscf =      17    lmnmax =      18
     lnmax =       6     mgfft =      48  mpssoang =       3    mqgrid =    3086
     natom =       9  nloc_mem =       2    nspden =       1   nspinor =       1
    nsppol =       1      nsym =      48    n1xccc =       1    ntypat =       3
    occopt =       1   xclevel =       2
-    mband =          42        mffmem =           1         mkmem =          18
       mpw =        5092          nfft =      110592          nkpt =          72
Pmy_natom=         3
 PAW method is used; the additional fine FFT grid is defined by:
   mgfftf=        80    nfftf =    512000
  Rough estimation (10% accuracy) of disk space for files :

------------- Echo of variables that govern the present computation ------------
-
- outvars: echo of selected default values
-   iomode0 =  0 , fftalg0 =112 , wfoptalg0 = 10
-
- outvars: echo of global parameters not present in the input file
-  max_nthreads =    0
-
 -outvars: echo values of preprocessed input variables --------
            acell1     1.3393892289E+01  1.3393892289E+01  1.3393892289E+01 Bohr
            acell2     1.3380484990E+01  1.3380484990E+01  1.3380484990E+01 Bohr
            acell3     1.3367077690E+01  1.3367077690E+01  1.3367077690E+01 Bohr
            acell4     1.3353670391E+01  1.3353670391E+01  1.3353670391E+01 Bohr
            acell5     1.3340263091E+01  1.3340263091E+01  1.3340263091E+01 Bohr
            acell6     1.3326855791E+01  1.3326855791E+01  1.3326855791E+01 Bohr
            acell7     1.3313448492E+01  1.3313448492E+01  1.3313448492E+01 Bohr
            acell8     1.3300041192E+01  1.3300041192E+01  1.3300041192E+01 Bohr
            acell9     1.3286633893E+01  1.3286633893E+01  1.3286633893E+01 Bohr
            acell10    1.3273226593E+01  1.3273226593E+01  1.3273226593E+01 Bohr
              amu      1.32905430E+02  3.54527000E+01  9.12240000E+01
           diemac      1.20000000E+01
             ecut      1.60000000E+01 Hartree
-          fftalg         112
           istwfk        2    0    0    0    0    0    3    0    0    0
                         0    0    0    0    0    0    0    0    0    0
                         0    0    0    0    0    0    0    0    0    0
                         0    0    0    0    0    0    0    0    0    0
                         0    0    7    0    0    0    0    0    0    0
                       outvar_i_n : Printing only first  50 k-points.
              ixc     -101130
           jdtset        1    2    3    4    5    6    7    8    9   10
              kpt      0.00000000E+00  0.00000000E+00  0.00000000E+00
                       8.33333333E-02  0.00000000E+00  0.00000000E+00
                       1.66666667E-01  0.00000000E+00  0.00000000E+00
                       2.50000000E-01  0.00000000E+00  0.00000000E+00
                       3.33333333E-01  0.00000000E+00  0.00000000E+00
                       4.16666667E-01  0.00000000E+00  0.00000000E+00
                       5.00000000E-01  0.00000000E+00  0.00000000E+00
                       8.33333333E-02  8.33333333E-02  0.00000000E+00
                       1.66666667E-01  8.33333333E-02  0.00000000E+00
                       2.50000000E-01  8.33333333E-02  0.00000000E+00
                       3.33333333E-01  8.33333333E-02  0.00000000E+00
                       4.16666667E-01  8.33333333E-02  0.00000000E+00
                       5.00000000E-01  8.33333333E-02  0.00000000E+00
                      -4.16666667E-01  8.33333333E-02  0.00000000E+00
                      -3.33333333E-01  8.33333333E-02  0.00000000E+00
                      -2.50000000E-01  8.33333333E-02  0.00000000E+00
                      -1.66666667E-01  8.33333333E-02  0.00000000E+00
                      -8.33333333E-02  8.33333333E-02  0.00000000E+00
                       1.66666667E-01  1.66666667E-01  0.00000000E+00
                       2.50000000E-01  1.66666667E-01  0.00000000E+00
                       3.33333333E-01  1.66666667E-01  0.00000000E+00
                       4.16666667E-01  1.66666667E-01  0.00000000E+00
                       5.00000000E-01  1.66666667E-01  0.00000000E+00
                      -4.16666667E-01  1.66666667E-01  0.00000000E+00
                      -3.33333333E-01  1.66666667E-01  0.00000000E+00
                      -2.50000000E-01  1.66666667E-01  0.00000000E+00
                      -1.66666667E-01  1.66666667E-01  0.00000000E+00
                       2.50000000E-01  2.50000000E-01  0.00000000E+00
                       3.33333333E-01  2.50000000E-01  0.00000000E+00
                       4.16666667E-01  2.50000000E-01  0.00000000E+00
                       5.00000000E-01  2.50000000E-01  0.00000000E+00
                      -4.16666667E-01  2.50000000E-01  0.00000000E+00
                      -3.33333333E-01  2.50000000E-01  0.00000000E+00
                      -2.50000000E-01  2.50000000E-01  0.00000000E+00
                       3.33333333E-01  3.33333333E-01  0.00000000E+00
                       4.16666667E-01  3.33333333E-01  0.00000000E+00
                       5.00000000E-01  3.33333333E-01  0.00000000E+00
                      -4.16666667E-01  3.33333333E-01  0.00000000E+00
                      -3.33333333E-01  3.33333333E-01  0.00000000E+00
                       4.16666667E-01  4.16666667E-01  0.00000000E+00
                       5.00000000E-01  4.16666667E-01  0.00000000E+00
                      -4.16666667E-01  4.16666667E-01  0.00000000E+00
                       5.00000000E-01  5.00000000E-01  0.00000000E+00
                       2.50000000E-01  1.66666667E-01  8.33333333E-02
                       3.33333333E-01  1.66666667E-01  8.33333333E-02
                       4.16666667E-01  1.66666667E-01  8.33333333E-02
                       5.00000000E-01  1.66666667E-01  8.33333333E-02
                      -4.16666667E-01  1.66666667E-01  8.33333333E-02
                       3.33333333E-01  2.50000000E-01  8.33333333E-02
                       4.16666667E-01  2.50000000E-01  8.33333333E-02
                       outvar_i_n : Printing only first  50 k-points.
         kptrlatt       12    0    0      0   12    0      0    0   12
          kptrlen1     1.60726707E+02
          kptrlen2     1.60565820E+02
          kptrlen3     1.60404932E+02
          kptrlen4     1.60244045E+02
          kptrlen5     1.60083157E+02
          kptrlen6     1.59922269E+02
          kptrlen7     1.59761382E+02
          kptrlen8     1.59600494E+02
          kptrlen9     1.59439607E+02
          kptrlen10    1.59278719E+02
P           mkmem          18
            natom           9
            nband          42
           ndtset          10
            ngfft1         50      50      50
            ngfft2         50      50      50
            ngfft3         50      50      50
            ngfft4         50      50      50
            ngfft5         50      50      50
            ngfft6         48      48      48
            ngfft7         48      48      48
            ngfft8         48      48      48
            ngfft9         48      48      48
            ngfft10        48      48      48
          ngfftdg          80      80      80
             nkpt          72
            nstep        2500
             nsym          48
           ntypat           3
              occ      2.000000  2.000000  2.000000  2.000000  2.000000  2.000000
                       2.000000  2.000000  2.000000  2.000000  2.000000  2.000000
                       2.000000  2.000000  2.000000  2.000000  2.000000  2.000000
                       2.000000  2.000000  2.000000  2.000000  2.000000  2.000000
                       2.000000  2.000000  2.000000  2.000000  2.000000  2.000000
                       2.000000  2.000000  2.000000  2.000000  2.000000  2.000000
                       0.000000  0.000000  0.000000  0.000000  0.000000  0.000000
        pawecutdg      4.00000000E+01 Hartree
            prtwf           0
            rprim      0.0000000000E+00  7.0710678119E-01  7.0710678119E-01
                       7.0710678119E-01  0.0000000000E+00  7.0710678119E-01
                       7.0710678119E-01  7.0710678119E-01  0.0000000000E+00
          spgroup         225
           symrel      1  0  0   0  1  0   0  0  1      -1  0  0   0 -1  0   0  0 -1
                       0 -1  1   0 -1  0   1 -1  0       0  1 -1   0  1  0  -1  1  0
                      -1  0  0  -1  0  1  -1  1  0       1  0  0   1  0 -1   1 -1  0
                       0  1 -1   1  0 -1   0  0 -1       0 -1  1  -1  0  1   0  0  1
                      -1  0  0  -1  1  0  -1  0  1       1  0  0   1 -1  0   1  0 -1
                       0 -1  1   1 -1  0   0 -1  0       0  1 -1  -1  1  0   0  1  0
                       1  0  0   0  0  1   0  1  0      -1  0  0   0  0 -1   0 -1  0
                       0  1 -1   0  0 -1   1  0 -1       0 -1  1   0  0  1  -1  0  1
                      -1  0  1  -1  1  0  -1  0  0       1  0 -1   1 -1  0   1  0  0
                       0 -1  0   1 -1  0   0 -1  1       0  1  0  -1  1  0   0  1 -1
                       1  0 -1   0  0 -1   0  1 -1      -1  0  1   0  0  1   0 -1  1
                       0  1  0   0  0  1   1  0  0       0 -1  0   0  0 -1  -1  0  0
[...]
                      -1.3265391418E-18  4.1950502872E-18  8.1654151457E-19
           xangst7     2.4908449817E+00  2.4908449817E+00  2.4908449817E+00
                       7.4725349451E+00  7.4725349451E+00  7.4725349451E+00
                       4.9816899634E+00  4.9816899634E+00  2.4614162702E+00
                       4.9816899634E+00  4.9816899634E+00  7.5019636565E+00
                       7.5019636565E+00  4.9816899634E+00  4.9816899634E+00
                       4.9816899634E+00  7.5019636565E+00  4.9816899634E+00
                       4.9816899634E+00  2.4614162702E+00  4.9816899634E+00
                       2.4614162702E+00  4.9816899634E+00  4.9816899634E+00
                      -1.3884306235E-18  3.8751379019E-18  8.7704962542E-19
           xangst8     2.4883365778E+00  2.4883365778E+00  2.4883365778E+00
                       7.4650097334E+00  7.4650097334E+00  7.4650097334E+00
                       4.9766731556E+00  4.9766731556E+00  2.4608946349E+00
                       4.9766731556E+00  4.9766731556E+00  7.4924516763E+00
                       7.4924516763E+00  4.9766731556E+00  4.9766731556E+00
                       4.9766731556E+00  7.4924516763E+00  4.9766731556E+00
                       4.9766731556E+00  2.4608946349E+00  4.9766731556E+00
                       2.4608946349E+00  4.9766731556E+00  4.9766731556E+00
                      -1.2483771532E-18  4.3239600436E-18  7.3815920419E-19
           xangst9     2.4858281741E+00  2.4858281741E+00  2.4858281741E+00
                       7.4574845223E+00  7.4574845223E+00  7.4574845223E+00
                       4.9716563482E+00  4.9716563482E+00  2.4603636479E+00
                       4.9716563482E+00  4.9716563482E+00  7.4829490485E+00
                       7.4829490485E+00  4.9716563482E+00  4.9716563482E+00
                       4.9716563482E+00  7.4829490485E+00  4.9716563482E+00
                       4.9716563482E+00  2.4603636479E+00  4.9716563482E+00
                       2.4603636479E+00  4.9716563482E+00  4.9716563482E+00
                      -9.2986335015E-19  4.6631707350E-18  2.6706109954E-19
           xangst10    2.4833197702E+00  2.4833197702E+00  2.4833197702E+00
                       7.4499593107E+00  7.4499593107E+00  7.4499593107E+00
                       4.9666395404E+00  4.9666395404E+00  2.4598248457E+00
                       4.9666395404E+00  4.9666395404E+00  7.4734542352E+00
                       7.4734542352E+00  4.9666395404E+00  4.9666395404E+00
                       4.9666395404E+00  7.4734542352E+00  4.9666395404E+00
                       4.9666395404E+00  2.4598248457E+00  4.9666395404E+00
                       2.4598248457E+00  4.9666395404E+00  4.9666395404E+00
                      -9.5056500432E-19  4.3122941061E-18  9.5680792951E-19
            xcart1     4.7354560320E+00  4.7354560320E+00  4.7354560320E+00
                       1.4206368096E+01  1.4206368096E+01  1.4206368096E+01
                       9.4709120641E+00  9.4709120641E+00  4.6568343652E+00
                       9.4709120641E+00  9.4709120641E+00  1.4284989763E+01
                       1.4284989763E+01  9.4709120641E+00  9.4709120641E+00
                       9.4709120641E+00  1.4284989763E+01  9.4709120641E+00
                       9.4709120641E+00  4.6568343652E+00  9.4709120641E+00
                       4.6568343652E+00  9.4709120641E+00  9.4709120641E+00
                      -2.3753239936E-18  8.2273166556E-18  1.4032186224E-18
            xcart2     4.7307158360E+00  4.7307158360E+00  4.7307158360E+00
                       1.4192147508E+01  1.4192147508E+01  1.4192147508E+01
                       9.4614316720E+00  9.4614316720E+00  4.6559147567E+00
                       9.4614316720E+00  9.4614316720E+00  1.4266948587E+01
                       1.4266948587E+01  9.4614316720E+00  9.4614316720E+00
                       9.4614316720E+00  1.4266948587E+01  9.4614316720E+00
                       9.4614316720E+00  4.6559147567E+00  9.4614316720E+00
                       4.6559147567E+00  9.4614316720E+00  9.4614316720E+00
                      -2.2857127157E-18  8.4444313596E-18  1.3624052626E-18
            xcart3     4.7259756396E+00  4.7259756396E+00  4.7259756396E+00
                       1.4177926919E+01  1.4177926919E+01  1.4177926919E+01
                       9.4519512793E+00  9.4519512793E+00  4.6550834959E+00
                       9.4519512793E+00  9.4519512793E+00  1.4248819063E+01
                       1.4248819063E+01  9.4519512793E+00  9.4519512793E+00
                       9.4519512793E+00  1.4248819063E+01  9.4519512793E+00
                       9.4519512793E+00  4.6550834959E+00  9.4519512793E+00
                       4.6550834959E+00  9.4519512793E+00  9.4519512793E+00
                      -2.4744352243E-18  8.1946974465E-18  1.3909179919E-18
            xcart4     4.7212354436E+00  4.7212354436E+00  4.7212354436E+00
                       1.4163706331E+01  1.4163706331E+01  1.4163706331E+01
                       9.4424708873E+00  9.4424708873E+00  4.6542184334E+00
                       9.4424708873E+00  9.4424708873E+00  1.4230723341E+01
                       1.4230723341E+01  9.4424708873E+00  9.4424708873E+00
                       9.4424708873E+00  1.4230723341E+01  9.4424708873E+00
                       9.4424708873E+00  4.6542184334E+00  9.4424708873E+00
                       4.6542184334E+00  9.4424708873E+00  9.4424708873E+00
                      -2.3704977675E-18  8.2053451480E-18  1.3940588108E-18
            xcart5     4.7164952473E+00  4.7164952473E+00  4.7164952473E+00
                       1.4149485742E+01  1.4149485742E+01  1.4149485742E+01
                       9.4329904945E+00  9.4329904945E+00  4.6533207478E+00
                       9.4329904945E+00  9.4329904945E+00  1.4212660241E+01
                       1.4212660241E+01  9.4329904945E+00  9.4329904945E+00
                       9.4329904945E+00  1.4212660241E+01  9.4329904945E+00
                       9.4329904945E+00  4.6533207478E+00  9.4329904945E+00
                       4.6533207478E+00  9.4329904945E+00  9.4329904945E+00
                      -2.3332360708E-18  8.6003535840E-18  2.8376050967E-19
            xcart6     4.7117550509E+00  4.7117550509E+00  4.7117550509E+00
                       1.4135265153E+01  1.4135265153E+01  1.4135265153E+01
                       9.4235101018E+00  9.4235101018E+00  4.6523962578E+00
                       9.4235101018E+00  9.4235101018E+00  1.4194623946E+01
                       1.4194623946E+01  9.4235101018E+00  9.4235101018E+00
                       9.4235101018E+00  1.4194623946E+01  9.4235101018E+00
                       9.4235101018E+00  4.6523962578E+00  9.4235101018E+00
                       4.6523962578E+00  9.4235101018E+00  9.4235101018E+00
                      -2.5067956825E-18  7.9274961565E-18  1.5430398387E-18
            xcart7     4.7070148549E+00  4.7070148549E+00  4.7070148549E+00
                       1.4121044565E+01  1.4121044565E+01  1.4121044565E+01
                       9.4140297097E+00  9.4140297097E+00  4.6514026498E+00
                       9.4140297097E+00  9.4140297097E+00  1.4176656770E+01
                       1.4176656770E+01  9.4140297097E+00  9.4140297097E+00
                       9.4140297097E+00  1.4176656770E+01  9.4140297097E+00
                       9.4140297097E+00  4.6514026498E+00  9.4140297097E+00
                       4.6514026498E+00  9.4140297097E+00  9.4140297097E+00
                      -2.6237536330E-18  7.3229493618E-18  1.6573835970E-18
            xcart8     4.7022746585E+00  4.7022746585E+00  4.7022746585E+00
                       1.4106823975E+01  1.4106823975E+01  1.4106823975E+01
                       9.4045493170E+00  9.4045493170E+00  4.6504169018E+00
                       9.4045493170E+00  9.4045493170E+00  1.4158681732E+01
                       1.4158681732E+01  9.4045493170E+00  9.4045493170E+00
                       9.4045493170E+00  1.4158681732E+01  9.4045493170E+00
                       9.4045493170E+00  4.6504169018E+00  9.4045493170E+00
                       4.6504169018E+00  9.4045493170E+00  9.4045493170E+00
                      -2.3590909300E-18  8.1711002919E-18  1.3949187384E-18
            xcart9     4.6975344625E+00  4.6975344625E+00  4.6975344625E+00
                       1.4092603387E+01  1.4092603387E+01  1.4092603387E+01
                       9.3950689249E+00  9.3950689249E+00  4.6494134818E+00
                       9.3950689249E+00  9.3950689249E+00  1.4140724368E+01
                       1.4140724368E+01  9.3950689249E+00  9.3950689249E+00
                       9.3950689249E+00  1.4140724368E+01  9.3950689249E+00
                       9.3950689249E+00  4.6494134818E+00  9.3950689249E+00
                       4.6494134818E+00  9.3950689249E+00  9.3950689249E+00
                      -1.7571870728E-18  8.8121156001E-18  5.0467233887E-19
            xcart10    4.6927942661E+00  4.6927942661E+00  4.6927942661E+00
                       1.4078382798E+01  1.4078382798E+01  1.4078382798E+01
                       9.3855885322E+00  9.3855885322E+00  4.6483952932E+00
                       9.3855885322E+00  9.3855885322E+00  1.4122781771E+01
                       1.4122781771E+01  9.3855885322E+00  9.3855885322E+00
                       9.3855885322E+00  1.4122781771E+01  9.3855885322E+00
                       9.3855885322E+00  4.6483952932E+00  9.3855885322E+00
                       4.6483952932E+00  9.3855885322E+00  9.3855885322E+00
                      -1.7963075297E-18  8.1490548650E-18  1.8081049486E-18
             xred1     2.5000000000E-01  2.5000000000E-01  2.5000000000E-01
                       7.5000000000E-01  7.5000000000E-01  7.5000000000E-01
                       2.4584930858E-01  2.4584930858E-01  7.5415069142E-01
                       7.5415069142E-01  7.5415069142E-01  2.4584930858E-01
                       2.4584930858E-01  7.5415069142E-01  7.5415069142E-01
                       7.5415069142E-01  2.4584930858E-01  7.5415069142E-01
                       2.4584930858E-01  7.5415069142E-01  2.4584930858E-01
                       7.5415069142E-01  2.4584930858E-01  2.4584930858E-01
                       6.3382804055E-19 -4.8566716513E-19  2.3486513281E-19
             xred2     2.5000000000E-01  2.5000000000E-01  2.5000000000E-01
                       7.5000000000E-01  7.5000000000E-01  7.5000000000E-01
                       2.4604705282E-01  2.4604705282E-01  7.5395294718E-01
                       7.5395294718E-01  7.5395294718E-01  2.4604705282E-01
                       2.4604705282E-01  7.5395294718E-01  7.5395294718E-01
                       7.5395294718E-01  2.4604705282E-01  7.5395294718E-01
                       2.4604705282E-01  7.5395294718E-01  2.4604705282E-01
                       7.5395294718E-01  2.4604705282E-01  2.4604705282E-01
                       6.3904437283E-19 -4.9504869545E-19  2.5346657607E-19
             xred3     2.5000000000E-01  2.5000000000E-01  2.5000000000E-01
                       7.5000000000E-01  7.5000000000E-01  7.5000000000E-01
                       2.4624986727E-01  2.4624986727E-01  7.5375013273E-01
                       7.5375013273E-01  7.5375013273E-01  2.4624986727E-01
                       2.4624986727E-01  7.5375013273E-01  7.5375013273E-01
                       7.5375013273E-01  2.4624986727E-01  7.5375013273E-01
                       2.4624986727E-01  7.5375013273E-01  2.4624986727E-01
                       7.5375013273E-01  2.4624986727E-01  2.4624986727E-01
                       6.3796618848E-19 -4.9080948498E-19  2.2901854349E-19
             xred4     2.5000000000E-01  2.5000000000E-01  2.5000000000E-01
                       7.5000000000E-01  7.5000000000E-01  7.5000000000E-01
                       2.4645129908E-01  2.4645129908E-01  7.5354870092E-01
                       7.5354870092E-01  7.5354870092E-01  2.4645129908E-01
                       2.4645129908E-01  7.5354870092E-01  7.5354870092E-01
                       7.5354870092E-01  2.4645129908E-01  7.5354870092E-01
                       2.4645129908E-01  7.5354870092E-01  2.4645129908E-01
                       7.5354870092E-01  2.4645129908E-01  2.4645129908E-01
                       6.3383312849E-19 -4.8619605050E-19  2.3514970937E-19
             xred5     2.5000000000E-01  2.5000000000E-01  2.5000000000E-01
                       7.5000000000E-01  7.5000000000E-01  7.5000000000E-01
                       2.4665140660E-01  2.4665140660E-01  7.5334859340E-01
                       7.5334859340E-01  7.5334859340E-01  2.4665140660E-01
                       2.4665140660E-01  7.5334859340E-01  7.5334859340E-01
                       7.5334859340E-01  2.4665140660E-01  7.5334859340E-01
                       2.4665140660E-01  7.5334859340E-01  2.4665140660E-01
                       7.5334859340E-01  2.4665140660E-01  2.4665140660E-01
                       5.9458080505E-19 -5.6449909238E-19  3.1715059010E-19
             xred6     2.5000000000E-01  2.5000000000E-01  2.5000000000E-01
                       7.5000000000E-01  7.5000000000E-01  7.5000000000E-01
                       2.4685049454E-01  2.4685049454E-01  7.5314950546E-01
                       7.5314950546E-01  7.5314950546E-01  2.4685049454E-01
                       2.4685049454E-01  7.5314950546E-01  7.5314950546E-01
                       7.5314950546E-01  2.4685049454E-01  7.5314950546E-01
                       2.4685049454E-01  7.5314950546E-01  2.4685049454E-01
                       7.5314950546E-01  2.4685049454E-01  2.4685049454E-01
                       6.3550267089E-19 -4.7175903163E-19  2.0574396342E-19
             xred7     2.5000000000E-01  2.5000000000E-01  2.5000000000E-01
                       7.5000000000E-01  7.5000000000E-01  7.5000000000E-01
                       2.4704631243E-01  2.4704631243E-01  7.5295368757E-01
                       7.5295368757E-01  7.5295368757E-01  2.4704631243E-01
                       2.4704631243E-01  7.5295368757E-01  7.5295368757E-01
                       7.5295368757E-01  2.4704631243E-01  7.5295368757E-01
                       2.4704631243E-01  7.5295368757E-01  2.4704631243E-01
                       7.5295368757E-01  2.4704631243E-01  2.4704631243E-01
                       6.1631877897E-19 -4.4026414051E-19  1.6155738964E-19
             xred8     2.5000000000E-01  2.5000000000E-01  2.5000000000E-01
                       7.5000000000E-01  7.5000000000E-01  7.5000000000E-01
                       2.4724294302E-01  2.4724294302E-01  7.5275705698E-01
                       7.5275705698E-01  7.5275705698E-01  2.4724294302E-01
                       2.4724294302E-01  7.5275705698E-01  7.5275705698E-01
                       7.5275705698E-01  2.4724294302E-01  7.5275705698E-01
                       2.4724294302E-01  7.5275705698E-01  2.4724294302E-01
                       7.5275705698E-01  2.4724294302E-01  2.4724294302E-01
                       6.3400751904E-19 -4.8568369284E-19  2.3483797440E-19
             xred9     2.5000000000E-01  2.5000000000E-01  2.5000000000E-01
                       7.5000000000E-01  7.5000000000E-01  7.5000000000E-01
                       2.4743902993E-01  2.4743902993E-01  7.5256097007E-01
                       7.5256097007E-01  7.5256097007E-01  2.4743902993E-01
                       2.4743902993E-01  7.5256097007E-01  7.5256097007E-01
                       7.5256097007E-01  2.4743902993E-01  7.5256097007E-01
                       2.4743902993E-01  7.5256097007E-01  2.4743902993E-01
                       7.5256097007E-01  2.4743902993E-01  2.4743902993E-01
                       5.8935038690E-19 -5.3563366136E-19  3.4860075220E-19
             xred10    2.5000000000E-01  2.5000000000E-01  2.5000000000E-01
                       7.5000000000E-01  7.5000000000E-01  7.5000000000E-01
                       2.4763472622E-01  2.4763472622E-01  7.5236527378E-01
                       7.5236527378E-01  7.5236527378E-01  2.4763472622E-01
                       2.4763472622E-01  7.5236527378E-01  7.5236527378E-01
                       7.5236527378E-01  2.4763472622E-01  7.5236527378E-01
                       2.4763472622E-01  7.5236527378E-01  2.4763472622E-01
                       7.5236527378E-01  2.4763472622E-01  2.4763472622E-01
                       6.2614439696E-19 -4.3349745294E-19  2.4210748059E-19
            znucl       55.00000   17.00000   40.00000

- Timing analysis has been suppressed with timopt=0

 Suggested references for the acknowledgment of ABINIT usage.

 Calculation completed.
.Delivered   0 WARNINGs and   0 COMMENTs to log file.