.Version 9.2.2 of ABINIT

 ABINIT is a project of the Universite Catholique de Louvain,
 Corning Inc. and other collaborators, see ~abinit/doc/developers/contributors.txt .
 acknowledgments of the ABINIT effort.

.Starting date : Sat 12 Nov 2022.
- ( at 17h39 )

- input  file    -> Cs2TiI6.in
- output file    -> Cs2TiI6.out
- root for input  files -> Cs2TiI6i
- root for output files -> Cs2TiI6o

- inpspheads : Reading pseudopotential header in XML form from
-   ../../../Psps_for_tests/ATOMICDATA/Cs.GGA_PBE-JTH.xml
- inpspheads : Reading pseudopotential header in XML form from
-   ../../../Psps_for_tests/ATOMICDATA/I.GGA_PBE-JTH.xml
- inpspheads : Reading pseudopotential header in XML form from
-   ../../../Psps_for_tests/ATOMICDATA/Hf.GGA_PBE-JTH.xml
- inpspheads : Reading pseudopotential header in XML form from
-   ../../../Psps_for_tests/ATOMICDATA/Br.GGA_PBE-JTH.xml

 DATASET    1 : space group Fm m 2 (# 42); Bravais oF (face-center ortho.)
     intxc =       0    ionmov =       0      iscf =      17    lmnmax =      18
     lnmax =       6     mgfft =      64  mpssoang =       3    mqgrid =    3917
     natom =       9  nloc_mem =       2    nspden =       1   nspinor =       1
    nsppol =       1      nsym =       4    n1xccc =       1    ntypat =       4
    occopt =       1   xclevel =       2
-    mband =          42        mffmem =           1         mkmem =          47
       mpw =       10377          nfft =      262144          nkpt =         280
Pmy_natom=         2
 PAW method is used; the additional fine FFT grid is defined by:
   mgfftf=       100    nfftf =   1000000
  Rough estimation (10% accuracy) of disk space for files :

[...]

 DATASET   10 : space group Fm m 2 (# 42); Bravais oF (face-center ortho.)
     intxc =       0    ionmov =       0      iscf =      17    lmnmax =      18
     lnmax =       6     mgfft =      64  mpssoang =       3    mqgrid =    3882
     natom =       9  nloc_mem =       2    nspden =       1   nspinor =       1
    nsppol =       1      nsym =       4    n1xccc =       1    ntypat =       4
    occopt =       1   xclevel =       2
-    mband =          42        mffmem =           1         mkmem =          47
       mpw =       10107          nfft =      262144          nkpt =         280
Pmy_natom=         2
 PAW method is used; the additional fine FFT grid is defined by:
   mgfftf=        96    nfftf =    884736
  Rough estimation (10% accuracy) of disk space for files :

------------- Echo of variables that govern the present computation ------------
-
- outvars: echo of selected default values
-   iomode0 =  0 , fftalg0 =112 , wfoptalg0 = 10
-
- outvars: echo of global parameters not present in the input file
-  max_nthreads =    0
-
 -outvars: echo values of preprocessed input variables --------
            acell1     1.4607899941E+01  1.4770634452E+01  1.4583425037E+01 Bohr
            acell2     1.4592226562E+01  1.4757385843E+01  1.4568466253E+01 Bohr
            acell3     1.4576586005E+01  1.4743453554E+01  1.4554099007E+01 Bohr
            acell4     1.4561185927E+01  1.4729080648E+01  1.4539895478E+01 Bohr
            acell5     1.4545942525E+01  1.4715082955E+01  1.4525195593E+01 Bohr
            acell6     1.4530534645E+01  1.4701097238E+01  1.4510648335E+01 Bohr
            acell7     1.4515380424E+01  1.4686729635E+01  1.4496197426E+01 Bohr
            acell8     1.4500213618E+01  1.4672853001E+01  1.4481312893E+01 Bohr
            acell9     1.4484090523E+01  1.4659086473E+01  1.4467277745E+01 Bohr
            acell10    1.4468446384E+01  1.4645204295E+01  1.4452873571E+01 Bohr
              amu      1.32905430E+02  1.26904470E+02  1.78490000E+02
                       7.99040000E+01
           diemac      1.20000000E+01
          dilatmx      1.15000000E+00
             ecut      1.60000000E+01 Hartree
           ecutsm      5.00000000E-01 Hartree
-          fftalg         112
           istwfk        2    0    0    0    0    0    3    0    0    0
                         0    0    0    0    0    0    0    0    0    0
                         0    0    0    0    0    0    0    0    0    0
                         0    0    0    0    0    0    0    0    0    0
                         0    0    7    0    0    0    0    0    0    0
                       outvar_i_n : Printing only first  50 k-points.
              ixc     -101130
           jdtset        1    2    3    4    5    6    7    8    9   10
              kpt      0.00000000E+00  0.00000000E+00  0.00000000E+00
                       8.33333333E-02  0.00000000E+00  0.00000000E+00
                       1.66666667E-01  0.00000000E+00  0.00000000E+00
                       2.50000000E-01  0.00000000E+00  0.00000000E+00
                       3.33333333E-01  0.00000000E+00  0.00000000E+00
                       4.16666667E-01  0.00000000E+00  0.00000000E+00
                       5.00000000E-01  0.00000000E+00  0.00000000E+00
                       8.33333333E-02  8.33333333E-02  0.00000000E+00
                       1.66666667E-01  8.33333333E-02  0.00000000E+00
                       2.50000000E-01  8.33333333E-02  0.00000000E+00
                       3.33333333E-01  8.33333333E-02  0.00000000E+00
                       4.16666667E-01  8.33333333E-02  0.00000000E+00
                       5.00000000E-01  8.33333333E-02  0.00000000E+00
                      -4.16666667E-01  8.33333333E-02  0.00000000E+00
                      -3.33333333E-01  8.33333333E-02  0.00000000E+00
                      -2.50000000E-01  8.33333333E-02  0.00000000E+00
                      -1.66666667E-01  8.33333333E-02  0.00000000E+00
                      -8.33333333E-02  8.33333333E-02  0.00000000E+00
                       1.66666667E-01  1.66666667E-01  0.00000000E+00
                       2.50000000E-01  1.66666667E-01  0.00000000E+00
                       3.33333333E-01  1.66666667E-01  0.00000000E+00
                       4.16666667E-01  1.66666667E-01  0.00000000E+00
                       5.00000000E-01  1.66666667E-01  0.00000000E+00
                      -4.16666667E-01  1.66666667E-01  0.00000000E+00
                      -3.33333333E-01  1.66666667E-01  0.00000000E+00
                      -2.50000000E-01  1.66666667E-01  0.00000000E+00
                      -1.66666667E-01  1.66666667E-01  0.00000000E+00
                       2.50000000E-01  2.50000000E-01  0.00000000E+00
                       3.33333333E-01  2.50000000E-01  0.00000000E+00
                       4.16666667E-01  2.50000000E-01  0.00000000E+00
                       5.00000000E-01  2.50000000E-01  0.00000000E+00
                      -4.16666667E-01  2.50000000E-01  0.00000000E+00
                      -3.33333333E-01  2.50000000E-01  0.00000000E+00
                      -2.50000000E-01  2.50000000E-01  0.00000000E+00
                       3.33333333E-01  3.33333333E-01  0.00000000E+00
                       4.16666667E-01  3.33333333E-01  0.00000000E+00
                       5.00000000E-01  3.33333333E-01  0.00000000E+00
                      -4.16666667E-01  3.33333333E-01  0.00000000E+00
                      -3.33333333E-01  3.33333333E-01  0.00000000E+00
                       4.16666667E-01  4.16666667E-01  0.00000000E+00
                       5.00000000E-01  4.16666667E-01  0.00000000E+00
                      -4.16666667E-01  4.16666667E-01  0.00000000E+00
                       5.00000000E-01  5.00000000E-01  0.00000000E+00
                       8.33333333E-02  0.00000000E+00  8.33333333E-02
                       1.66666667E-01  0.00000000E+00  8.33333333E-02
                       2.50000000E-01  0.00000000E+00  8.33333333E-02
                       3.33333333E-01  0.00000000E+00  8.33333333E-02
                       4.16666667E-01  0.00000000E+00  8.33333333E-02
                       5.00000000E-01  0.00000000E+00  8.33333333E-02
                      -4.16666667E-01  0.00000000E+00  8.33333333E-02
                       outvar_i_n : Printing only first  50 k-points.
         kptrlatt       12    0    0      0   12    0      0    0   12
          kptrlen1     1.75001100E+02
          kptrlen2     1.74821595E+02
          kptrlen3     1.74649188E+02
          kptrlen4     1.74478746E+02
          kptrlen5     1.74302347E+02
          kptrlen6     1.74127780E+02
          kptrlen7     1.73954369E+02
          kptrlen8     1.73775755E+02
          kptrlen9     1.73607333E+02
          kptrlen10    1.73434483E+02
P           mkmem          47
            natom           9
            nband          42
           ndtset          10
            ngfft          64      64      64
          ngfftdg1        100     100     100
          ngfftdg2        100     100     100
          ngfftdg3        100     100     100
          ngfftdg4        100     100     100
          ngfftdg5        100     100     100
          ngfftdg6        100     100     100
          ngfftdg7        100     100     100
          ngfftdg8        100     100     100
          ngfftdg9         96      96      96
          ngfftdg10        96      96      96
             nkpt         280
            nstep        2500
             nsym           4
           ntypat           4
              occ      2.000000  2.000000  2.000000  2.000000  2.000000  2.000000
                       2.000000  2.000000  2.000000  2.000000  2.000000  2.000000
                       2.000000  2.000000  2.000000  2.000000  2.000000  2.000000
                       2.000000  2.000000  2.000000  2.000000  2.000000  2.000000
                       2.000000  2.000000  2.000000  2.000000  2.000000  2.000000
                       2.000000  2.000000  2.000000  2.000000  2.000000  2.000000
                       0.000000  0.000000  0.000000  0.000000  0.000000  0.000000
        pawecutdg      4.00000000E+01 Hartree
            prtwf           0
            rprim1     0.0000000000E+00  6.9794249307E-01  7.1615380776E-01
                       7.0594803717E-01  0.0000000000E+00  7.0826362946E-01
                       7.1501038836E-01  6.9911382803E-01  0.0000000000E+00
            rprim2     0.0000000000E+00  6.9784717708E-01  7.1624668756E-01
                       7.0598105726E-01  0.0000000000E+00  7.0823071579E-01
                       7.1513601220E-01  6.9898532463E-01  0.0000000000E+00
            rprim3     0.0000000000E+00  6.9781469144E-01  7.1627833725E-01
                       7.0604051335E-01  0.0000000000E+00  7.0817144358E-01
                       7.1522637788E-01  6.9889285902E-01  0.0000000000E+00
            rprim4     0.0000000000E+00  6.9781241490E-01  7.1628055510E-01
                       7.0609634688E-01  0.0000000000E+00  7.0811577368E-01
                       7.1528368649E-01  6.9883420626E-01  0.0000000000E+00
            rprim5     0.0000000000E+00  6.9776722022E-01  7.1632458173E-01
                       7.0612130022E-01  0.0000000000E+00  7.0809089062E-01
                       7.1535239872E-01  6.9876386974E-01  0.0000000000E+00
            rprim6     0.0000000000E+00  6.9772862731E-01  7.1636217281E-01
                       7.0616138370E-01  0.0000000000E+00  7.0805091636E-01
[...]
                       1.0453491395E-12 -5.3140970078E-13  6.8636996177E-02
           xangst7     2.7442283755E+00  2.6796437461E+00  2.7592584733E+00
                       8.2326851265E+00  8.0389312383E+00  8.2618943427E+00
                       5.4884567510E+00  8.1278503891E+00  5.5233227051E+00
                       5.4884567510E+00  5.3592874922E+00  2.6638817474E+00
                       5.4884567509E+00  5.3592874922E+00  8.2347775584E+00
                       5.4884567509E+00  2.5907245953E+00  5.5233227051E+00
                       8.1443922185E+00  5.3592874922E+00  5.4929138622E+00
                       2.8325212835E+00  5.3592874922E+00  5.4929138622E+00
                      -1.3009259629E-12 -3.3396216506E-13  6.8801698664E-02
           xangst8     2.7416847066E+00  2.6766116094E+00  2.7565488655E+00
                       8.2250541197E+00  8.0298348282E+00  8.2538874822E+00
                       5.4833694132E+00  8.1162001282E+00  5.5177503804E+00
                       5.4833694132E+00  5.3532232189E+00  2.6636081806E+00
                       5.4833694131E+00  5.3532232188E+00  8.2254015458E+00
                       5.4833694131E+00  2.5902463094E+00  5.5177503805E+00
                       8.1352505845E+00  5.3532232189E+00  5.4873735983E+00
                       2.8314882418E+00  5.3532232188E+00  5.4873735982E+00
                      -1.4275200155E-12 -1.4147285162E-12  6.9014902424E-02
           xangst9     2.7394956667E+00  2.6735378231E+00  2.7533696990E+00
                       8.2184870000E+00  8.0206134693E+00  8.2447857941E+00
                       5.4789913333E+00  8.1044477216E+00  5.5115837060E+00
                       5.4789913333E+00  5.3470756462E+00  2.6634491647E+00
                       5.4789913333E+00  5.3470756462E+00  8.2147477379E+00
                       5.4789913333E+00  2.5897035708E+00  5.5115837061E+00
                       8.1276220417E+00  5.3470756462E+00  5.4812653353E+00
                       2.8303606249E+00  5.3470756462E+00  5.4812653353E+00
                       2.3019647122E-13  6.5106833465E-13  6.9278282583E-02
           xangst10    2.7371280131E+00  2.6705071253E+00  2.7503675974E+00
                       8.2113840393E+00  8.0115213760E+00  8.2361309948E+00
                       5.4742560262E+00  8.0928271803E+00  5.5055692454E+00
                       5.4742560262E+00  5.3410142507E+00  2.6633096592E+00
                       5.4742560262E+00  5.3410142506E+00  8.2047721606E+00
                       5.4742560262E+00  2.5892013210E+00  5.5055692455E+00
                       8.1191820351E+00  5.3410142507E+00  5.4754065515E+00
                       2.8293300172E+00  5.3410142506E+00  5.4754065515E+00
                      -3.1833636799E-13 -3.8751540398E-13  6.9575173180E-02
            xcart1     5.2136501996E+00  5.0977370517E+00  5.2467879205E+00
                       1.5640950599E+01  1.5293211155E+01  1.5708291087E+01
                       1.0427300399E+01  1.5489740897E+01  1.0503833260E+01
                       1.0427300399E+01  1.0195474103E+01  5.0364040659E+00
                       1.0427300399E+01  1.0195474103E+01  1.5674057927E+01
                       1.0427300399E+01  4.9012073100E+00  1.0503833260E+01
                       1.5490698341E+01  1.0195474103E+01  1.0445372972E+01
                       5.3639024570E+00  1.0195474103E+01  1.0445372972E+01
                      -1.0977626929E-12 -4.0993427741E-13  1.2807186607E-01
            xcart2     5.2092174300E+00  5.0915720567E+00  5.2419128081E+00
                       1.5627652290E+01  1.5274716170E+01  1.5693546747E+01
                       1.0418434860E+01  1.5465918666E+01  1.0493455951E+01
                       1.0418434860E+01  1.0183144113E+01  5.0358884789E+00
                       1.0418434860E+01  1.0183144114E+01  1.5656350829E+01
                       1.0418434860E+01  4.9003695604E+00  1.0493455951E+01
                       1.5474769612E+01  1.0183144113E+01  1.0435102071E+01
                       5.3621001079E+00  1.0183144114E+01  1.0435102072E+01
                      -1.2627264935E-12  2.3873573155E-12  1.2825660450E-01
            xcart3     5.2047377580E+00  5.0858779327E+00  5.2366807368E+00
                       1.5614213274E+01  1.5257633798E+01  1.5677573523E+01
                       1.0409475516E+01  1.5444035052E+01  1.0482070450E+01
                       1.0409475516E+01  1.0171755865E+01  5.0353544265E+00
                       1.0409475516E+01  1.0171755865E+01  1.5636961945E+01
                       1.0409475516E+01  4.8994766785E+00  1.0482070450E+01
                       1.5458668774E+01  1.0171755865E+01  1.0424040827E+01
                       5.3602822584E+00  1.0171755865E+01  1.0424040827E+01
                      -1.6317262012E-12 -8.2778645105E-13  1.2834910619E-01
            xcart4     5.2000750193E+00  5.0804881577E+00  5.2305868220E+00
                       1.5600225058E+01  1.5241464473E+01  1.5660481161E+01
                       1.0400150039E+01  1.5423348269E+01  1.0470651404E+01
                       1.0400150039E+01  1.0160976315E+01  5.0352244146E+00
                       1.0400150039E+01  1.0160976316E+01  1.5617438328E+01
                       1.0400150039E+01  4.8986043618E+00  1.0470651404E+01
                       1.5441908555E+01  1.0160976315E+01  1.0412583280E+01
                       5.3583915226E+00  1.0160976316E+01  1.0412583280E+01
                      -1.4182638930E-12  3.4788281013E-13  1.2895461487E-01
            xcart5     5.1953167546E+00  5.0748409406E+00  5.2253092474E+00
                       1.5585950264E+01  1.5224522822E+01  1.5644925443E+01
                       1.0390633509E+01  1.5401710685E+01  1.0459729694E+01
                       1.0390633509E+01  1.0149681881E+01  5.0348212964E+00
                       1.0390633509E+01  1.0149681881E+01  1.5599090318E+01
                       1.0390633509E+01  4.8976530775E+00  1.0459729694E+01
                       1.5424743025E+01  1.0149681881E+01  1.0402051211E+01
                       5.3565239933E+00  1.0149681881E+01  1.0402051211E+01
                      -1.8600332062E-12 -9.0491834238E-13  1.2922144703E-01
            xcart6     5.1906735837E+00  5.0691849960E+00  5.2197131908E+00
                       1.5572020751E+01  1.5207554988E+01  1.5628838561E+01
                       1.0381347167E+01  1.5380031046E+01  1.0448748144E+01
                       1.0381347167E+01  1.0138369992E+01  5.0344808300E+00
                       1.0381347167E+01  1.0138369992E+01  1.5580470817E+01
                       1.0381347167E+01  4.8967089379E+00  1.0448748144E+01
                       1.5408074760E+01  1.0138369992E+01  1.0391149076E+01
                       5.3546195749E+00  1.0138369992E+01  1.0391149076E+01
                       1.9754235868E-12 -1.0042187988E-12  1.2970512536E-01
            xcart7     5.1858400758E+00  5.0637928138E+00  5.2142428444E+00
                       1.5557520227E+01  1.5191378441E+01  1.5612717647E+01
                       1.0371680152E+01  1.5359411284E+01  1.0437567256E+01
                       1.0371680152E+01  1.0127585628E+01  5.0340069529E+00
                       1.0371680151E+01  1.0127585628E+01  1.5561474351E+01
                       1.0371680151E+01  4.8957599709E+00  1.0437567256E+01
                       1.5390670812E+01  1.0127585628E+01  1.0380102871E+01
                       5.3526894913E+00  1.0127585628E+01  1.0380102871E+01
                      -2.4583937890E-12 -6.3109703070E-13  1.3001636795E-01
            xcart8     5.1810332381E+00  5.0580629059E+00  5.2091224276E+00
                       1.5543099714E+01  1.5174188718E+01  1.5597586873E+01
                       1.0362066476E+01  1.5337395482E+01  1.0427037089E+01
                       1.0362066476E+01  1.0116125812E+01  5.0334899867E+00
                       1.0362066476E+01  1.0116125812E+01  1.5543756255E+01
                       1.0362066476E+01  4.8948561415E+00  1.0427037089E+01
                       1.5373395627E+01  1.0116125812E+01  1.0369633290E+01
                       5.3507373254E+00  1.0116125812E+01  1.0369633289E+01
                      -2.6976218784E-12 -2.6734494481E-12  1.3041926467E-01
            xcart9     5.1768965522E+00  5.0522542916E+00  5.2031146736E+00
                       1.5530689657E+01  1.5156762875E+01  1.5580387175E+01
                       1.0353793104E+01  1.5315186652E+01  1.0415383763E+01
                       1.0353793104E+01  1.0104508583E+01  5.0331894901E+00
                       1.0353793104E+01  1.0104508583E+01  1.5523623475E+01
                       1.0353793104E+01  4.8938305142E+00  1.0415383763E+01
                       1.5358979770E+01  1.0104508583E+01  1.0358090345E+01
                       5.3486064384E+00  1.0104508583E+01  1.0358090345E+01
                       4.3500828736E-13  1.2303408463E-12  1.3091698104E-01
            xcart10    5.1724223354E+00  5.0465271028E+00  5.1974415239E+00
                       1.5517267006E+01  1.5139581308E+01  1.5564031975E+01
                       1.0344844671E+01  1.5293227011E+01  1.0404018079E+01
                       1.0344844671E+01  1.0093054206E+01  5.0329258630E+00
                       1.0344844671E+01  1.0093054206E+01  1.5504772366E+01
                       1.0344844671E+01  4.8928813996E+00  1.0404018080E+01
                       1.5343030469E+01  1.0093054206E+01  1.0347018849E+01
                       5.3466588721E+00  1.0093054206E+01  1.0347018848E+01
                      -6.0156855364E-13 -7.3229798579E-13  1.3147802296E-01
             xred1     2.5076644518E-01  2.5076644518E-01  2.4923355482E-01
                       7.5076644518E-01  7.5076644518E-01  7.4923355482E-01
                       7.6166122374E-01  2.4238504887E-01  7.5761495113E-01
                       2.4071130056E-01  2.4071130056E-01  7.5928869944E-01
                       7.4913029601E-01  7.4913029601E-01  2.5086970399E-01
                       2.4238504887E-01  7.6166122374E-01  2.3833877626E-01
                       2.5643382246E-01  7.4202431553E-01  7.4356617754E-01
                       7.4202431553E-01  2.5643382246E-01  2.5797568447E-01
                       6.1211024858E-03  6.1211024858E-03 -6.1211024858E-03
             xred2     2.5077001542E-01  2.5077001542E-01  2.4922998458E-01
                       7.5077001542E-01  7.5077001542E-01  7.4922998458E-01
                       7.6138892608E-01  2.4261255464E-01  7.5738744536E-01
                       2.4091393309E-01  2.4091393309E-01  7.5908606691E-01
                       7.4899058464E-01  7.4899058464E-01  2.5100941536E-01
                       2.4261255464E-01  7.6138892608E-01  2.3861107392E-01
                       2.5654624831E-01  7.4187200213E-01  7.4345375169E-01
                       7.4187200213E-01  2.5654624831E-01  2.5812799787E-01
                       6.1357202734E-03  6.1357202734E-03 -6.1357202734E-03
             xred3     2.5077744039E-01  2.5077744039E-01  2.4922255961E-01
                       7.5077744039E-01  7.5077744039E-01  7.4922255961E-01
                       7.6113462987E-01  2.4280925354E-01  7.5719074646E-01
                       2.4113620020E-01  2.4113620020E-01  7.5886379980E-01
                       7.4883260776E-01  7.4883260776E-01  2.5116739224E-01
                       2.4280925354E-01  7.6113462987E-01  2.3886537013E-01
                       2.5666427664E-01  7.4172168898E-01  7.4333572336E-01
                       7.4172168898E-01  2.5666427664E-01  2.5827831102E-01
                       6.1464622236E-03  6.1464622236E-03 -6.1464622236E-03
             xred4     2.5074975125E-01  2.5074975125E-01  2.4925024875E-01
                       7.5074975125E-01  7.5074975125E-01  7.4925024875E-01
                       7.6090397218E-01  2.4300374387E-01  7.5699625613E-01
                       2.4138424854E-01  2.4138424854E-01  7.5861575146E-01
                       7.4868631556E-01  7.4868631556E-01  2.5131368444E-01
                       2.4300374387E-01  7.6090397218E-01  2.3909602782E-01
                       2.5678138357E-01  7.4155886248E-01  7.4321861643E-01
                       7.4155886248E-01  2.5678138357E-01  2.5844113752E-01
                       6.1819712973E-03  6.1819712973E-03 -6.1819712973E-03
             xred5     2.5074384457E-01  2.5074384457E-01  2.4925615543E-01
                       7.5074384457E-01  7.5074384457E-01  7.4925615543E-01
                       7.6065364262E-01  2.4319616315E-01  7.5680383685E-01
                       2.4160301119E-01  2.4160301119E-01  7.5839698881E-01
                       7.4854438136E-01  7.4854438136E-01  2.5145561864E-01
                       2.4319616315E-01  7.6065364262E-01  2.3934635738E-01
                       2.5691445390E-01  7.4139978499E-01  7.4308554610E-01
                       7.4139978499E-01  2.5691445390E-01  2.5860021501E-01
                       6.2008736507E-03  6.2008736507E-03 -6.2008736507E-03
             xred6     2.5072775113E-01  2.5072775113E-01  2.4927224887E-01
                       7.5072775113E-01  7.5072775113E-01  7.4927224887E-01
                       7.6040937499E-01  2.4339716709E-01  7.5660283291E-01
                       2.4183015627E-01  2.4183015627E-01  7.5816984373E-01
                       7.4840441740E-01  7.4840441740E-01  2.5159558260E-01
                       2.4339716709E-01  7.6040937499E-01  2.3959062501E-01
                       2.5703269365E-01  7.4124033177E-01  7.4296730635E-01
                       7.4124033177E-01  2.5703269365E-01  2.5875966823E-01
                       6.2303565737E-03  6.2303565737E-03 -6.2303565737E-03
             xred7     2.5072152136E-01  2.5072152136E-01  2.4927847864E-01
                       7.5072152136E-01  7.5072152136E-01  7.4927847864E-01
                       7.6017552024E-01  2.4358392091E-01  7.5641607909E-01
                       2.4205506330E-01  2.4205506330E-01  7.5794493670E-01
                       7.4825754001E-01  7.4825754001E-01  2.5174245999E-01
                       2.4358392091E-01  7.6017552024E-01  2.3982447976E-01
                       2.5716011403E-01  7.4107309504E-01  7.4283988597E-01
                       7.4107309504E-01  2.5716011403E-01  2.5892690496E-01
                       6.2517037559E-03  6.2517037559E-03 -6.2517037559E-03
             xred8     2.5071667016E-01  2.5071667016E-01  2.4928332984E-01
                       7.5071667016E-01  7.5071667016E-01  7.4928332984E-01
                       7.5992317666E-01  2.4378984979E-01  7.5621015021E-01
                       2.4226342657E-01  2.4226342657E-01  7.5773657343E-01
                       7.4812578588E-01  7.4812578588E-01  2.5187421412E-01
                       2.4378984979E-01  7.5992317666E-01  2.4007682334E-01
                       2.5728236898E-01  7.4090493233E-01  7.4271763102E-01
                       7.4090493233E-01  2.5728236898E-01  2.5909506767E-01
                       6.2771194605E-03  6.2771194605E-03 -6.2771194605E-03
             xred9     2.5069760252E-01  2.5069760252E-01  2.4930239748E-01
                       7.5069760252E-01  7.5069760252E-01  7.4930239748E-01
                       7.5967554694E-01  2.4399702323E-01  7.5600297677E-01
                       2.4251023038E-01  2.4251023038E-01  7.5748976962E-01
                       7.4796260160E-01  7.4796260160E-01  2.5203739840E-01
                       2.4399702323E-01  7.5967554694E-01  2.4032445306E-01
                       2.5736788584E-01  7.4078363653E-01  7.4263211416E-01
                       7.4078363653E-01  2.5736788584E-01  2.5921636347E-01
                       6.3078704457E-03  6.3078704457E-03 -6.3078704457E-03
             xred10    2.5068230237E-01  2.5068230237E-01  2.4931769763E-01
                       7.5068230237E-01  7.5068230237E-01  7.4931769763E-01
                       7.5941666171E-01  2.4419374702E-01  7.5580625298E-01
                       2.4274740508E-01  2.4274740508E-01  7.5725259492E-01
                       7.4782410088E-01  7.4782410088E-01  2.5217589912E-01
                       2.4419374702E-01  7.5941666171E-01  2.4058333829E-01
                       2.5747744380E-01  7.4063460640E-01  7.4252255620E-01
                       7.4063460640E-01  2.5747744380E-01  2.5936539360E-01
                       6.3414303662E-03  6.3414303662E-03 -6.3414303662E-03
            znucl       55.00000   53.00000   72.00000   35.00000

- Timing analysis has been suppressed with timopt=0

 Suggested references for the acknowledgment of ABINIT usage.

 Calculation completed.
.Delivered   0 WARNINGs and  10 COMMENTs to log file.