.Version 9.2.2 of ABINIT

 ABINIT is a project of the Universite Catholique de Louvain,
 Corning Inc. and other collaborators, see ~abinit/doc/developers/contributors.txt .
 acknowledgments of the ABINIT effort.

.Starting date : Fri 21 Oct 2022.
- ( at 23h39 )

- input  file    -> Cs2TiI6.in
- output file    -> Cs2TiI6.out
- root for input  files -> Cs2TiI6i
- root for output files -> Cs2TiI6o

- inpspheads : Reading pseudopotential header in XML form from
-   ../../../Psps_for_tests/ATOMICDATA/Cs.GGA_PBE-JTH.xml
- inpspheads : Reading pseudopotential header in XML form from
-   ../../../Psps_for_tests/ATOMICDATA/I.GGA_PBE-JTH.xml
- inpspheads : Reading pseudopotential header in XML form from
-   ../../../Psps_for_tests/ATOMICDATA/Zr.GGA_PBE-JTH.xml
- inpspheads : Reading pseudopotential header in XML form from
-   ../../../Psps_for_tests/ATOMICDATA/Br.GGA_PBE-JTH.xml

 DATASET    1 : space group I4 m m (#107); Bravais tI (body-center tetrag.)
     intxc =       0    ionmov =       0      iscf =      17    lmnmax =      18
     lnmax =       6     mgfft =      72  mpssoang =       3    mqgrid =    4259
     natom =       9  nloc_mem =       2    nspden =       1   nspinor =       1
    nsppol =       1      nsym =       8    n1xccc =       1    ntypat =       4
    occopt =       1   xclevel =       2
-    mband =          42        mffmem =           1         mkmem =          28
       mpw =       13347          nfft =      373248          nkpt =         163
Pmy_natom=         2
 PAW method is used; the additional fine FFT grid is defined by:
   mgfftf=       108    nfftf =   1259712
  Rough estimation (10% accuracy) of disk space for files :

 DATASET    2 : space group I4 m m (#107); Bravais tI (body-center tetrag.)
     intxc =       0    ionmov =       0      iscf =      17    lmnmax =      18
     lnmax =       6     mgfft =      72  mpssoang =       3    mqgrid =    4259
     natom =       9  nloc_mem =       2    nspden =       1   nspinor =       1
    nsppol =       1      nsym =       8    n1xccc =       1    ntypat =       4
    occopt =       1   xclevel =       2
-    mband =          42        mffmem =           1         mkmem =          28
       mpw =       13347          nfft =      373248          nkpt =         163
Pmy_natom=         2
 PAW method is used; the additional fine FFT grid is defined by:
   mgfftf=       108    nfftf =   1259712
  Rough estimation (10% accuracy) of disk space for files :

------------- Echo of variables that govern the present computation ------------
-
- outvars: echo of selected default values
-   iomode0 =  0 , fftalg0 =112 , wfoptalg0 = 10
-
- outvars: echo of global parameters not present in the input file
-  max_nthreads =    0
-
 -outvars: echo values of preprocessed input variables --------
            acell1     1.5886054674E+01  1.5886054674E+01  1.6017060638E+01 Bohr
            acell2     1.5886054642E+01  1.5886054642E+01  1.6017060649E+01 Bohr
              amu      1.32905430E+02  1.26904470E+02  9.12240000E+01
                       7.99040000E+01
           diemac      1.20000000E+01
          dilatmx      1.15000000E+00
             ecut      1.60000000E+01 Hartree
           ecutsm      5.00000000E-01 Hartree
-          fftalg         112
           istwfk        2    0    0    0    0    0    3    0    0    0
                         0    0    0    0    0    0    0    0    0    0
                         0    0    0    0    0    0    0    0    0    0
                         0    0    0    0    0    0    0    0    0    0
                         0    0    7    0    0    0    0    0    0    0
                       outvar_i_n : Printing only first  50 k-points.
              ixc     -101130
           jdtset        1    2
              kpt      0.00000000E+00  0.00000000E+00  0.00000000E+00
                       8.33333333E-02  0.00000000E+00  0.00000000E+00
                       1.66666667E-01  0.00000000E+00  0.00000000E+00
                       2.50000000E-01  0.00000000E+00  0.00000000E+00
                       3.33333333E-01  0.00000000E+00  0.00000000E+00
                       4.16666667E-01  0.00000000E+00  0.00000000E+00
                       5.00000000E-01  0.00000000E+00  0.00000000E+00
                       8.33333333E-02  8.33333333E-02  0.00000000E+00
                       1.66666667E-01  8.33333333E-02  0.00000000E+00
                       2.50000000E-01  8.33333333E-02  0.00000000E+00
                       3.33333333E-01  8.33333333E-02  0.00000000E+00
                       4.16666667E-01  8.33333333E-02  0.00000000E+00
                       5.00000000E-01  8.33333333E-02  0.00000000E+00
                      -4.16666667E-01  8.33333333E-02  0.00000000E+00
                      -3.33333333E-01  8.33333333E-02  0.00000000E+00
                      -2.50000000E-01  8.33333333E-02  0.00000000E+00
                      -1.66666667E-01  8.33333333E-02  0.00000000E+00
                      -8.33333333E-02  8.33333333E-02  0.00000000E+00
                       1.66666667E-01  1.66666667E-01  0.00000000E+00
                       2.50000000E-01  1.66666667E-01  0.00000000E+00
                       3.33333333E-01  1.66666667E-01  0.00000000E+00
                       4.16666667E-01  1.66666667E-01  0.00000000E+00
                       5.00000000E-01  1.66666667E-01  0.00000000E+00
                      -4.16666667E-01  1.66666667E-01  0.00000000E+00
                      -3.33333333E-01  1.66666667E-01  0.00000000E+00
                      -2.50000000E-01  1.66666667E-01  0.00000000E+00
                      -1.66666667E-01  1.66666667E-01  0.00000000E+00
                       2.50000000E-01  2.50000000E-01  0.00000000E+00
                       3.33333333E-01  2.50000000E-01  0.00000000E+00
                       4.16666667E-01  2.50000000E-01  0.00000000E+00
                       5.00000000E-01  2.50000000E-01  0.00000000E+00
                      -4.16666667E-01  2.50000000E-01  0.00000000E+00
                      -3.33333333E-01  2.50000000E-01  0.00000000E+00
                      -2.50000000E-01  2.50000000E-01  0.00000000E+00
                       3.33333333E-01  3.33333333E-01  0.00000000E+00
                       4.16666667E-01  3.33333333E-01  0.00000000E+00
                       5.00000000E-01  3.33333333E-01  0.00000000E+00
                      -4.16666667E-01  3.33333333E-01  0.00000000E+00
                      -3.33333333E-01  3.33333333E-01  0.00000000E+00
                       4.16666667E-01  4.16666667E-01  0.00000000E+00
                       5.00000000E-01  4.16666667E-01  0.00000000E+00
                      -4.16666667E-01  4.16666667E-01  0.00000000E+00
                       5.00000000E-01  5.00000000E-01  0.00000000E+00
                       8.33333333E-02  0.00000000E+00  8.33333333E-02
                       1.66666667E-01  0.00000000E+00  8.33333333E-02
                       2.50000000E-01  0.00000000E+00  8.33333333E-02
                       3.33333333E-01  0.00000000E+00  8.33333333E-02
                       4.16666667E-01  0.00000000E+00  8.33333333E-02
                       5.00000000E-01  0.00000000E+00  8.33333333E-02
                      -4.16666667E-01  0.00000000E+00  8.33333333E-02
                       outvar_i_n : Printing only first  50 k-points.
         kptrlatt       12    0    0      0   12    0      0    0   12
          kptrlen1     1.90632656E+02
          kptrlen2     1.90632656E+02
P           mkmem          28
            natom           9
            nband          42
           ndtset           2
            ngfft          72      72      72
          ngfftdg         108     108     108
             nkpt         163
            nstep        2500
             nsym           8
           ntypat           4
              occ      2.000000  2.000000  2.000000  2.000000  2.000000  2.000000
                       2.000000  2.000000  2.000000  2.000000  2.000000  2.000000
                       2.000000  2.000000  2.000000  2.000000  2.000000  2.000000
                       2.000000  2.000000  2.000000  2.000000  2.000000  2.000000
                       2.000000  2.000000  2.000000  2.000000  2.000000  2.000000
                       2.000000  2.000000  2.000000  2.000000  2.000000  2.000000
                       0.000000  0.000000  0.000000  0.000000  0.000000  0.000000
        pawecutdg      4.00000000E+01 Hartree
            prtwf           0
            rprim1     0.0000000000E+00  7.1293800910E-01  7.0122706392E-01
                       7.1293800910E-01  0.0000000000E+00  7.0122706392E-01
                       7.0710678119E-01  7.0710678119E-01  0.0000000000E+00
            rprim2     0.0000000000E+00  7.1293801104E-01  7.0122706195E-01
                       7.1293801104E-01  0.0000000000E+00  7.0122706195E-01
                       7.0710678119E-01  7.0710678119E-01  0.0000000000E+00
          spgroup         107
           symrel      1  0  0   0  1  0   0  0  1       1  0 -1   0  1 -1   0  0 -1
                       0  1 -1   1  0 -1   0  0 -1       0  1  0   1  0  0   0  0  1
                       1  0  0   1  0 -1   1 -1  0       0  1  0   0  1 -1  -1  1  0
                       0  1 -1   0  1  0  -1  1  0       1  0 -1   1  0  0   1 -1  0
           toldfe      1.00000000E-08 Hartree
            typat1     1  1  4  2  2  2  2  2  3
            typat2     1  1  2  4  2  2  2  2  3
           useylm           1
              wtk        0.00058    0.00463    0.00463    0.00463    0.00463    0.00463
                         0.00231    0.00116    0.00463    0.00463    0.00463    0.00463
                         0.00463    0.00463    0.00463    0.00463    0.00463    0.00231
                         0.00116    0.00463    0.00463    0.00463    0.00463    0.00463
                         0.00463    0.00463    0.00231    0.00116    0.00463    0.00463
                         0.00463    0.00463    0.00463    0.00231    0.00116    0.00463
                         0.00463    0.00463    0.00231    0.00116    0.00463    0.00231
                         0.00058    0.00231    0.00926    0.00926    0.00926    0.00926
                         0.00926    0.00926
                       outvars : Printing only first  50 k-points.
           xangst1     2.9966702568E+00  2.9966702568E+00  2.9638778924E+00
                       8.9900107704E+00  8.9900107704E+00  8.8587698995E+00
                       5.9933405136E+00  5.9933405136E+00  2.6731362947E+00
                       5.9933405136E+00  5.9933405136E+00  8.9575776446E+00
                       9.0966902820E+00  5.9933405136E+00  5.9119275351E+00
                       5.9933405136E+00  9.0966902820E+00  5.9119275351E+00
                       5.9933405136E+00  2.8899907452E+00  5.9119275351E+00
                       2.8899907452E+00  5.9933405136E+00  5.9119275351E+00
                      -3.2816307763E-13 -3.2816307763E-13  5.8064184762E-02
           xangst2     2.9966702589E+00  2.9966702589E+00  2.9310140745E+00
                       8.9900107766E+00  8.9900107766E+00  8.8259060531E+00
                       5.9933405177E+00  5.9933405177E+00  2.8322063676E+00
[...]
    2      0.00000000000000    -0.00000000000000    -0.00004292411299
    3      0.00000000000000     0.00000000000000    -0.00023325714984
    4     -0.00000000000000     0.00000000000000     0.00044034561302
    5     -0.00020829677794    -0.00000000000000     0.00009369304028
    6     -0.00000000000000    -0.00020829677794     0.00009369304028
    7      0.00000000000000     0.00020829677794     0.00009369304028
    8      0.00020829677794     0.00000000000000     0.00009369304028
    9      0.00000000000000    -0.00000000000000    -0.00049601239832
 frms,max,avg= 1.6178291E-04 4.9601240E-04   0.000E+00  0.000E+00  5.615E-04 e/A
 length scales= 15.886054642000 15.886054642000 16.017060649000 bohr
              =  8.406538050962  8.406538050962  8.475863444055 angstroms
 prteigrs : about to open file Cs2TiI6o_DS2_EIG
 Fermi (or HOMO) energy (hartree) =  -0.10506   Average Vxc (hartree)=  -0.27835
 Eigenvalues (hartree) for nkpt= 163  k points:
 kpt#   1, nband= 42, wtk=  0.00058, kpt=  0.0000  0.0000  0.0000 (reduced coord)
  -1.92212   -1.11240   -1.11189   -1.11189   -0.86106   -0.86097   -0.60976   -0.52683
  -0.51293   -0.51293   -0.51047   -0.50898   -0.37756   -0.37717   -0.37717   -0.37593
  -0.37593   -0.37593   -0.23019   -0.19413   -0.19233   -0.19233   -0.18289   -0.18260
  -0.18260   -0.17671   -0.17290   -0.14021   -0.14021   -0.13145   -0.11820   -0.11775
  -0.11775   -0.10558   -0.10558   -0.10506   -0.03644   -0.03254   -0.03254    0.04160
   0.05227    0.05676
 prteigrs : prtvol=0 or 1, do not print more k-points.

--- !EnergyTerms
iteration_state     : {dtset: 2, }
comment             : Components of total free energy in Hartree
kinetic             :  4.45470132159363E+01
hartree             :  3.83706805759661E+01
xc                  : -5.86697232438778E+01
Ewald energy        : -1.12852123621125E+02
psp_core            :  1.42864759977282E+01
local_psp           : -1.09551550599735E+02
spherical_terms     :  2.30852869622817E+01
total_energy        : -1.60783940712825E+02
total_energy_eV     : -4.37515352926017E+03
...

--- !EnergyTermsDC
iteration_state     : {dtset: 2, }
comment             : '"Double-counting" decomposition of free energy'
band_energy         : -3.05443439213879E+01
Ewald energy        : -1.12852123621125E+02
psp_core            :  1.42864759977282E+01
xc_dc               : -5.58472306889104E+01
spherical_terms     :  2.41733491924028E+01
total_energy_dc     : -1.60783873041292E+02
total_energy_dc_eV  : -4.37515168782411E+03
...

 Cartesian components of stress tensor (hartree/bohr^3)
  sigma(1 1)=  1.36501895E-08  sigma(3 2)= -2.26253605E-14
  sigma(2 2)=  1.36501895E-08  sigma(3 1)= -2.26250824E-14
  sigma(3 3)=  2.16038621E-08  sigma(2 1)=  4.45075790E-14

-Cartesian components of stress tensor (GPa)         [Pressure= -4.7960E-04 GPa]
- sigma(1 1)=  4.01602371E-04  sigma(3 2)= -6.65660975E-10
- sigma(2 2)=  4.01602371E-04  sigma(3 1)= -6.65652793E-10
- sigma(3 3)=  6.35607460E-04  sigma(2 1)=  1.30945796E-09

== END DATASET(S) ==============================================================

 -outvars: echo values of variables after computation  --------
            acell1     1.5886054674E+01  1.5886054674E+01  1.6017060638E+01 Bohr
            acell2     1.5886054642E+01  1.5886054642E+01  1.6017060649E+01 Bohr
              amu      1.32905430E+02  1.26904470E+02  9.12240000E+01
                       7.99040000E+01
           diemac      1.20000000E+01
          dilatmx      1.15000000E+00
             ecut      1.60000000E+01 Hartree
           ecutsm      5.00000000E-01 Hartree
           etotal1    -1.6078387304E+02
           etotal2    -1.6078387304E+02
            fcart1     3.1248032776E-22 -5.0778621885E-23  8.5422038458E-07
                       5.6120850044E-22 -2.9950679457E-22  8.5422038458E-07
                       1.1266816094E-22  1.4903354494E-22 -8.6030968400E-06
                       3.5670062438E-22 -9.4998918502E-23  4.6246597105E-06
                      -3.9793499648E-06  2.2121720787E-17 -1.7948499271E-06
                       2.2119197639E-17 -3.9793499648E-06 -1.7948499271E-06
                      -2.2119939808E-17  3.9793499648E-06 -1.7948499271E-06
                       3.9793499648E-06 -2.2121228308E-17 -1.7948499271E-06
                       5.7545439059E-22 -3.1375268472E-22  9.4493960687E-06
            fcart2     3.7220294166E-22 -2.7424942452E-22 -8.3474116612E-07
                       1.2347476856E-22 -2.5521251412E-23 -8.3474116612E-07
                       2.5142428328E-23  7.2811088817E-23 -4.5361297342E-06
                      -1.5767010651E-22  2.5562362366E-22  8.5633594937E-06
                      -4.0507277423E-06 -1.8033167389E-17  1.8220396940E-06
                      -1.8031933541E-17 -4.0507277423E-06  1.8220396940E-06
                       1.8032966190E-17  4.0507277423E-06  1.8220396939E-06
                       4.0507277423E-06  1.8034149077E-17  1.8220396939E-06
                       1.0456914415E-22 -6.6156270100E-24 -9.6459062031E-06
-          fftalg         112
           istwfk        2    0    0    0    0    0    3    0    0    0
                         0    0    0    0    0    0    0    0    0    0
                         0    0    0    0    0    0    0    0    0    0
                         0    0    0    0    0    0    0    0    0    0
                         0    0    7    0    0    0    0    0    0    0
                       outvar_i_n : Printing only first  50 k-points.
              ixc     -101130
           jdtset        1    2
              kpt      0.00000000E+00  0.00000000E+00  0.00000000E+00
                       8.33333333E-02  0.00000000E+00  0.00000000E+00
                       1.66666667E-01  0.00000000E+00  0.00000000E+00
                       2.50000000E-01  0.00000000E+00  0.00000000E+00
                       3.33333333E-01  0.00000000E+00  0.00000000E+00
                       4.16666667E-01  0.00000000E+00  0.00000000E+00
                       5.00000000E-01  0.00000000E+00  0.00000000E+00
                       8.33333333E-02  8.33333333E-02  0.00000000E+00
                       1.66666667E-01  8.33333333E-02  0.00000000E+00
                       2.50000000E-01  8.33333333E-02  0.00000000E+00
                       3.33333333E-01  8.33333333E-02  0.00000000E+00
                       4.16666667E-01  8.33333333E-02  0.00000000E+00
                       5.00000000E-01  8.33333333E-02  0.00000000E+00
                      -4.16666667E-01  8.33333333E-02  0.00000000E+00
                      -3.33333333E-01  8.33333333E-02  0.00000000E+00
                      -2.50000000E-01  8.33333333E-02  0.00000000E+00
                      -1.66666667E-01  8.33333333E-02  0.00000000E+00
                      -8.33333333E-02  8.33333333E-02  0.00000000E+00
                       1.66666667E-01  1.66666667E-01  0.00000000E+00
                       2.50000000E-01  1.66666667E-01  0.00000000E+00
                       3.33333333E-01  1.66666667E-01  0.00000000E+00
                       4.16666667E-01  1.66666667E-01  0.00000000E+00
                       5.00000000E-01  1.66666667E-01  0.00000000E+00
                      -4.16666667E-01  1.66666667E-01  0.00000000E+00
                      -3.33333333E-01  1.66666667E-01  0.00000000E+00
                      -2.50000000E-01  1.66666667E-01  0.00000000E+00
                      -1.66666667E-01  1.66666667E-01  0.00000000E+00
                       2.50000000E-01  2.50000000E-01  0.00000000E+00
                       3.33333333E-01  2.50000000E-01  0.00000000E+00
                       4.16666667E-01  2.50000000E-01  0.00000000E+00
                       5.00000000E-01  2.50000000E-01  0.00000000E+00
                      -4.16666667E-01  2.50000000E-01  0.00000000E+00
                      -3.33333333E-01  2.50000000E-01  0.00000000E+00
                      -2.50000000E-01  2.50000000E-01  0.00000000E+00
                       3.33333333E-01  3.33333333E-01  0.00000000E+00
                       4.16666667E-01  3.33333333E-01  0.00000000E+00
                       5.00000000E-01  3.33333333E-01  0.00000000E+00
                      -4.16666667E-01  3.33333333E-01  0.00000000E+00
                      -3.33333333E-01  3.33333333E-01  0.00000000E+00
                       4.16666667E-01  4.16666667E-01  0.00000000E+00
                       5.00000000E-01  4.16666667E-01  0.00000000E+00
                      -4.16666667E-01  4.16666667E-01  0.00000000E+00
                       5.00000000E-01  5.00000000E-01  0.00000000E+00
                       8.33333333E-02  0.00000000E+00  8.33333333E-02
                       1.66666667E-01  0.00000000E+00  8.33333333E-02
                       2.50000000E-01  0.00000000E+00  8.33333333E-02
                       3.33333333E-01  0.00000000E+00  8.33333333E-02
                       4.16666667E-01  0.00000000E+00  8.33333333E-02
                       5.00000000E-01  0.00000000E+00  8.33333333E-02
                      -4.16666667E-01  0.00000000E+00  8.33333333E-02
                       outvar_i_n : Printing only first  50 k-points.
         kptrlatt       12    0    0      0   12    0      0    0   12
          kptrlen1     1.90632656E+02
          kptrlen2     1.90632656E+02
P           mkmem          28
            natom           9
            nband          42
           ndtset           2
            ngfft          72      72      72
          ngfftdg         108     108     108
             nkpt         163
            nstep        2500
             nsym           8
           ntypat           4
              occ      2.000000  2.000000  2.000000  2.000000  2.000000  2.000000
                       2.000000  2.000000  2.000000  2.000000  2.000000  2.000000
                       2.000000  2.000000  2.000000  2.000000  2.000000  2.000000
                       2.000000  2.000000  2.000000  2.000000  2.000000  2.000000
                       2.000000  2.000000  2.000000  2.000000  2.000000  2.000000
                       2.000000  2.000000  2.000000  2.000000  2.000000  2.000000
                       0.000000  0.000000  0.000000  0.000000  0.000000  0.000000
        pawecutdg      4.00000000E+01 Hartree
            prtwf           0
            rprim1     0.0000000000E+00  7.1293800910E-01  7.0122706392E-01
                       7.1293800910E-01  0.0000000000E+00  7.0122706392E-01
                       7.0710678119E-01  7.0710678119E-01  0.0000000000E+00
            rprim2     0.0000000000E+00  7.1293801104E-01  7.0122706195E-01
                       7.1293801104E-01  0.0000000000E+00  7.0122706195E-01
                       7.0710678119E-01  7.0710678119E-01  0.0000000000E+00
          spgroup         107
           strten1     1.4023978769E-08  1.4023978770E-08  2.1853017961E-08
                       2.8253014710E-14  2.8253358182E-14 -5.5578200560E-14
           strten2     1.3650189454E-08  1.3650189454E-08  2.1603862090E-08
                      -2.2625360476E-14 -2.2625082390E-14  4.4507579037E-14
           symrel      1  0  0   0  1  0   0  0  1       1  0 -1   0  1 -1   0  0 -1
                       0  1 -1   1  0 -1   0  0 -1       0  1  0   1  0  0   0  0  1
                       1  0  0   1  0 -1   1 -1  0       0  1  0   0  1 -1  -1  1  0
                       0  1 -1   0  1  0  -1  1  0       1  0 -1   1  0  0   1 -1  0
           toldfe      1.00000000E-08 Hartree
            typat1     1  1  4  2  2  2  2  2  3
            typat2     1  1  2  4  2  2  2  2  3
           useylm           1
              wtk        0.00058    0.00463    0.00463    0.00463    0.00463    0.00463
                         0.00231    0.00116    0.00463    0.00463    0.00463    0.00463
                         0.00463    0.00463    0.00463    0.00463    0.00463    0.00231
                         0.00116    0.00463    0.00463    0.00463    0.00463    0.00463
                         0.00463    0.00463    0.00231    0.00116    0.00463    0.00463
                         0.00463    0.00463    0.00463    0.00231    0.00116    0.00463
                         0.00463    0.00463    0.00231    0.00116    0.00463    0.00231
                         0.00058    0.00231    0.00926    0.00926    0.00926    0.00926
                         0.00926    0.00926
                       outvars : Printing only first  50 k-points.
           xangst1     2.9966702568E+00  2.9966702568E+00  2.9638778924E+00
                       8.9900107704E+00  8.9900107704E+00  8.8587698995E+00
                       5.9933405136E+00  5.9933405136E+00  2.6731362947E+00
                       5.9933405136E+00  5.9933405136E+00  8.9575776446E+00
                       9.0966902820E+00  5.9933405136E+00  5.9119275351E+00
                       5.9933405136E+00  9.0966902820E+00  5.9119275351E+00
                       5.9933405136E+00  2.8899907452E+00  5.9119275351E+00
                       2.8899907452E+00  5.9933405136E+00  5.9119275351E+00
                      -3.2816307763E-13 -3.2816307763E-13  5.8064184762E-02
           xangst2     2.9966702589E+00  2.9966702589E+00  2.9310140745E+00
                       8.9900107766E+00  8.9900107766E+00  8.8259060531E+00
                       5.9933405177E+00  5.9933405177E+00  2.8322063676E+00
                       5.9933405178E+00  5.9933405178E+00  9.1166476721E+00
                       9.0966902909E+00  5.9933405177E+00  5.8778564614E+00
                       5.9933405177E+00  9.0966902909E+00  5.8778564614E+00
                       5.9933405178E+00  2.8899907446E+00  5.8778564614E+00
                       2.8899907446E+00  5.9933405178E+00  5.8778564614E+00
                      -2.6278842704E-13 -2.6278842704E-13 -5.8064183662E-02
            xcart1     5.6628860959E+00  5.6628860959E+00  5.6009175079E+00
                       1.6988658288E+01  1.6988658288E+01  1.6740648984E+01
                       1.1325772192E+01  1.1325772192E+01  5.0514955129E+00
                       1.1325772192E+01  1.1325772192E+01  1.6927368562E+01
                       1.7190253349E+01  1.1325772192E+01  1.1171923959E+01
                       1.1325772192E+01  1.7190253349E+01  1.1171923959E+01
                       1.1325772192E+01  5.4612910349E+00  1.1171923959E+01
                       5.4612910349E+00  1.1325772192E+01  1.1171923959E+01
                      -6.2013834365E-13 -6.2013834365E-13  1.0972540733E-01
            xcart2     5.6628860998E+00  5.6628860998E+00  5.5388138924E+00
                       1.6988658300E+01  1.6988658300E+01  1.6678545315E+01
                       1.1325772200E+01  1.1325772200E+01  5.3520943865E+00
                       1.1325772200E+01  1.1325772200E+01  1.7227967350E+01
                       1.7190253366E+01  1.1325772200E+01  1.1107538960E+01
                       1.1325772200E+01  1.7190253366E+01  1.1107538960E+01
                       1.1325772200E+01  5.4612910339E+00  1.1107538960E+01
                       5.4612910339E+00  1.1325772200E+01  1.1107538960E+01
                      -4.9659815801E-13 -4.9659815801E-13 -1.0972540525E-01
             xred1     2.5139373960E-01  2.5139373960E-01  2.4860626040E-01
                       7.5139373960E-01  7.5139373960E-01  7.4860626040E-01
                       2.2673327107E-01  2.2673327107E-01  7.7326672893E-01
                       7.5977453309E-01  7.5977453309E-01  2.4022546691E-01
                       2.4254510243E-01  7.6034477715E-01  7.5745489757E-01
                       7.6034477715E-01  2.4254510243E-01  7.5745489757E-01
                       2.4254510243E-01  7.6034477715E-01  2.3965522285E-01
                       7.6034477715E-01  2.4254510243E-01  2.3965522285E-01
                       4.9249574625E-03  4.9249574625E-03 -4.9249574625E-03
             xred2     2.4860625819E-01  2.4860625819E-01  2.5139374181E-01
                       7.4860625819E-01  7.4860625819E-01  7.5139374181E-01
                       2.4022546790E-01  2.4022546790E-01  7.5977453210E-01
                       7.7326672865E-01  7.7326672865E-01  2.2673327135E-01
                       2.3965522354E-01  7.5745489869E-01  7.6034477646E-01
                       7.5745489869E-01  2.3965522354E-01  7.6034477646E-01
                       2.3965522354E-01  7.5745489869E-01  2.4254510131E-01
                       7.5745489869E-01  2.3965522354E-01  2.4254510131E-01
                      -4.9249573930E-03 -4.9249573930E-03  4.9249573930E-03
            znucl       55.00000   53.00000   40.00000   35.00000

- Timing analysis has been suppressed with timopt=0

 Suggested references for the acknowledgment of ABINIT usage.

 Calculation completed.
.Delivered   0 WARNINGs and   2 COMMENTs to log file.