.Version 9.2.2 of ABINIT

 ABINIT is a project of the Universite Catholique de Louvain,
 Corning Inc. and other collaborators, see ~abinit/doc/developers/contributors.txt .
 acknowledgments of the ABINIT effort.

.Starting date : Sun  2 Oct 2022.
- ( at 10h01 )

- input  file    -> Cs2TiI6.in
- output file    -> Cs2TiI6.out
- root for input  files -> Cs2TiI6i
- root for output files -> Cs2TiI6o

- inpspheads : Reading pseudopotential header in XML form from
-   ../../../Psps_for_tests/ATOMICDATA/Cs.GGA_PBE-JTH.xml
- inpspheads : Reading pseudopotential header in XML form from
-   ../../../Psps_for_tests/ATOMICDATA/I.GGA_PBE-JTH.xml
- inpspheads : Reading pseudopotential header in XML form from
-   ../../../Psps_for_tests/ATOMICDATA/Hf.GGA_PBE-JTH.xml
- inpspheads : Reading pseudopotential header in XML form from
-   ../../../Psps_for_tests/ATOMICDATA/Br.GGA_PBE-JTH.xml

 Symmetries : space group Fm m 2 (# 42); Bravais oF (face-center ortho.)
     intxc =       0    ionmov =       0      iscf =      17    lmnmax =      18
     lnmax =       6     mgfft =      60  mpssoang =       3    mqgrid =    3627
     natom =       9  nloc_mem =       2    nspden =       1   nspinor =       1
    nsppol =       1      nsym =       4    n1xccc =       1    ntypat =       4
    occopt =       1   xclevel =       2
-    mband =          42        mffmem =           1         mkmem =          47
       mpw =        8243          nfft =      216000          nkpt =         280
Pmy_natom=         2
 PAW method is used; the additional fine FFT grid is defined by:
   mgfftf=        90    nfftf =    729000
  Rough estimation (10% accuracy) of disk space for files :

------------- Echo of variables that govern the present computation ------------
-
- outvars: echo of selected default values
-   iomode0 =  0 , fftalg0 =112 , wfoptalg0 = 10
-
- outvars: echo of global parameters not present in the input file
-  max_nthreads =    0
-
 -outvars: echo values of preprocessed input variables --------
            acell      1.5546298368E+01  1.5720170163E+01  1.5547594142E+01 Bohr
              amu      1.32905430E+02  1.26904470E+02  1.78490000E+02
                       7.99040000E+01
           diemac      1.20000000E+01
             ecut      1.60000000E+01 Hartree
-          fftalg         112
           istwfk        2    0    0    0    0    0    3    0    0    0
                         0    0    0    0    0    0    0    0    0    0
                         0    0    0    0    0    0    0    0    0    0
                         0    0    0    0    0    0    0    0    0    0
                         0    0    7    0    0    0    0    0    0    0
                       outvar_i_n : Printing only first  50 k-points.
              ixc     -101130
              kpt      0.00000000E+00  0.00000000E+00  0.00000000E+00
                       8.33333333E-02  0.00000000E+00  0.00000000E+00
                       1.66666667E-01  0.00000000E+00  0.00000000E+00
                       2.50000000E-01  0.00000000E+00  0.00000000E+00
                       3.33333333E-01  0.00000000E+00  0.00000000E+00
                       4.16666667E-01  0.00000000E+00  0.00000000E+00
                       5.00000000E-01  0.00000000E+00  0.00000000E+00
                       8.33333333E-02  8.33333333E-02  0.00000000E+00
                       1.66666667E-01  8.33333333E-02  0.00000000E+00
                       2.50000000E-01  8.33333333E-02  0.00000000E+00
                       3.33333333E-01  8.33333333E-02  0.00000000E+00
                       4.16666667E-01  8.33333333E-02  0.00000000E+00
                       5.00000000E-01  8.33333333E-02  0.00000000E+00
                      -4.16666667E-01  8.33333333E-02  0.00000000E+00
                      -3.33333333E-01  8.33333333E-02  0.00000000E+00
                      -2.50000000E-01  8.33333333E-02  0.00000000E+00
                      -1.66666667E-01  8.33333333E-02  0.00000000E+00
                      -8.33333333E-02  8.33333333E-02  0.00000000E+00
                       1.66666667E-01  1.66666667E-01  0.00000000E+00
                       2.50000000E-01  1.66666667E-01  0.00000000E+00
                       3.33333333E-01  1.66666667E-01  0.00000000E+00
                       4.16666667E-01  1.66666667E-01  0.00000000E+00
                       5.00000000E-01  1.66666667E-01  0.00000000E+00
                      -4.16666667E-01  1.66666667E-01  0.00000000E+00
                      -3.33333333E-01  1.66666667E-01  0.00000000E+00
                      -2.50000000E-01  1.66666667E-01  0.00000000E+00
                      -1.66666667E-01  1.66666667E-01  0.00000000E+00
                       2.50000000E-01  2.50000000E-01  0.00000000E+00
                       3.33333333E-01  2.50000000E-01  0.00000000E+00
                       4.16666667E-01  2.50000000E-01  0.00000000E+00
                       5.00000000E-01  2.50000000E-01  0.00000000E+00
                      -4.16666667E-01  2.50000000E-01  0.00000000E+00
                      -3.33333333E-01  2.50000000E-01  0.00000000E+00
                      -2.50000000E-01  2.50000000E-01  0.00000000E+00
                       3.33333333E-01  3.33333333E-01  0.00000000E+00
                       4.16666667E-01  3.33333333E-01  0.00000000E+00
                       5.00000000E-01  3.33333333E-01  0.00000000E+00
                      -4.16666667E-01  3.33333333E-01  0.00000000E+00
                      -3.33333333E-01  3.33333333E-01  0.00000000E+00
                       4.16666667E-01  4.16666667E-01  0.00000000E+00
                       5.00000000E-01  4.16666667E-01  0.00000000E+00
                      -4.16666667E-01  4.16666667E-01  0.00000000E+00
                       5.00000000E-01  5.00000000E-01  0.00000000E+00
                       8.33333333E-02  0.00000000E+00  8.33333333E-02
                       1.66666667E-01  0.00000000E+00  8.33333333E-02
                       2.50000000E-01  0.00000000E+00  8.33333333E-02
                       3.33333333E-01  0.00000000E+00  8.33333333E-02
                       4.16666667E-01  0.00000000E+00  8.33333333E-02
                       5.00000000E-01  0.00000000E+00  8.33333333E-02
                      -4.16666667E-01  0.00000000E+00  8.33333333E-02
                       outvar_i_n : Printing only first  50 k-points.
         kptrlatt       12    0    0      0   12    0      0    0   12
          kptrlen      1.86555580E+02
P           mkmem          47
            natom           9
            nband          42
            ngfft          60      60      60
          ngfftdg          90      90      90
             nkpt         280
            nstep        2500
             nsym           4
           ntypat           4
              occ      2.000000  2.000000  2.000000  2.000000  2.000000  2.000000
                       2.000000  2.000000  2.000000  2.000000  2.000000  2.000000
                       2.000000  2.000000  2.000000  2.000000  2.000000  2.000000
                       2.000000  2.000000  2.000000  2.000000  2.000000  2.000000
                       2.000000  2.000000  2.000000  2.000000  2.000000  2.000000
                       2.000000  2.000000  2.000000  2.000000  2.000000  2.000000
                       0.000000  0.000000  0.000000  0.000000  0.000000  0.000000
        pawecutdg      4.00000000E+01 Hartree
            prtwf           0
            rprim      0.0000000000E+00  6.9916856495E-01  7.1495686428E-01
                       7.0716442159E-01  0.0000000000E+00  7.0704913608E-01
                       7.1501384324E-01  6.9911029457E-01  0.0000000000E+00
          spgroup          42
           symrel      1  0  0   0  1  0   0  0  1       1  0  0   1  0 -1   1 -1  0
                       0  1 -1   1  0 -1   0  0 -1       0  1 -1   0  1  0  -1  1  0
           toldfe      1.00000000E-08 Hartree
            typat      1  1  4  4  2  4  2  2  3
           useylm           1
              wtk        0.00058    0.00463    0.00463    0.00463    0.00463    0.00463
                         0.00231    0.00116    0.00463    0.00463    0.00463    0.00463
                         0.00463    0.00463    0.00463    0.00463    0.00463    0.00231
                         0.00116    0.00463    0.00463    0.00463    0.00463    0.00463
                         0.00463    0.00463    0.00231    0.00116    0.00463    0.00463
                         0.00463    0.00463    0.00463    0.00231    0.00116    0.00463
                         0.00463    0.00463    0.00231    0.00116    0.00463    0.00231
                         0.00058    0.00116    0.00463    0.00463    0.00463    0.00463
                         0.00463    0.00463
                       outvars : Printing only first  50 k-points.
           xangst      2.9413640546E+00  2.8759413682E+00  2.9501663699E+00
                       8.8240921638E+00  8.6278241047E+00  8.8319354470E+00
                       5.8827281092E+00  8.8948158823E+00  5.9102604073E+00
                       5.8827281092E+00  5.7518827365E+00  2.6703804346E+00
                       5.8827281092E+00  5.7518827364E+00  8.9344583670E+00
                       5.8827281092E+00  2.6089495905E+00  5.9102604074E+00
                       8.8830902250E+00  5.7518827365E+00  5.8925283404E+00
                       2.8823659934E+00  5.7518827364E+00  5.8925283403E+00
                       1.9807351140E-14 -6.3586985244E-13  6.1634502656E-02
            xcart      5.5583725203E+00  5.4347415602E+00  5.5750064855E+00
                       1.6675117561E+01  1.6304224681E+01  1.6689939218E+01
                       1.1116745041E+01  1.6808766020E+01  1.1168773544E+01
                       1.1116745041E+01  1.0869483120E+01  5.0462876920E+00
                       1.1116745041E+01  1.0869483120E+01  1.6883679459E+01
                       1.1116745041E+01  4.9302002206E+00  1.1168773544E+01
                       1.6786607739E+01  1.0869483120E+01  1.1135264794E+01
                       5.4468823423E+00  1.0869483120E+01  1.1135264793E+01
                       3.7430469072E-14 -1.2016198773E-12  1.1647233036E-01
             xred      2.5078903398E-01  2.5078903398E-01  2.4921096602E-01
                       7.5078903398E-01  7.5078903398E-01  7.4921096602E-01
                       7.7563108039E-01  2.2921292656E-01  7.7078707344E-01
                       2.2700486874E-01  2.2700486874E-01  7.7299513126E-01
                       7.5950434724E-01  7.5950434724E-01  2.4049565276E-01
                       2.2921292656E-01  7.7563108039E-01  2.2436891961E-01
                       2.4590011278E-01  7.5592914354E-01  7.5409988722E-01
                       7.5592914354E-01  2.4590011278E-01  2.4407085646E-01
                       5.2394527776E-03  5.2394527776E-03 -5.2394527776E-03
            znucl       55.00000   53.00000   72.00000   35.00000

 chkinp: Checking input parameters for consistency.

== DATASET  1 ==================================================================
-   mpi_nproc: 6, omp_nthreads: -1 (-1 if OMP is not activated)

--- !DatasetInfo
iteration_state: {dtset: 1, }
[...]
   0.00000   0.00000   0.00000   0.00000  -0.06624   0.00000   0.00000   1.11608   0.00000   0.00000   0.00000  -0.01788 ...
   0.00000   0.00000   0.00000   0.00000   0.00000   0.00000   0.00000   0.00000   0.45664   0.00000   0.00000   0.00000 ...
   0.00000   0.00000   0.00077   0.00000   0.00000  -0.01518   0.00000   0.00000   0.00000   0.47813   0.00000   0.00000 ...
  -0.00028  -0.00298   0.00000   0.00092   0.00000   0.00000   0.10718   0.00000   0.00000   0.00000   1.39194   0.00000 ...
   0.00000   0.00000   0.00000   0.00000   0.00085   0.00000   0.00000  -0.01788   0.00000   0.00000   0.00000   0.42904 ...
   ...  only 12  components have been written...

 ----iterations are completed or convergence reached----

 Mean square residual over all n,k,spin=   12.114E-07; max=  92.569E-05
 reduced coordinates (array xred) for    9 atoms
       0.250789033980      0.250789033980      0.249210966020
       0.750789033980      0.750789033980      0.749210966020
       0.775631080390      0.229212926560      0.770787073440
       0.227004868740      0.227004868740      0.772995131260
       0.759504347240      0.759504347240      0.240495652760
       0.229212926560      0.775631080390      0.224368919610
       0.245900112780      0.755929143540      0.754099887220
       0.755929143540      0.245900112780      0.244070856460
       0.005239452778      0.005239452778     -0.005239452778
 rms dE/dt=  1.0691E-04; max dE/dt=  1.5907E-04; dE/dt below (all hartree)
    1      -0.000108998732     -0.000108998732      0.000000000000
    2      -0.000108998732     -0.000108998732      0.000000000000
    3      -0.000027970831      0.000009941069     -0.000037911900
    4      -0.000041705649     -0.000041705649      0.000000000000
    5       0.000159068884      0.000159068884      0.000000000000
    6       0.000047852969      0.000009941069      0.000037911900
    7      -0.000213529281     -0.000201094924      0.000012434357
    8      -0.000213529281     -0.000225963638     -0.000012434357
    9       0.000094537932      0.000094537932      0.000000000000

 cartesian coordinates (angstrom) at end:
    1      2.94136405459855     2.87594136822237     2.95016636987036
    2      8.82409216379565     8.62782410466729     8.83193544695375
    3      5.88272810919607     8.89481588233951     5.91026040730845
    4      5.88272810919606     5.75188273647805     2.67038043460461
    5      5.88272810919808     5.75188273641343     8.93445836701327
    6      5.88272810919814     2.60894959054975     5.91026040743370
    7      8.88309022495550     5.75188273647576     5.89252834039888
    8      2.88236599343870     5.75188273641386     5.89252834028197
    9      0.00000000000002    -0.00000000000064     0.06163450265625

 cartesian forces (hartree/bohr) at end:
    1     -0.00000000000000     0.00000000000000     0.00000567520667
    2     -0.00000000000000     0.00000000000000     0.00000567520667
    3      0.00000000000000     0.00000348792114    -0.00000502569481
    4      0.00000000000000    -0.00000000000000    -0.00000037908843
    5      0.00000000000000    -0.00000000000000    -0.00001844258349
    6      0.00000000000000    -0.00000348792114    -0.00000502569481
    7     -0.00000111852500     0.00000000000000     0.00001507972146
    8      0.00000111852499     0.00000000000000     0.00001507972146
    9      0.00000000000000    -0.00000000000000    -0.00001263679473
 frms,max,avg= 6.3727479E-06 1.8442583E-05   0.000E+00  0.000E+00  4.131E-06 h/b

 cartesian forces (eV/Angstrom) at end:
    1     -0.00000000000001     0.00000000000001     0.00029183083619
    2     -0.00000000000001     0.00000000000001     0.00029183083619
    3      0.00000000000000     0.00017935610151    -0.00025843159627
    4      0.00000000000000    -0.00000000000000    -0.00001949350899
    5      0.00000000000002    -0.00000000000002    -0.00094835569349
    6      0.00000000000001    -0.00017935610152    -0.00025843159627
    7     -0.00005751686298     0.00000000000002     0.00077543039001
    8      0.00005751686295     0.00000000000002     0.00077543039001
    9      0.00000000000001    -0.00000000000001    -0.00064981005738
 frms,max,avg= 3.2769984E-04 9.4835569E-04   0.000E+00  0.000E+00  2.124E-04 e/A
 length scales= 15.546298368000 15.720170163000 15.547594142000 bohr
              =  8.226746774286  8.318755765416  8.227432468354 angstroms
 prteigrs : about to open file Cs2TiI6o_EIG
 Fermi (or HOMO) energy (hartree) =  -0.10440   Average Vxc (hartree)=  -0.28000
 Eigenvalues (hartree) for nkpt= 280  k points:
 kpt#   1, nband= 42, wtk=  0.00058, kpt=  0.0000  0.0000  0.0000 (reduced coord)
  -2.40368   -1.24745   -1.24732   -1.24729   -0.85825   -0.85813   -0.61547   -0.60698
  -0.60432   -0.52056   -0.51304   -0.50890   -0.37550   -0.37488   -0.37473   -0.37333
  -0.37331   -0.37330   -0.25050   -0.20307   -0.20086   -0.19470   -0.19453   -0.19300
  -0.19029   -0.18722   -0.17560   -0.15000   -0.14536   -0.14472   -0.12708   -0.12368
  -0.11965   -0.11759   -0.11550   -0.10440   -0.01695   -0.01243   -0.00868    0.04188
   0.06019    0.06755
 prteigrs : prtvol=0 or 1, do not print more k-points.

--- !EnergyTerms
iteration_state     : {dtset: 1, }
comment             : Components of total free energy in Hartree
kinetic             :  4.02841461295820E+01
hartree             :  3.98931209767172E+01
xc                  : -6.40466723185522E+01
Ewald energy        : -1.13771793209057E+02
psp_core            :  1.43606143117778E+01
local_psp           : -8.45748761564685E+01
spherical_terms     :  6.28064826083932E-01
total_energy        : -1.67227395439917E+02
total_energy_eV     : -4.55048884922359E+03
...

--- !EnergyTermsDC
iteration_state     : {dtset: 1, }
comment             : '"Double-counting" decomposition of free energy'
band_energy         : -3.29452408847432E+01
Ewald energy        : -1.13771793209057E+02
psp_core            :  1.43606143117778E+01
xc_dc               : -6.52925117779499E+01
spherical_terms     :  3.04215813490082E+01
total_energy_dc     : -1.67227350210964E+02
total_energy_dc_eV  : -4.55048761848119E+03
...

 Cartesian components of stress tensor (hartree/bohr^3)
  sigma(1 1)=  3.67860457E-06  sigma(3 2)=  1.61796865E-13
  sigma(2 2)=  3.61911836E-06  sigma(3 1)= -1.05952427E-13
  sigma(3 3)=  3.61490385E-06  sigma(2 1)= -5.34258318E-14

-Cartesian components of stress tensor (GPa)         [Pressure= -1.0702E-01 GPa]
- sigma(1 1)=  1.08228265E-01  sigma(3 2)=  4.76022730E-09
- sigma(2 2)=  1.06478120E-01  sigma(3 1)= -3.11722749E-09
- sigma(3 3)=  1.06354125E-01  sigma(2 1)= -1.57184197E-09

== END DATASET(S) ==============================================================

 -outvars: echo values of variables after computation  --------
            acell      1.5546298368E+01  1.5720170163E+01  1.5547594142E+01 Bohr
              amu      1.32905430E+02  1.26904470E+02  1.78490000E+02
                       7.99040000E+01
           diemac      1.20000000E+01
             ecut      1.60000000E+01 Hartree
           etotal     -1.6722735021E+02
            fcart     -1.1057166047E-16  1.1308717103E-16  5.6752066735E-06
                      -1.1057081344E-16  1.1308632400E-16  5.6752066735E-06
                       6.1938267345E-17  3.4879211446E-06 -5.0256948132E-06
                       7.3856080226E-18 -7.5536106740E-18 -3.7908842593E-07
                       3.5932108208E-16 -3.6749432098E-16 -1.8442583487E-05
                       1.3389467302E-16 -3.4879211448E-06 -5.0256948133E-06
                      -1.1185249950E-06  3.0011831010E-16  1.5079721463E-05
                       1.1185249944E-06  3.0085065721E-16  1.5079721463E-05
                       2.4620650449E-16 -2.5180666051E-16 -1.2636794734E-05
-          fftalg         112
           istwfk        2    0    0    0    0    0    3    0    0    0
                         0    0    0    0    0    0    0    0    0    0
                         0    0    0    0    0    0    0    0    0    0
                         0    0    0    0    0    0    0    0    0    0
                         0    0    7    0    0    0    0    0    0    0
                       outvar_i_n : Printing only first  50 k-points.
              ixc     -101130
              kpt      0.00000000E+00  0.00000000E+00  0.00000000E+00
                       8.33333333E-02  0.00000000E+00  0.00000000E+00
                       1.66666667E-01  0.00000000E+00  0.00000000E+00
                       2.50000000E-01  0.00000000E+00  0.00000000E+00
                       3.33333333E-01  0.00000000E+00  0.00000000E+00
                       4.16666667E-01  0.00000000E+00  0.00000000E+00
                       5.00000000E-01  0.00000000E+00  0.00000000E+00
                       8.33333333E-02  8.33333333E-02  0.00000000E+00
                       1.66666667E-01  8.33333333E-02  0.00000000E+00
                       2.50000000E-01  8.33333333E-02  0.00000000E+00
                       3.33333333E-01  8.33333333E-02  0.00000000E+00
                       4.16666667E-01  8.33333333E-02  0.00000000E+00
                       5.00000000E-01  8.33333333E-02  0.00000000E+00
                      -4.16666667E-01  8.33333333E-02  0.00000000E+00
                      -3.33333333E-01  8.33333333E-02  0.00000000E+00
                      -2.50000000E-01  8.33333333E-02  0.00000000E+00
                      -1.66666667E-01  8.33333333E-02  0.00000000E+00
                      -8.33333333E-02  8.33333333E-02  0.00000000E+00
                       1.66666667E-01  1.66666667E-01  0.00000000E+00
                       2.50000000E-01  1.66666667E-01  0.00000000E+00
                       3.33333333E-01  1.66666667E-01  0.00000000E+00
                       4.16666667E-01  1.66666667E-01  0.00000000E+00
                       5.00000000E-01  1.66666667E-01  0.00000000E+00
                      -4.16666667E-01  1.66666667E-01  0.00000000E+00
                      -3.33333333E-01  1.66666667E-01  0.00000000E+00
                      -2.50000000E-01  1.66666667E-01  0.00000000E+00
                      -1.66666667E-01  1.66666667E-01  0.00000000E+00
                       2.50000000E-01  2.50000000E-01  0.00000000E+00
                       3.33333333E-01  2.50000000E-01  0.00000000E+00
                       4.16666667E-01  2.50000000E-01  0.00000000E+00
                       5.00000000E-01  2.50000000E-01  0.00000000E+00
                      -4.16666667E-01  2.50000000E-01  0.00000000E+00
                      -3.33333333E-01  2.50000000E-01  0.00000000E+00
                      -2.50000000E-01  2.50000000E-01  0.00000000E+00
                       3.33333333E-01  3.33333333E-01  0.00000000E+00
                       4.16666667E-01  3.33333333E-01  0.00000000E+00
                       5.00000000E-01  3.33333333E-01  0.00000000E+00
                      -4.16666667E-01  3.33333333E-01  0.00000000E+00
                      -3.33333333E-01  3.33333333E-01  0.00000000E+00
                       4.16666667E-01  4.16666667E-01  0.00000000E+00
                       5.00000000E-01  4.16666667E-01  0.00000000E+00
                      -4.16666667E-01  4.16666667E-01  0.00000000E+00
                       5.00000000E-01  5.00000000E-01  0.00000000E+00
                       8.33333333E-02  0.00000000E+00  8.33333333E-02
                       1.66666667E-01  0.00000000E+00  8.33333333E-02
                       2.50000000E-01  0.00000000E+00  8.33333333E-02
                       3.33333333E-01  0.00000000E+00  8.33333333E-02
                       4.16666667E-01  0.00000000E+00  8.33333333E-02
                       5.00000000E-01  0.00000000E+00  8.33333333E-02
                      -4.16666667E-01  0.00000000E+00  8.33333333E-02
                       outvar_i_n : Printing only first  50 k-points.
         kptrlatt       12    0    0      0   12    0      0    0   12
          kptrlen      1.86555580E+02
P           mkmem          47
            natom           9
            nband          42
            ngfft          60      60      60
          ngfftdg          90      90      90
             nkpt         280
            nstep        2500
             nsym           4
           ntypat           4
              occ      2.000000  2.000000  2.000000  2.000000  2.000000  2.000000
                       2.000000  2.000000  2.000000  2.000000  2.000000  2.000000
                       2.000000  2.000000  2.000000  2.000000  2.000000  2.000000
                       2.000000  2.000000  2.000000  2.000000  2.000000  2.000000
                       2.000000  2.000000  2.000000  2.000000  2.000000  2.000000
                       2.000000  2.000000  2.000000  2.000000  2.000000  2.000000
                       0.000000  0.000000  0.000000  0.000000  0.000000  0.000000
        pawecutdg      4.00000000E+01 Hartree
            prtwf           0
            rprim      0.0000000000E+00  6.9916856495E-01  7.1495686428E-01
                       7.0716442159E-01  0.0000000000E+00  7.0704913608E-01
                       7.1501384324E-01  6.9911029457E-01  0.0000000000E+00
          spgroup          42
           strten      3.6786045687E-06  3.6191183599E-06  3.6149038457E-06
                       1.6179686456E-13 -1.0595242672E-13 -5.3425831805E-14
           symrel      1  0  0   0  1  0   0  0  1       1  0  0   1  0 -1   1 -1  0
                       0  1 -1   1  0 -1   0  0 -1       0  1 -1   0  1  0  -1  1  0
           toldfe      1.00000000E-08 Hartree
            typat      1  1  4  4  2  4  2  2  3
           useylm           1
              wtk        0.00058    0.00463    0.00463    0.00463    0.00463    0.00463
                         0.00231    0.00116    0.00463    0.00463    0.00463    0.00463
                         0.00463    0.00463    0.00463    0.00463    0.00463    0.00231
                         0.00116    0.00463    0.00463    0.00463    0.00463    0.00463
                         0.00463    0.00463    0.00231    0.00116    0.00463    0.00463
                         0.00463    0.00463    0.00463    0.00231    0.00116    0.00463
                         0.00463    0.00463    0.00231    0.00116    0.00463    0.00231
                         0.00058    0.00116    0.00463    0.00463    0.00463    0.00463
                         0.00463    0.00463
                       outvars : Printing only first  50 k-points.
           xangst      2.9413640546E+00  2.8759413682E+00  2.9501663699E+00
                       8.8240921638E+00  8.6278241047E+00  8.8319354470E+00
                       5.8827281092E+00  8.8948158823E+00  5.9102604073E+00
                       5.8827281092E+00  5.7518827365E+00  2.6703804346E+00
                       5.8827281092E+00  5.7518827364E+00  8.9344583670E+00
                       5.8827281092E+00  2.6089495905E+00  5.9102604074E+00
                       8.8830902250E+00  5.7518827365E+00  5.8925283404E+00
                       2.8823659934E+00  5.7518827364E+00  5.8925283403E+00
                       1.9807351140E-14 -6.3586985244E-13  6.1634502656E-02
            xcart      5.5583725203E+00  5.4347415602E+00  5.5750064855E+00
                       1.6675117561E+01  1.6304224681E+01  1.6689939218E+01
                       1.1116745041E+01  1.6808766020E+01  1.1168773544E+01
                       1.1116745041E+01  1.0869483120E+01  5.0462876920E+00
                       1.1116745041E+01  1.0869483120E+01  1.6883679459E+01
                       1.1116745041E+01  4.9302002206E+00  1.1168773544E+01
                       1.6786607739E+01  1.0869483120E+01  1.1135264794E+01
                       5.4468823423E+00  1.0869483120E+01  1.1135264793E+01
                       3.7430469072E-14 -1.2016198773E-12  1.1647233036E-01
             xred      2.5078903398E-01  2.5078903398E-01  2.4921096602E-01
                       7.5078903398E-01  7.5078903398E-01  7.4921096602E-01
                       7.7563108039E-01  2.2921292656E-01  7.7078707344E-01
                       2.2700486874E-01  2.2700486874E-01  7.7299513126E-01
                       7.5950434724E-01  7.5950434724E-01  2.4049565276E-01
                       2.2921292656E-01  7.7563108039E-01  2.2436891961E-01
                       2.4590011278E-01  7.5592914354E-01  7.5409988722E-01
                       7.5592914354E-01  2.4590011278E-01  2.4407085646E-01
                       5.2394527776E-03  5.2394527776E-03 -5.2394527776E-03
            znucl       55.00000   53.00000   72.00000   35.00000

- Timing analysis has been suppressed with timopt=0

 Suggested references for the acknowledgment of ABINIT usage.

 Calculation completed.
.Delivered   0 WARNINGs and   0 COMMENTs to log file.