.Version 9.2.2 of ABINIT

 ABINIT is a project of the Universite Catholique de Louvain,
 Corning Inc. and other collaborators, see ~abinit/doc/developers/contributors.txt .
 acknowledgments of the ABINIT effort.

.Starting date : Thu 27 Oct 2022.
- ( at 20h48 )

- input  file    -> Cs2TiI6.in
- output file    -> Cs2TiI6.out
- root for input  files -> Cs2TiI6i
- root for output files -> Cs2TiI6o

- inpspheads : Reading pseudopotential header in XML form from
-   ../../../Psps_for_tests/ATOMICDATA/Cs.GGA_PBE-JTH.xml
- inpspheads : Reading pseudopotential header in XML form from
-   ../../../Psps_for_tests/ATOMICDATA/I.GGA_PBE-JTH.xml
- inpspheads : Reading pseudopotential header in XML form from
-   ../../../Psps_for_tests/ATOMICDATA/Hf.GGA_PBE-JTH.xml
- inpspheads : Reading pseudopotential header in XML form from
-   ../../../Psps_for_tests/ATOMICDATA/Cl.GGA_PBE-JTH.xml

 DATASET    1 : space group Fm m 2 (# 42); Bravais oF (face-center ortho.)
     intxc =       0    ionmov =       0      iscf =      17    lmnmax =      18
     lnmax =       6     mgfft =      60  mpssoang =       3    mqgrid =    3553
     natom =       9  nloc_mem =       2    nspden =       1   nspinor =       1
    nsppol =       1      nsym =       4    n1xccc =       1    ntypat =       4
    occopt =       1   xclevel =       2
-    mband =          42        mffmem =           1         mkmem =          47
       mpw =        7756          nfft =      216000          nkpt =         280
Pmy_natom=         2
 PAW method is used; the additional fine FFT grid is defined by:
   mgfftf=        90    nfftf =    729000
  Rough estimation (10% accuracy) of disk space for files :

[...]

 DATASET   10 : space group Fm m 2 (# 42); Bravais oF (face-center ortho.)
     intxc =       0    ionmov =       0      iscf =      17    lmnmax =      18
     lnmax =       6     mgfft =      54  mpssoang =       3    mqgrid =    3229
     natom =       9  nloc_mem =       2    nspden =       1   nspinor =       1
    nsppol =       1      nsym =       4    n1xccc =       1    ntypat =       4
    occopt =       1   xclevel =       2
-    mband =          42        mffmem =           1         mkmem =          47
       mpw =        5839          nfft =      157464          nkpt =         280
Pmy_natom=         2
 PAW method is used; the additional fine FFT grid is defined by:
   mgfftf=        90    nfftf =    729000
  Rough estimation (10% accuracy) of disk space for files :

------------- Echo of variables that govern the present computation ------------
-
- outvars: echo of selected default values
-   iomode0 =  0 , fftalg0 =112 , wfoptalg0 = 10
-
- outvars: echo of global parameters not present in the input file
-  max_nthreads =    0
-
 -outvars: echo values of preprocessed input variables --------
            acell1     1.5266727088E+01  1.5449777188E+01  1.5148408677E+01 Bohr
            acell2     1.5127359482E+01  1.5293767345E+01  1.4981302708E+01 Bohr
            acell3     1.4994767480E+01  1.5124452400E+01  1.4819568386E+01 Bohr
            acell4     1.4850533646E+01  1.4971739989E+01  1.4654450256E+01 Bohr
            acell5     1.4703868271E+01  1.4814055998E+01  1.4495931788E+01 Bohr
            acell6     1.4556848852E+01  1.4660113257E+01  1.4334565525E+01 Bohr
            acell7     1.4405315718E+01  1.4508295419E+01  1.4175515829E+01 Bohr
            acell8     1.4246690753E+01  1.4359518451E+01  1.4020310793E+01 Bohr
            acell9     1.4084422820E+01  1.4209983931E+01  1.3869085580E+01 Bohr
            acell10    1.3922526097E+01  1.4061524510E+01  1.3716666042E+01 Bohr
              amu      1.32905430E+02  1.26904470E+02  1.78490000E+02
                       3.54527000E+01
           diemac      1.20000000E+01
             ecut      1.60000000E+01 Hartree
-          fftalg         112
           istwfk        2    0    0    0    0    0    3    0    0    0
                         0    0    0    0    0    0    0    0    0    0
                         0    0    0    0    0    0    0    0    0    0
                         0    0    0    0    0    0    0    0    0    0
                         0    0    7    0    0    0    0    0    0    0
                       outvar_i_n : Printing only first  50 k-points.
              ixc     -101130
           jdtset        1    2    3    4    5    6    7    8    9   10
              kpt      0.00000000E+00  0.00000000E+00  0.00000000E+00
                       8.33333333E-02  0.00000000E+00  0.00000000E+00
                       1.66666667E-01  0.00000000E+00  0.00000000E+00
                       2.50000000E-01  0.00000000E+00  0.00000000E+00
                       3.33333333E-01  0.00000000E+00  0.00000000E+00
                       4.16666667E-01  0.00000000E+00  0.00000000E+00
                       5.00000000E-01  0.00000000E+00  0.00000000E+00
                       8.33333333E-02  8.33333333E-02  0.00000000E+00
                       1.66666667E-01  8.33333333E-02  0.00000000E+00
                       2.50000000E-01  8.33333333E-02  0.00000000E+00
                       3.33333333E-01  8.33333333E-02  0.00000000E+00
                       4.16666667E-01  8.33333333E-02  0.00000000E+00
                       5.00000000E-01  8.33333333E-02  0.00000000E+00
                      -4.16666667E-01  8.33333333E-02  0.00000000E+00
                      -3.33333333E-01  8.33333333E-02  0.00000000E+00
                      -2.50000000E-01  8.33333333E-02  0.00000000E+00
                      -1.66666667E-01  8.33333333E-02  0.00000000E+00
                      -8.33333333E-02  8.33333333E-02  0.00000000E+00
                       1.66666667E-01  1.66666667E-01  0.00000000E+00
                       2.50000000E-01  1.66666667E-01  0.00000000E+00
                       3.33333333E-01  1.66666667E-01  0.00000000E+00
                       4.16666667E-01  1.66666667E-01  0.00000000E+00
                       5.00000000E-01  1.66666667E-01  0.00000000E+00
                      -4.16666667E-01  1.66666667E-01  0.00000000E+00
                      -3.33333333E-01  1.66666667E-01  0.00000000E+00
                      -2.50000000E-01  1.66666667E-01  0.00000000E+00
                      -1.66666667E-01  1.66666667E-01  0.00000000E+00
                       2.50000000E-01  2.50000000E-01  0.00000000E+00
                       3.33333333E-01  2.50000000E-01  0.00000000E+00
                       4.16666667E-01  2.50000000E-01  0.00000000E+00
                       5.00000000E-01  2.50000000E-01  0.00000000E+00
                      -4.16666667E-01  2.50000000E-01  0.00000000E+00
                      -3.33333333E-01  2.50000000E-01  0.00000000E+00
                      -2.50000000E-01  2.50000000E-01  0.00000000E+00
                       3.33333333E-01  3.33333333E-01  0.00000000E+00
                       4.16666667E-01  3.33333333E-01  0.00000000E+00
                       5.00000000E-01  3.33333333E-01  0.00000000E+00
                      -4.16666667E-01  3.33333333E-01  0.00000000E+00
                      -3.33333333E-01  3.33333333E-01  0.00000000E+00
                       4.16666667E-01  4.16666667E-01  0.00000000E+00
                       5.00000000E-01  4.16666667E-01  0.00000000E+00
                      -4.16666667E-01  4.16666667E-01  0.00000000E+00
                       5.00000000E-01  5.00000000E-01  0.00000000E+00
                       8.33333333E-02  0.00000000E+00  8.33333333E-02
                       1.66666667E-01  0.00000000E+00  8.33333333E-02
                       2.50000000E-01  0.00000000E+00  8.33333333E-02
                       3.33333333E-01  0.00000000E+00  8.33333333E-02
                       4.16666667E-01  0.00000000E+00  8.33333333E-02
                       5.00000000E-01  0.00000000E+00  8.33333333E-02
                      -4.16666667E-01  0.00000000E+00  8.33333333E-02
                       outvar_i_n : Printing only first  50 k-points.
         kptrlatt       12    0    0      0   12    0      0    0   12
          kptrlen1     1.81780904E+02
          kptrlen2     1.79775632E+02
          kptrlen3     1.77834821E+02
          kptrlen4     1.75853403E+02
          kptrlen5     1.73951181E+02
          kptrlen6     1.72014786E+02
          kptrlen7     1.70106190E+02
          kptrlen8     1.68243730E+02
          kptrlen9     1.66429027E+02
          kptrlen10    1.64599992E+02
P           mkmem          47
            natom           9
            nband          42
           ndtset          10
            ngfft1         60      60      60
            ngfft2         60      60      60
            ngfft3         60      60      60
            ngfft4         54      54      54
            ngfft5         54      54      54
            ngfft6         54      54      54
            ngfft7         54      54      54
            ngfft8         54      54      54
            ngfft9         54      54      54
            ngfft10        54      54      54
          ngfftdg          90      90      90
             nkpt         280
            nstep        2500
             nsym           4
           ntypat           4
              occ      2.000000  2.000000  2.000000  2.000000  2.000000  2.000000
                       2.000000  2.000000  2.000000  2.000000  2.000000  2.000000
                       2.000000  2.000000  2.000000  2.000000  2.000000  2.000000
                       2.000000  2.000000  2.000000  2.000000  2.000000  2.000000
                       2.000000  2.000000  2.000000  2.000000  2.000000  2.000000
                       2.000000  2.000000  2.000000  2.000000  2.000000  2.000000
                       0.000000  0.000000  0.000000  0.000000  0.000000  0.000000
        pawecutdg      4.00000000E+01 Hartree
            prtwf           0
            rprim1     0.0000000000E+00  6.9297758466E-01  7.2095913002E-01
                       7.0175622550E-01  0.0000000000E+00  7.1241715306E-01
                       7.1571724503E-01  6.9839016686E-01  0.0000000000E+00
            rprim2     0.0000000000E+00  6.9233699096E-01  7.2157431423E-01
                       7.0042803305E-01  0.0000000000E+00  7.1372303488E-01
                       7.1503684218E-01  6.9908677167E-01  0.0000000000E+00
            rprim3     0.0000000000E+00  6.9260245780E-01  7.2131950996E-01
                       6.9898682945E-01  0.0000000000E+00  7.1513454137E-01
                       7.1336713429E-01  7.0079050487E-01  0.0000000000E+00
            rprim4     0.0000000000E+00  6.9187305102E-01  7.2201916960E-01
                       6.9792183805E-01  0.0000000000E+00  7.1617393695E-01
                       7.1303284056E-01  7.0113063568E-01  0.0000000000E+00
            rprim5     0.0000000000E+00  6.9169104714E-01  7.2219353037E-01
                       6.9725639674E-01  0.0000000000E+00  7.1682181691E-01
                       7.1255821692E-01  7.0161298983E-01  0.0000000000E+00
            rprim6     0.0000000000E+00  6.9117836879E-01  7.2268420663E-01
                       6.9646198500E-01  0.0000000000E+00  7.1759368967E-01
                       7.1227911040E-01  7.0189633770E-01  0.0000000000E+00
[...]
                      -4.3011030607E-12 -1.4131933191E-12  1.1002826609E-01
           xangst7     2.6717080076E+00  2.6324088583E+00  2.7533067852E+00
                       8.0151240227E+00  7.8972265748E+00  8.2661360181E+00
                       5.3434160152E+00  8.0978800616E+00  5.5881054040E+00
                       5.3434160152E+00  5.2648177166E+00  2.5475631604E+00
                       5.3434160151E+00  5.2648177166E+00  8.2838962448E+00
                       5.3434160151E+00  2.4317553715E+00  5.5881054040E+00
                       7.8514679461E+00  5.2648177166E+00  5.4814965556E+00
                       2.8353640842E+00  5.2648177166E+00  5.4814965556E+00
                      -8.6248320466E-13  1.2538915525E-14  1.1252773539E-01
           xangst8     2.6445408464E+00  2.6014694283E+00  2.7237404858E+00
                       7.9336225393E+00  7.8044082848E+00  8.1795915466E+00
                       5.2890816929E+00  7.9771957979E+00  5.5285786998E+00
                       5.2890816929E+00  5.2029388566E+00  2.5480607144E+00
                       5.2890816928E+00  5.2029388565E+00  8.1844253681E+00
                       5.2890816928E+00  2.4286819152E+00  5.5285786997E+00
                       7.7543699743E+00  5.2029388566E+00  5.4194516617E+00
                       2.8237934115E+00  5.2029388565E+00  5.4194516617E+00
                      -1.6760927619E-12 -1.8154926242E-12  1.1492964796E-01
           xangst9     2.6186534270E+00  2.5707261700E+00  2.6917213438E+00
                       7.8559602810E+00  7.7121785100E+00  8.0875526537E+00
                       5.2373068541E+00  7.8580346991E+00  5.4649273884E+00
                       5.2373068541E+00  5.1414523400E+00  2.5488609401E+00
                       5.2373068539E+00  5.1414523399E+00  8.0805677229E+00
                       5.2373068539E+00  2.4248699809E+00  5.4649273883E+00
                       7.6636757182E+00  5.1414523400E+00  5.3549496059E+00
                       2.8109379898E+00  5.1414523399E+00  5.3549496060E+00
                      -3.5137841200E-12 -2.2118755623E-12  1.1819383018E-01
           xangst10    2.5926758132E+00  2.5396177736E+00  2.6592301911E+00
                       7.7780274397E+00  7.6188533209E+00  7.9960063084E+00
                       5.1853516266E+00  7.7383346716E+00  5.4030638775E+00
                       5.1853516266E+00  5.0792355473E+00  2.5488023298E+00
                       5.1853516264E+00  5.0792355472E+00  7.9798297262E+00
                       5.1853516264E+00  2.4201364229E+00  5.4030638774E+00
                       7.5738514124E+00  5.0792355473E+00  5.2910993070E+00
                       2.7968518406E+00  5.0792355472E+00  5.2910993071E+00
                      -4.0037817965E-12 -2.2465484548E-12  1.2201401381E-01
            xcart1     5.4209886623E+00  5.2897498317E+00  5.5229695912E+00
                       1.6262965987E+01  1.5869249495E+01  1.6529655871E+01
                       1.0841977325E+01  1.6550820462E+01  1.1124972156E+01
                       1.0841977325E+01  1.0579499663E+01  4.7946761215E+00
                       1.0841977324E+01  1.0579499663E+01  1.6711347469E+01
                       1.0841977324E+01  4.6081788648E+00  1.1124972156E+01
                       1.6231672305E+01  1.0579499663E+01  1.1027185355E+01
                       5.4522823441E+00  1.0579499663E+01  1.1027185355E+01
                      -5.4015926328E-12 -4.2224868346E-12  1.9052616346E-01
            xcart2     5.3560916899E+00  5.2366152726E+00  5.4775297165E+00
                       1.6068275070E+01  1.5709845818E+01  1.6393043761E+01
                       1.0712183380E+01  1.6338517115E+01  1.1035825732E+01
                       1.0712183380E+01  1.0473230545E+01  4.7967460336E+00
                       1.0712183380E+01  1.0473230545E+01  1.6542406035E+01
                       1.0712183380E+01  4.6079439759E+00  1.1035825732E+01
                       1.5983899503E+01  1.0473230545E+01  1.0925333740E+01
                       5.4404672565E+00  1.0473230545E+01  1.0925333740E+01
                      -6.0558889874E-12 -5.3548039095E-12  1.9206786501E-01
            xcart3     5.2858965153E+00  5.1927064055E+00  5.4151488216E+00
                       1.5857689546E+01  1.5578119216E+01  1.6231167152E+01
                       1.0571793031E+01  1.6163798188E+01  1.0950546987E+01
                       1.0571793031E+01  1.0385412811E+01  4.8040347866E+00
                       1.0571793030E+01  1.0385412811E+01  1.6363401023E+01
                       1.0571793030E+01  4.6070274341E+00  1.0950546987E+01
                       1.5716912358E+01  1.0385412811E+01  1.0807448313E+01
                       5.4266737032E+00  1.0385412811E+01  1.0807448313E+01
                      -6.3474068947E-12 -3.6037739455E-12  1.9840425937E-01
            xcart4     5.2245521462E+00  5.1373420116E+00  5.3695126538E+00
                       1.5673656439E+01  1.5412026035E+01  1.6091882625E+01
                       1.0449104293E+01  1.5943915968E+01  1.0857549874E+01
                       1.0449104293E+01  1.0274684023E+01  4.8052121044E+00
                       1.0449104292E+01  1.0274684023E+01  1.6193019901E+01
                       1.0449104292E+01  4.6054520782E+00  1.0857549874E+01
                       1.5485707877E+01  1.0274684023E+01  1.0702451498E+01
                       5.4125007081E+00  1.0274684023E+01  1.0702451498E+01
                      -8.8426979757E-12 -5.5494707506E-12  1.9932974160E-01
            xcart5     5.1645976534E+00  5.0852670209E+00  5.3156221675E+00
                       1.5493792960E+01  1.5255801063E+01  1.5934660704E+01
                       1.0329195307E+01  1.5738106194E+01  1.0755404433E+01
                       1.0329195307E+01  1.0170534042E+01  4.8085802463E+00
                       1.0329195307E+01  1.0170534042E+01  1.6007346157E+01
                       1.0329195307E+01  4.6029618897E+00  1.0755404433E+01
                       1.5262060101E+01  1.0170534042E+01  1.0586181971E+01
                       5.3963305131E+00  1.0170534042E+01  1.0586181971E+01
                      -1.1285820273E-11 -7.3936192743E-12  2.0292620951E-01
            xcart6     5.1051057899E+00  5.0306895222E+00  5.2580321001E+00
                       1.5315317370E+01  1.5092068567E+01  1.5778036863E+01
                       1.0210211580E+01  1.5522887298E+01  1.0663241761E+01
                       1.0210211580E+01  1.0061379044E+01  4.8121300782E+00
                       1.0210211579E+01  1.0061379044E+01  1.5833418347E+01
                       1.0210211579E+01  4.5998707912E+00  1.0663241760E+01
                       1.5042308651E+01  1.0061379044E+01  1.0472006954E+01
                       5.3781145080E+00  1.0061379044E+01  1.0472006954E+01
                      -8.1279068541E-12 -2.6705483459E-12  2.0792328979E-01
            xcart7     5.0487964414E+00  4.9745318119E+00  5.2029957839E+00
                       1.5146389324E+01  1.4923595436E+01  1.5620733251E+01
                       1.0097592883E+01  1.5302775573E+01  1.0559988815E+01
                       1.0097592883E+01  9.9490636239E+00  4.8141966794E+00
                       1.0097592883E+01  9.9490636239E+00  1.5654295216E+01
                       1.0097592883E+01  4.5953516743E+00  1.0559988815E+01
                       1.4837124159E+01  9.9490636239E+00  1.0358527288E+01
                       5.3580616062E+00  9.9490636239E+00  1.0358527288E+01
                      -1.6298570510E-12  2.3695116346E-14  2.1264660224E-01
            xcart8     4.9974579470E+00  4.9160647625E+00  5.1471235752E+00
                       1.4992373841E+01  1.4748194288E+01  1.5457187902E+01
                       9.9949158941E+00  1.5074715366E+01  1.0447499647E+01
                       9.9949158941E+00  9.8321295251E+00  4.8151369202E+00
                       9.9949158939E+00  9.8321295250E+00  1.5466322501E+01
                       9.9949158939E+00  4.5895436836E+00  1.0447499647E+01
                       1.4653635584E+01  9.8321295251E+00  1.0241279431E+01
                       5.3361962036E+00  9.8321295250E+00  1.0241279431E+01
                      -3.1673562933E-12 -3.4307838561E-12  2.1718555918E-01
            xcart9     4.9485378140E+00  4.8579684239E+00  5.0866161658E+00
                       1.4845613442E+01  1.4573905272E+01  1.5283259601E+01
                       9.8970756281E+00  1.4849533524E+01  1.0327216100E+01
                       9.8970756281E+00  9.7159368480E+00  4.8166491276E+00
                       9.8970756278E+00  9.7159368478E+00  1.5270059994E+01
                       9.8970756278E+00  4.5823401718E+00  1.0327216100E+01
                       1.4482248279E+01  9.7159368480E+00  1.0119388211E+01
                       5.3119029772E+00  9.7159368478E+00  1.0119388211E+01
                      -6.6400896769E-12 -4.1798390527E-12  2.2335396963E-01
            xcart10    4.8994472384E+00  4.7991820744E+00  5.0252167855E+00
                       1.4698341715E+01  1.4397546223E+01  1.5110262080E+01
                       9.7988944769E+00  1.4623333254E+01  1.0210311007E+01
                       9.7988944769E+00  9.5983641488E+00  4.8165383702E+00
                       9.7988944766E+00  9.5983641486E+00  1.5079692770E+01
                       9.7988944766E+00  4.5733950434E+00  1.0210311007E+01
                       1.4312504941E+01  9.5983641488E+00  9.9987286322E+00
                       5.2852840129E+00  9.5983641486E+00  9.9987286324E+00
                      -7.5660510913E-12 -4.2453613238E-12  2.3057307047E-01
             xred1     2.5089156949E-01  2.5089156949E-01  2.4910843051E-01
                       7.5089156949E-01  7.5089156949E-01  7.4910843051E-01
                       7.8758523605E-01  2.2316149310E-01  7.7683850690E-01
                       2.1780743085E-01  2.1780743085E-01  7.8219256915E-01
                       7.5914526154E-01  7.5914526154E-01  2.4085473846E-01
                       2.2316149310E-01  7.8758523605E-01  2.1241476395E-01
                       2.5237438237E-01  7.4948803785E-01  7.4762561763E-01
                       7.4948803785E-01  2.5237438237E-01  2.5051196215E-01
                       8.6550192592E-03  8.6550192592E-03 -8.6550192592E-03
             xred2     2.5090571522E-01  2.5090571522E-01  2.4909428478E-01
                       7.5090571522E-01  7.5090571522E-01  7.4909428478E-01
                       7.8552428719E-01  2.2549779450E-01  7.7450220550E-01
                       2.1972149063E-01  2.1972149063E-01  7.8027850937E-01
                       7.5774745780E-01  7.5774745780E-01  2.4225254220E-01
                       2.2549779450E-01  7.8552428719E-01  2.1447571281E-01
                       2.5438810374E-01  7.4651150532E-01  7.4561189626E-01
                       7.4651150532E-01  2.5438810374E-01  2.5348849468E-01
                       8.7979303691E-03  8.7979303691E-03 -8.7979303691E-03
             xred3     2.5033005012E-01  2.5033005012E-01  2.4966994988E-01
                       7.5033005012E-01  7.5033005012E-01  7.4966994988E-01
                       7.8441614737E-01  2.2802176209E-01  7.7197823791E-01
                       2.2207963410E-01  2.2207963410E-01  7.7792036590E-01
                       7.5644292212E-01  7.5644292212E-01  2.4355707788E-01
                       2.2802176209E-01  7.8441614737E-01  2.1558385263E-01
                       2.5626197850E-01  7.4294567657E-01  7.4373802150E-01
                       7.4294567657E-01  2.5626197850E-01  2.5705432343E-01
                       9.1717789904E-03  9.1717789904E-03 -9.1717789904E-03
             xred4     2.5038833151E-01  2.5038833151E-01  2.4961166849E-01
                       7.5038833151E-01  7.5038833151E-01  7.4961166849E-01
                       7.8218715696E-01  2.3042012138E-01  7.6957987862E-01
                       2.2407416072E-01  2.2407416072E-01  7.7592583928E-01
                       7.5510451255E-01  7.5510451255E-01  2.4489548745E-01
                       2.3042012138E-01  7.8218715696E-01  2.1781284304E-01
                       2.5806469710E-01  7.4007764705E-01  7.4193530290E-01
                       7.4007764705E-01  2.5806469710E-01  2.5992235295E-01
                       9.2950412145E-03  9.2950412145E-03 -9.2950412145E-03
             xred5     2.5028735649E-01  2.5028735649E-01  2.4971264351E-01
                       7.5028735649E-01  7.5028735649E-01  7.4971264351E-01
                       7.8013172615E-01  2.3270991632E-01  7.6729008368E-01
                       2.2641316489E-01  2.2641316489E-01  7.7358683511E-01
                       7.5370976865E-01  7.5370976865E-01  2.4629023135E-01
                       2.3270991632E-01  7.8013172615E-01  2.1986827385E-01
                       2.5967031301E-01  7.3723556831E-01  7.4032968699E-01
                       7.3723556831E-01  2.5967031301E-01  2.6276443169E-01
                       9.5548296965E-03  9.5548296965E-03 -9.5548296965E-03
             xred6     2.4990635548E-01  2.4990635548E-01  2.5009364452E-01
                       7.4990635548E-01  7.4990635548E-01  7.5009364452E-01
                       7.7821736590E-01  2.3539831206E-01  7.6460168794E-01
                       2.2871330320E-01  2.2871330320E-01  7.7128669680E-01
                       7.5253855407E-01  7.5253855407E-01  2.4746144593E-01
                       2.3539831206E-01  7.7821736590E-01  2.2178263410E-01
                       2.6108813205E-01  7.3434934059E-01  7.3891186795E-01
                       7.3434934059E-01  2.6108813205E-01  2.6565065941E-01
                       9.8822811616E-03  9.8822811616E-03 -9.8822811616E-03
             xred7     2.4971812738E-01  2.4971812738E-01  2.5028187262E-01
                       7.4971812738E-01  7.4971812738E-01  7.5028187262E-01
                       7.7588343446E-01  2.3777129125E-01  7.6222870875E-01
                       2.3105768860E-01  2.3105768860E-01  7.6894231140E-01
                       7.5132893609E-01  7.5132893609E-01  2.4867106391E-01
                       2.3777129125E-01  7.7588343446E-01  2.2411656554E-01
                       2.6247200992E-01  7.3184439714E-01  7.3752799008E-01
                       7.3184439714E-01  2.6247200992E-01  2.6815560286E-01
                       1.0205987764E-02  1.0205987764E-02 -1.0205987764E-02
             xred8     2.4961646272E-01  2.4961646272E-01  2.5038353728E-01
                       7.4961646272E-01  7.4961646272E-01  7.5038353728E-01
                       7.7326990438E-01  2.4006030537E-01  7.5993969463E-01
                       2.3351633742E-01  2.3351633742E-01  7.6648366258E-01
                       7.5005945699E-01  7.5005945699E-01  2.4994054301E-01
                       2.4006030537E-01  7.7326990438E-01  2.2673009562E-01
                       2.6360971500E-01  7.2971865877E-01  7.3639028500E-01
                       7.2971865877E-01  2.6360971500E-01  2.7028134123E-01
                       1.0532696611E-02  1.0532696611E-02 -1.0532696611E-02
             xred9     2.4942600956E-01  2.4942600956E-01  2.5057399044E-01
                       7.4942600956E-01  7.4942600956E-01  7.5057399044E-01
                       7.7058706518E-01  2.4221839045E-01  7.5778160955E-01
                       2.3618797491E-01  2.3618797491E-01  7.6381202509E-01
                       7.4877875704E-01  7.4877875704E-01  2.5122124296E-01
                       2.4221839045E-01  7.7058706518E-01  2.2941293482E-01
                       2.6456893105E-01  7.2785453410E-01  7.3543106895E-01
                       7.2785453410E-01  2.6456893105E-01  2.7214546590E-01
                       1.0952328139E-02  1.0952328139E-02 -1.0952328139E-02
             xred10    2.4914200377E-01  2.4914200377E-01  2.5085799623E-01
                       7.4914200377E-01  7.4914200377E-01  7.5085799623E-01
                       7.6797221393E-01  2.4444872311E-01  7.5555127689E-01
                       2.3879607030E-01  2.3879607030E-01  7.6120392970E-01
                       7.4762642752E-01  7.4762642752E-01  2.5237357248E-01
                       2.4444872311E-01  7.6797221393E-01  2.3202778607E-01
                       2.6540833218E-01  7.2603279084E-01  7.3459166782E-01
                       7.2603279084E-01  2.6540833218E-01  2.7396720916E-01
                       1.1431434552E-02  1.1431434552E-02 -1.1431434552E-02
            znucl       55.00000   53.00000   72.00000   17.00000

- Timing analysis has been suppressed with timopt=0

 Suggested references for the acknowledgment of ABINIT usage.

 Calculation completed.
.Delivered   0 WARNINGs and   7 COMMENTs to log file.