.Version 9.2.2 of ABINIT

 ABINIT is a project of the Universite Catholique de Louvain,
 Corning Inc. and other collaborators, see ~abinit/doc/developers/contributors.txt .
 acknowledgments of the ABINIT effort.

.Starting date : Fri 11 Nov 2022.
- ( at 23h27 )

- input  file    -> Cs2TiI6.in
- output file    -> Cs2TiI6.out
- root for input  files -> Cs2TiI6i
- root for output files -> Cs2TiI6o

- inpspheads : Reading pseudopotential header in XML form from
-   ../../../Psps_for_tests/ATOMICDATA/Cs.GGA_PBE-JTH.xml
- inpspheads : Reading pseudopotential header in XML form from
-   ../../../Psps_for_tests/ATOMICDATA/Br.GGA_PBE-JTH.xml
- inpspheads : Reading pseudopotential header in XML form from
-   ../../../Psps_for_tests/ATOMICDATA/Hf.GGA_PBE-JTH.xml

 DATASET    1 : space group Fm -3 m (#225); Bravais cF (face-center cubic)
     intxc =       0    ionmov =       2      iscf =      17    lmnmax =      18
     lnmax =       6     mgfft =      60  mpssoang =       3    mqgrid =    3765
     natom =       9  nloc_mem =       2    nspden =       1   nspinor =       1
    nsppol =       1      nsym =      48    n1xccc =       1    ntypat =       3
    occopt =       1   xclevel =       2
-    mband =          42        mffmem =           1         mkmem =           2
       mpw =        9216          nfft =      216000          nkpt =          10
Pmy_natom=         2
 PAW method is used; the additional fine FFT grid is defined by:
   mgfftf=        96    nfftf =    884736
  Rough estimation (10% accuracy) of disk space for files :

[...]

 DATASET   10 : space group Fm -3 m (#225); Bravais cF (face-center cubic)
     intxc =       0    ionmov =       2      iscf =      17    lmnmax =      18
     lnmax =       6     mgfft =      60  mpssoang =       3    mqgrid =    3731
     natom =       9  nloc_mem =       2    nspden =       1   nspinor =       1
    nsppol =       1      nsym =      48    n1xccc =       1    ntypat =       3
    occopt =       1   xclevel =       2
-    mband =          42        mffmem =           1         mkmem =           2
       mpw =        8963          nfft =      216000          nkpt =          10
Pmy_natom=         2
 PAW method is used; the additional fine FFT grid is defined by:
   mgfftf=        96    nfftf =    884736
  Rough estimation (10% accuracy) of disk space for files :

------------- Echo of variables that govern the present computation ------------
-
- outvars: echo of selected default values
-   iomode0 =  0 , fftalg0 =112 , wfoptalg0 = 10
-
- outvars: echo of global parameters not present in the input file
-  max_nthreads =    0
-
 -outvars: echo values of preprocessed input variables --------
            acell1     1.4081070920E+01  1.4081070920E+01  1.4081070920E+01 Bohr
            acell2     1.4066975754E+01  1.4066975754E+01  1.4066975754E+01 Bohr
            acell3     1.4052880588E+01  1.4052880588E+01  1.4052880588E+01 Bohr
            acell4     1.4038785422E+01  1.4038785422E+01  1.4038785422E+01 Bohr
            acell5     1.4024690256E+01  1.4024690256E+01  1.4024690256E+01 Bohr
            acell6     1.4010595089E+01  1.4010595089E+01  1.4010595089E+01 Bohr
            acell7     1.3996499923E+01  1.3996499923E+01  1.3996499923E+01 Bohr
            acell8     1.3982404757E+01  1.3982404757E+01  1.3982404757E+01 Bohr
            acell9     1.3968309591E+01  1.3968309591E+01  1.3968309591E+01 Bohr
            acell10    1.3954214425E+01  1.3954214425E+01  1.3954214425E+01 Bohr
              amu      1.32905430E+02  7.99040000E+01  1.78490000E+02
           diemac      1.20000000E+01
          dilatmx      1.15000000E+00
             ecut      1.60000000E+01 Hartree
           ecutsm      5.00000000E-01 Hartree
-          fftalg         112
          getxred1          0
          getxred2         -1
          getxred3         -1
          getxred4         -1
          getxred5         -1
          getxred6         -1
          getxred7         -1
          getxred8         -1
          getxred9         -1
          getxred10        -1
           ionmov           2
              ixc     -101130
           jdtset        1    2    3    4    5    6    7    8    9   10
              kpt     -1.25000000E-01 -2.50000000E-01  0.00000000E+00
                      -1.25000000E-01  5.00000000E-01  0.00000000E+00
                      -2.50000000E-01 -3.75000000E-01  0.00000000E+00
                      -1.25000000E-01 -3.75000000E-01  1.25000000E-01
                      -1.25000000E-01  2.50000000E-01  0.00000000E+00
                      -2.50000000E-01  3.75000000E-01  0.00000000E+00
                      -3.75000000E-01  5.00000000E-01  0.00000000E+00
                      -2.50000000E-01  5.00000000E-01  1.25000000E-01
                      -1.25000000E-01  0.00000000E+00  0.00000000E+00
                      -3.75000000E-01  0.00000000E+00  0.00000000E+00
         kptrlatt        4   -4    4     -4    4    4     -4   -4    4
          kptrlen1     7.96545659E+01
          kptrlen2     7.95748316E+01
          kptrlen3     7.94950973E+01
          kptrlen4     7.94153630E+01
          kptrlen5     7.93356287E+01
          kptrlen6     7.92558944E+01
          kptrlen7     7.91761601E+01
          kptrlen8     7.90964258E+01
          kptrlen9     7.90166915E+01
          kptrlen10    7.89369572E+01
P           mkmem           2
            natom           9
            nband          42
           ndtset          10
            ngfft          60      60      60
          ngfftdg          96      96      96
             nkpt          10
            nstep        2500
             nsym          48
            ntime        1000
           ntypat           3
              occ      2.000000  2.000000  2.000000  2.000000  2.000000  2.000000
                       2.000000  2.000000  2.000000  2.000000  2.000000  2.000000
                       2.000000  2.000000  2.000000  2.000000  2.000000  2.000000
                       2.000000  2.000000  2.000000  2.000000  2.000000  2.000000
                       2.000000  2.000000  2.000000  2.000000  2.000000  2.000000
                       2.000000  2.000000  2.000000  2.000000  2.000000  2.000000
                       0.000000  0.000000  0.000000  0.000000  0.000000  0.000000
          optcell           3
        optforces           1
        pawecutdg      4.00000000E+01 Hartree
            prtwf           0
            rprim      0.0000000000E+00  7.0710678119E-01  7.0710678119E-01
                       7.0710678119E-01  0.0000000000E+00  7.0710678119E-01
                       7.0710678119E-01  7.0710678119E-01  0.0000000000E+00
           shiftk      5.00000000E-01  5.00000000E-01  5.00000000E-01
          spgroup         225
           symrel      1  0  0   0  1  0   0  0  1      -1  0  0   0 -1  0   0  0 -1
                       0 -1  1   0 -1  0   1 -1  0       0  1 -1   0  1  0  -1  1  0
                      -1  0  0  -1  0  1  -1  1  0       1  0  0   1  0 -1   1 -1  0
                       0  1 -1   1  0 -1   0  0 -1       0 -1  1  -1  0  1   0  0  1
                      -1  0  0  -1  1  0  -1  0  1       1  0  0   1 -1  0   1  0 -1
                       0 -1  1   1 -1  0   0 -1  0       0  1 -1  -1  1  0   0  1  0
                       1  0  0   0  0  1   0  1  0      -1  0  0   0  0 -1   0 -1  0
                       0  1 -1   0  0 -1   1  0 -1       0 -1  1   0  0  1  -1  0  1
                      -1  0  1  -1  1  0  -1  0  0       1  0 -1   1 -1  0   1  0  0
                       0 -1  0   1 -1  0   0 -1  1       0  1  0  -1  1  0   0  1 -1
                       1  0 -1   0  0 -1   0  1 -1      -1  0  1   0  0  1   0 -1  1
                       0  1  0   0  0  1   1  0  0       0 -1  0   0  0 -1  -1  0  0
                       1  0 -1   0  1 -1   0  0 -1      -1  0  1   0 -1  1   0  0  1
                       0 -1  0   0 -1  1   1 -1  0       0  1  0   0  1 -1  -1  1  0
                      -1  0  1  -1  0  0  -1  1  0       1  0 -1   1  0  0   1 -1  0
                       0  1  0   1  0  0   0  0  1       0 -1  0  -1  0  0   0  0 -1
                       0  0 -1   0  1 -1   1  0 -1       0  0  1   0 -1  1  -1  0  1
                       1 -1  0   0 -1  1   0 -1  0      -1  1  0   0  1 -1   0  1  0
                       0  0  1   1  0  0   0  1  0       0  0 -1  -1  0  0   0 -1  0
                      -1  1  0  -1  0  0  -1  0  1       1 -1  0   1  0  0   1  0 -1
                       0  0  1   0  1  0   1  0  0       0  0 -1   0 -1  0  -1  0  0
                       1 -1  0   0 -1  0   0 -1  1      -1  1  0   0  1  0   0  1 -1
                       0  0 -1   1  0 -1   0  1 -1       0  0  1  -1  0  1   0 -1  1
                      -1  1  0  -1  0  1  -1  0  0       1 -1  0   1  0 -1   1  0  0
           toldff      1.00000000E-08
           tolmxf      1.00000000E-05
            typat      1  1  2  2  2  2  2  2  3
           useylm           1
              wtk        0.09375    0.09375    0.09375    0.18750    0.09375    0.09375
                         0.09375    0.18750    0.03125    0.03125
           xangst1     2.6344613012E+00  2.6344613012E+00  2.6344613012E+00
                       7.9033839036E+00  7.9033839036E+00  7.9033839036E+00
                       5.2689226024E+00  7.9349259078E+00  5.2689226024E+00
                       5.2689226024E+00  5.2689226024E+00  2.6029192970E+00
                       5.2689226024E+00  5.2689226024E+00  7.9349259078E+00
                       5.2689226024E+00  2.6029192970E+00  5.2689226024E+00
                       7.9349259078E+00  5.2689226024E+00  5.2689226024E+00
                       2.6029192970E+00  5.2689226024E+00  5.2689226024E+00
                       1.5085794873E-18 -6.2529705094E-19  1.6896927576E-18
           xangst2     2.6318242028E+00  2.6318242028E+00  2.6318242028E+00
                       7.8954726084E+00  7.8954726084E+00  7.8954726084E+00
                       5.2636484056E+00  7.9269830390E+00  5.2636484056E+00
                       5.2636484056E+00  5.2636484056E+00  2.6003137722E+00
                       5.2636484056E+00  5.2636484056E+00  7.9269830390E+00
                       5.2636484056E+00  2.6003137722E+00  5.2636484056E+00
                       7.9269830390E+00  5.2636484056E+00  5.2636484056E+00
                       2.6003137722E+00  5.2636484056E+00  5.2636484056E+00
                       1.5070693977E-18 -6.2467112796E-19  1.6880013735E-18
           xangst3     2.6291871044E+00  2.6291871044E+00  2.6291871044E+00
                       7.8875613132E+00  7.8875613132E+00  7.8875613132E+00
                       5.2583742088E+00  7.9190401702E+00  5.2583742088E+00
                       5.2583742088E+00  5.2583742088E+00  2.5977082474E+00
                       5.2583742088E+00  5.2583742088E+00  7.9190401702E+00
                       5.2583742088E+00  2.5977082474E+00  5.2583742088E+00
                       7.9190401702E+00  5.2583742088E+00  5.2583742088E+00
                       2.5977082474E+00  5.2583742088E+00  5.2583742088E+00
                       1.5055593081E-18 -6.2404520499E-19  1.6863099893E-18
[...]
                       1.4962252703E-18 -6.9487069931E-19  1.6914103309E-18
           xangst7     2.6186387108E+00  2.6186387108E+00  2.6186387108E+00
                       7.8559161324E+00  7.8559161324E+00  7.8559161324E+00
                       5.2372774216E+00  7.8732544489E+00  5.2372774216E+00
                       5.2372774216E+00  5.2372774216E+00  2.6013003943E+00
                       5.2372774216E+00  5.2372774216E+00  7.8732544489E+00
                       5.2372774216E+00  2.6013003943E+00  5.2372774216E+00
                       7.8732544489E+00  5.2372774216E+00  5.2372774216E+00
                       2.6013003943E+00  5.2372774216E+00  5.2372774216E+00
                       1.5551038678E-18 -6.9989857314E-19  1.7083169232E-18
           xangst8     2.6160016124E+00  2.6160016124E+00  2.6160016124E+00
                       7.8480048372E+00  7.8480048372E+00  7.8480048372E+00
                       5.2320032248E+00  7.8633524470E+00  5.2320032248E+00
                       5.2320032248E+00  5.2320032248E+00  2.6006540026E+00
                       5.2320032248E+00  5.2320032248E+00  7.8633524470E+00
                       5.2320032248E+00  2.6006540026E+00  5.2320032248E+00
                       7.8633524470E+00  5.2320032248E+00  5.2320032248E+00
                       2.6006540026E+00  5.2320032248E+00  5.2320032248E+00
                       1.5551142362E-18 -7.0077017550E-19  1.6918409734E-18
           xangst9     2.6133645140E+00  2.6133645140E+00  2.6133645140E+00
                       7.8400935420E+00  7.8400935420E+00  7.8400935420E+00
                       5.2267290280E+00  7.8534523327E+00  5.2267290280E+00
                       5.2267290280E+00  5.2267290280E+00  2.6000057233E+00
                       5.2267290280E+00  5.2267290280E+00  7.8534523327E+00
                       5.2267290280E+00  2.6000057233E+00  5.2267290280E+00
                       7.8534523327E+00  5.2267290280E+00  5.2267290280E+00
                       2.6000057233E+00  5.2267290280E+00  5.2267290280E+00
                       1.4964987707E-18 -6.2028966715E-19  1.6761616845E-18
           xangst10    2.6107274156E+00  2.6107274156E+00  2.6107274156E+00
                       7.8321822468E+00  7.8321822468E+00  7.8321822468E+00
                       5.2214548312E+00  7.8435723530E+00  5.2214548312E+00
                       5.2214548312E+00  5.2214548312E+00  2.5993373094E+00
                       5.2214548312E+00  5.2214548312E+00  7.8435723530E+00
                       5.2214548312E+00  2.5993373094E+00  5.2214548312E+00
                       7.8435723530E+00  5.2214548312E+00  5.2214548312E+00
                       2.5993373094E+00  5.2214548312E+00  5.2214548312E+00
                       1.4947175675E-18 -6.4010219980E-19  1.6777764326E-18
            xcart1     4.9784103669E+00  4.9784103669E+00  4.9784103669E+00
                       1.4935231101E+01  1.4935231101E+01  1.4935231101E+01
                       9.9568207339E+00  1.4990988731E+01  9.9568207339E+00
                       9.9568207339E+00  9.9568207339E+00  4.9226527366E+00
                       9.9568207339E+00  9.9568207339E+00  1.4990988731E+01
                       9.9568207339E+00  4.9226527366E+00  9.9568207339E+00
                       1.4990988731E+01  9.9568207339E+00  9.9568207339E+00
                       4.9226527366E+00  9.9568207339E+00  9.9568207339E+00
                       2.8625183496E-18 -1.1686440691E-18  3.2116414792E-18
            xcart2     4.9734269732E+00  4.9734269732E+00  4.9734269732E+00
                       1.4920280920E+01  1.4920280920E+01  1.4920280920E+01
                       9.9468539464E+00  1.4972201337E+01  9.9468539464E+00
                       9.9468539464E+00  9.9468539464E+00  4.9215065557E+00
                       9.9468539464E+00  9.9468539464E+00  1.4972201337E+01
                       9.9468539464E+00  4.9215065557E+00  9.9468539464E+00
                       1.4972201337E+01  9.9468539464E+00  9.9468539464E+00
                       4.9215065557E+00  9.9468539464E+00  9.9468539464E+00
                       2.6974640195E-18 -1.2972957555E-18  3.3345896771E-18
            xcart3     4.9684435794E+00  4.9684435794E+00  4.9684435794E+00
                       1.4905330738E+01  1.4905330738E+01  1.4905330738E+01
                       9.9368871588E+00  1.4953416953E+01  9.9368871588E+00
                       9.9368871588E+00  9.9368871588E+00  4.9203573648E+00
                       9.9368871588E+00  9.9368871588E+00  1.4953416953E+01
                       9.9368871588E+00  4.9203573648E+00  9.9368871588E+00
                       1.4953416953E+01  9.9368871588E+00  9.9368871588E+00
                       4.9203573648E+00  9.9368871588E+00  9.9368871588E+00
                       2.8450947692E-18 -1.1792745320E-18  3.1866640550E-18
            xcart4     4.9634601857E+00  4.9634601857E+00  4.9634601857E+00
                       1.4890380557E+01  1.4890380557E+01  1.4890380557E+01
                       9.9269203713E+00  1.4934674193E+01  9.9269203713E+00
                       9.9269203713E+00  9.9269203713E+00  4.9191665498E+00
                       9.9269203713E+00  9.9269203713E+00  1.4934674193E+01
                       9.9269203713E+00  4.9191665498E+00  9.9269203713E+00
                       1.4934674193E+01  9.9269203713E+00  9.9269203713E+00
                       4.9191665498E+00  9.9269203713E+00  9.9269203713E+00
                       2.9079336906E-18 -1.1109254265E-18  3.0499293156E-18
            xcart5     4.9584767919E+00  4.9584767919E+00  4.9584767919E+00
                       1.4875430376E+01  1.4875430376E+01  1.4875430376E+01
                       9.9169535838E+00  1.4915783064E+01  9.9169535838E+00
                       9.9169535838E+00  9.9169535838E+00  4.9181241041E+00
                       9.9169535838E+00  9.9169535838E+00  1.4915783064E+01
                       9.9169535838E+00  4.9181241041E+00  9.9169535838E+00
                       1.4915783064E+01  9.9169535838E+00  9.9169535838E+00
                       4.9181241041E+00  9.9169535838E+00  9.9169535838E+00
                       2.8393874577E-18 -1.1769088860E-18  3.1802715493E-18
            xcart6     4.9534933981E+00  4.9534933981E+00  4.9534933981E+00
                       1.4860480194E+01  1.4860480194E+01  1.4860480194E+01
                       9.9069867963E+00  1.4897094975E+01  9.9069867963E+00
                       9.9069867963E+00  9.9069867963E+00  4.9168786178E+00
                       9.9069867963E+00  9.9069867963E+00  1.4897094975E+01
                       9.9069867963E+00  4.9168786178E+00  9.9069867963E+00
                       1.4897094975E+01  9.9069867963E+00  9.9069867963E+00
                       4.9168786178E+00  9.9069867963E+00  9.9069867963E+00
                       2.8274559940E-18 -1.3131153195E-18  3.1963023037E-18
            xcart7     4.9485100044E+00  4.9485100044E+00  4.9485100044E+00
                       1.4845530013E+01  1.4845530013E+01  1.4845530013E+01
                       9.8970200088E+00  1.4878294683E+01  9.8970200088E+00
                       9.8970200088E+00  9.8970200088E+00  4.9157453346E+00
                       9.8970200088E+00  9.8970200088E+00  1.4878294683E+01
                       9.8970200088E+00  4.9157453346E+00  9.8970200088E+00
                       1.4878294683E+01  9.8970200088E+00  9.8970200088E+00
                       4.9157453346E+00  9.8970200088E+00  9.8970200088E+00
                       2.9387204183E-18 -1.3226166240E-18  3.2282511331E-18
            xcart8     4.9435266106E+00  4.9435266106E+00  4.9435266106E+00
                       1.4830579832E+01  1.4830579832E+01  1.4830579832E+01
                       9.8870532212E+00  1.4859582611E+01  9.8870532212E+00
                       9.8870532212E+00  9.8870532212E+00  4.9145238313E+00
                       9.8870532212E+00  9.8870532212E+00  1.4859582611E+01
                       9.8870532212E+00  4.9145238313E+00  9.8870532212E+00
                       1.4859582611E+01  9.8870532212E+00  9.8870532212E+00
                       4.9145238313E+00  9.8870532212E+00  9.8870532212E+00
                       2.9387400118E-18 -1.3242637138E-18  3.1971161001E-18
            xcart9     4.9385432169E+00  4.9385432169E+00  4.9385432169E+00
                       1.4815629651E+01  1.4815629651E+01  1.4815629651E+01
                       9.8770864337E+00  1.4840874106E+01  9.8770864337E+00
                       9.8770864337E+00  9.8770864337E+00  4.9132987610E+00
                       9.8770864337E+00  9.8770864337E+00  1.4840874106E+01
                       9.8770864337E+00  4.9132987610E+00  9.8770864337E+00
                       1.4840874106E+01  9.8770864337E+00  9.8770864337E+00
                       4.9132987610E+00  9.8770864337E+00  9.8770864337E+00
                       2.8279728348E-18 -1.1721775940E-18  3.1674865381E-18
            xcart10    4.9335598231E+00  4.9335598231E+00  4.9335598231E+00
                       1.4800679469E+01  1.4800679469E+01  1.4800679469E+01
                       9.8671196462E+00  1.4822203651E+01  9.8671196462E+00
                       9.8671196462E+00  9.8671196462E+00  4.9120356417E+00
                       9.8671196462E+00  9.8671196462E+00  1.4822203651E+01
                       9.8671196462E+00  4.9120356417E+00  9.8671196462E+00
                       1.4822203651E+01  9.8671196462E+00  9.8671196462E+00
                       4.9120356417E+00  9.8671196462E+00  9.8671196462E+00
                       2.8246068485E-18 -1.2096178547E-18  3.1705379698E-18
             xred1     2.5000000000E-01  2.5000000000E-01  2.5000000000E-01
                       7.5000000000E-01  7.5000000000E-01  7.5000000000E-01
                       7.5279997159E-01  2.4720002841E-01  7.5279997159E-01
                       2.4720002841E-01  2.4720002841E-01  7.5279997159E-01
                       7.5279997159E-01  7.5279997159E-01  2.4720002841E-01
                       2.4720002841E-01  7.5279997159E-01  2.4720002841E-01
                       2.4720002841E-01  7.5279997159E-01  7.5279997159E-01
                       7.5279997159E-01  2.4720002841E-01  2.4720002841E-01
                      -4.1153745827E-20  3.6371067088E-19 -7.6217461342E-20
             xred2     2.5000000000E-01  2.5000000000E-01  2.5000000000E-01
                       7.5000000000E-01  7.5000000000E-01  7.5000000000E-01
                       7.5260989142E-01  2.4739010858E-01  7.5260989142E-01
                       2.4739010858E-01  2.4739010858E-01  7.5260989142E-01
                       7.5260989142E-01  7.5260989142E-01  2.4739010858E-01
                       2.4739010858E-01  7.5260989142E-01  2.4739010858E-01
                       2.4739010858E-01  7.5260989142E-01  7.5260989142E-01
                       7.5260989142E-01  2.4739010858E-01  2.4739010858E-01
                      -3.3184869380E-20  3.6842550879E-19 -9.7237851461E-20
             xred3     2.5000000000E-01  2.5000000000E-01  2.5000000000E-01
                       7.5000000000E-01  7.5000000000E-01  7.5000000000E-01
                       7.5241958140E-01  2.4758041860E-01  7.5241958140E-01
                       2.4758041860E-01  2.4758041860E-01  7.5241958140E-01
                       7.5241958140E-01  7.5241958140E-01  2.4758041860E-01
                       2.4758041860E-01  7.5241958140E-01  2.4758041860E-01
                       2.4758041860E-01  7.5241958140E-01  7.5241958140E-01
                       7.5241958140E-01  2.4758041860E-01  2.4758041860E-01
                      -4.2151291083E-20  3.6284166464E-19 -7.6525162933E-20
             xred4     2.5000000000E-01  2.5000000000E-01  2.5000000000E-01
                       7.5000000000E-01  7.5000000000E-01  7.5000000000E-01
                       7.5223098575E-01  2.4776901425E-01  7.5223098575E-01
                       2.4776901425E-01  2.4776901425E-01  7.5223098575E-01
                       7.5223098575E-01  7.5223098575E-01  2.4776901425E-01
                       2.4776901425E-01  7.5223098575E-01  2.4776901425E-01
                       2.4776901425E-01  7.5223098575E-01  7.5223098575E-01
                       7.5223098575E-01  2.4776901425E-01  2.4776901425E-01
                      -4.8803141622E-20  3.5604135866E-19 -6.3107237926E-20
             xred5     2.5000000000E-01  2.5000000000E-01  2.5000000000E-01
                       7.5000000000E-01  7.5000000000E-01  7.5000000000E-01
                       7.5203453044E-01  2.4796546956E-01  7.5203453044E-01
                       2.4796546956E-01  2.4796546956E-01  7.5203453044E-01
                       7.5203453044E-01  7.5203453044E-01  2.4796546956E-01
                       2.4796546956E-01  7.5203453044E-01  2.4796546956E-01
                       2.4796546956E-01  7.5203453044E-01  7.5203453044E-01
                       7.5203453044E-01  2.4796546956E-01  2.4796546956E-01
                      -4.2151291083E-20  3.6284166464E-19 -7.6525162933E-20
             xred6     2.5000000000E-01  2.5000000000E-01  2.5000000000E-01
                       7.5000000000E-01  7.5000000000E-01  7.5000000000E-01
                       7.5184792718E-01  2.4815207282E-01  7.5184792718E-01
                       2.4815207282E-01  2.4815207282E-01  7.5184792718E-01
                       7.5184792718E-01  7.5184792718E-01  2.4815207282E-01
                       2.4815207282E-01  7.5184792718E-01  2.4815207282E-01
                       2.4815207282E-01  7.5184792718E-01  7.5184792718E-01
                       7.5184792718E-01  2.4815207282E-01  2.4815207282E-01
                      -4.7656720915E-20  3.7028784675E-19 -8.4887648676E-20
             xred7     2.5000000000E-01  2.5000000000E-01  2.5000000000E-01
                       7.5000000000E-01  7.5000000000E-01  7.5000000000E-01
                       7.5165527956E-01  2.4834472044E-01  7.5165527956E-01
                       2.4834472044E-01  2.4834472044E-01  7.5165527956E-01
                       7.5165527956E-01  7.5165527956E-01  2.4834472044E-01
                       2.4834472044E-01  7.5165527956E-01  2.4834472044E-01
                       2.4834472044E-01  7.5165527956E-01  7.5165527956E-01
                       7.5165527956E-01  2.4834472044E-01  2.4834472044E-01
                      -5.2191766228E-20  3.7837592370E-19 -8.1446098792E-20
             xred8     2.5000000000E-01  2.5000000000E-01  2.5000000000E-01
                       7.5000000000E-01  7.5000000000E-01  7.5000000000E-01
                       7.5146670493E-01  2.4853329507E-01  7.5146670493E-01
                       2.4853329507E-01  2.4853329507E-01  7.5146670493E-01
                       7.5146670493E-01  7.5146670493E-01  2.4853329507E-01
                       2.4853329507E-01  7.5146670493E-01  2.4853329507E-01
                       2.4853329507E-01  7.5146670493E-01  7.5146670493E-01
                       7.5146670493E-01  2.4853329507E-01  2.4853329507E-01
                      -5.3903200563E-20  3.7726710167E-19 -8.0035970610E-20
             xred9     2.5000000000E-01  2.5000000000E-01  2.5000000000E-01
                       7.5000000000E-01  7.5000000000E-01  7.5000000000E-01
                       7.5127793029E-01  2.4872206971E-01  7.5127793029E-01
                       2.4872206971E-01  2.4872206971E-01  7.5127793029E-01
                       7.5127793029E-01  7.5127793029E-01  2.4872206971E-01
                       2.4872206971E-01  7.5127793029E-01  2.4872206971E-01
                       2.4872206971E-01  7.5127793029E-01  7.5127793029E-01
                       7.5127793029E-01  2.4872206971E-01  2.4872206971E-01
                      -4.2151291083E-20  3.6284166464E-19 -7.6525162933E-20
             xred10    2.5000000000E-01  2.5000000000E-01  2.5000000000E-01
                       7.5000000000E-01  7.5000000000E-01  7.5000000000E-01
                       7.5109070236E-01  2.4890929764E-01  7.5109070236E-01
                       2.4890929764E-01  2.4890929764E-01  7.5109070236E-01
                       7.5109070236E-01  7.5109070236E-01  2.4890929764E-01
                       2.4890929764E-01  7.5109070236E-01  2.4890929764E-01
                       2.4890929764E-01  7.5109070236E-01  7.5109070236E-01
                       7.5109070236E-01  2.4890929764E-01  2.4890929764E-01
                      -4.3765899490E-20  3.6508945525E-19 -7.8824876548E-20
            znucl       55.00000   35.00000   72.00000

- Timing analysis has been suppressed with timopt=0

 Suggested references for the acknowledgment of ABINIT usage.

 Calculation completed.
.Delivered   0 WARNINGs and  30 COMMENTs to log file.