.Version 9.2.2 of ABINIT

 ABINIT is a project of the Universite Catholique de Louvain,
 Corning Inc. and other collaborators, see ~abinit/doc/developers/contributors.txt .
 acknowledgments of the ABINIT effort.

.Starting date : Sun 27 Nov 2022.
- ( at 23h38 )

- input  file    -> Cs2TiI6.in
- output file    -> Cs2TiI6.out
- root for input  files -> Cs2TiI6i
- root for output files -> Cs2TiI6o

- inpspheads : Reading pseudopotential header in XML form from
-   ../../../Psps_for_tests/ATOMICDATA/Cs.GGA_PBE-JTH.xml
- inpspheads : Reading pseudopotential header in XML form from
-   ../../../Psps_for_tests/ATOMICDATA/I.GGA_PBE-JTH.xml
- inpspheads : Reading pseudopotential header in XML form from
-   ../../../Psps_for_tests/ATOMICDATA/Zr.GGA_PBE-JTH.xml
- inpspheads : Reading pseudopotential header in XML form from
-   ../../../Psps_for_tests/ATOMICDATA/Br.GGA_PBE-JTH.xml

 DATASET    1 : space group I4 m m (#107); Bravais tI (body-center tetrag.)
     intxc =       0    ionmov =       0      iscf =      17    lmnmax =      18
     lnmax =       6     mgfft =      54  mpssoang =       3    mqgrid =    3291
     natom =       9  nloc_mem =       2    nspden =       1   nspinor =       1
    nsppol =       1      nsym =       8    n1xccc =       1    ntypat =       4
    occopt =       1   xclevel =       2
-    mband =          42        mffmem =           1         mkmem =          28
       mpw =        6166          nfft =      157464          nkpt =         163
Pmy_natom=         2
 PAW method is used; the additional fine FFT grid is defined by:
   mgfftf=        90    nfftf =    729000
  Rough estimation (10% accuracy) of disk space for files :

[...]

 DATASET   13 : space group I4 m m (#107); Bravais tI (body-center tetrag.)
     intxc =       0    ionmov =       0      iscf =      17    lmnmax =      18
     lnmax =       6     mgfft =      54  mpssoang =       3    mqgrid =    3262
     natom =       9  nloc_mem =       2    nspden =       1   nspinor =       1
    nsppol =       1      nsym =       8    n1xccc =       1    ntypat =       4
    occopt =       1   xclevel =       2
-    mband =          42        mffmem =           1         mkmem =          28
       mpw =        6002          nfft =      157464          nkpt =         163
Pmy_natom=         2
 PAW method is used; the additional fine FFT grid is defined by:
   mgfftf=        80    nfftf =    512000
  Rough estimation (10% accuracy) of disk space for files :

------------- Echo of variables that govern the present computation ------------
-
- outvars: echo of selected default values
-   iomode0 =  0 , fftalg0 =112 , wfoptalg0 = 10
-
- outvars: echo of global parameters not present in the input file
-  max_nthreads =    0
-
 -outvars: echo values of preprocessed input variables --------
            acell1     1.4156247594E+01  1.4156247594E+01  1.4156118734E+01 Bohr
            acell2     1.4141892478E+01  1.4141892478E+01  1.4142317868E+01 Bohr
            acell3     1.4127981107E+01  1.4127981107E+01  1.4127629475E+01 Bohr
            acell4     1.4113849096E+01  1.4113849096E+01  1.4113382387E+01 Bohr
            acell5     1.4100668817E+01  1.4100668817E+01  1.4097233736E+01 Bohr
            acell6     1.4087172177E+01  1.4087172177E+01  1.4081718863E+01 Bohr
            acell7     1.4072034807E+01  1.4072034807E+01  1.4069478637E+01 Bohr
            acell8     1.4065270134E+01  1.4065270134E+01  1.4061753389E+01 Bohr
            acell9     1.4058635217E+01  1.4058635217E+01  1.4053769537E+01 Bohr
            acell10    1.4051855891E+01  1.4051855891E+01  1.4046074248E+01 Bohr
            acell11    1.4044649031E+01  1.4044649031E+01  1.4039231731E+01 Bohr
            acell12    1.4037830533E+01  1.4037830533E+01  1.4031614709E+01 Bohr
            acell13    1.4030951068E+01  1.4030951068E+01  1.4024119415E+01 Bohr
              amu      1.32905430E+02  1.26904470E+02  9.12240000E+01
                       7.99040000E+01
           diemac      1.20000000E+01
             ecut      1.60000000E+01 Hartree
-          fftalg         112
           istwfk        2    0    0    0    0    0    3    0    0    0
                         0    0    0    0    0    0    0    0    0    0
                         0    0    0    0    0    0    0    0    0    0
                         0    0    0    0    0    0    0    0    0    0
                         0    0    7    0    0    0    0    0    0    0
                       outvar_i_n : Printing only first  50 k-points.
              ixc     -101130
           jdtset        1    2    3    4    5    6    7    8    9   10
                        11   12   13
              kpt      0.00000000E+00  0.00000000E+00  0.00000000E+00
                       8.33333333E-02  0.00000000E+00  0.00000000E+00
                       1.66666667E-01  0.00000000E+00  0.00000000E+00
                       2.50000000E-01  0.00000000E+00  0.00000000E+00
                       3.33333333E-01  0.00000000E+00  0.00000000E+00
                       4.16666667E-01  0.00000000E+00  0.00000000E+00
                       5.00000000E-01  0.00000000E+00  0.00000000E+00
                       8.33333333E-02  8.33333333E-02  0.00000000E+00
                       1.66666667E-01  8.33333333E-02  0.00000000E+00
                       2.50000000E-01  8.33333333E-02  0.00000000E+00
                       3.33333333E-01  8.33333333E-02  0.00000000E+00
                       4.16666667E-01  8.33333333E-02  0.00000000E+00
                       5.00000000E-01  8.33333333E-02  0.00000000E+00
                      -4.16666667E-01  8.33333333E-02  0.00000000E+00
                      -3.33333333E-01  8.33333333E-02  0.00000000E+00
                      -2.50000000E-01  8.33333333E-02  0.00000000E+00
                      -1.66666667E-01  8.33333333E-02  0.00000000E+00
                      -8.33333333E-02  8.33333333E-02  0.00000000E+00
                       1.66666667E-01  1.66666667E-01  0.00000000E+00
                       2.50000000E-01  1.66666667E-01  0.00000000E+00
                       3.33333333E-01  1.66666667E-01  0.00000000E+00
                       4.16666667E-01  1.66666667E-01  0.00000000E+00
                       5.00000000E-01  1.66666667E-01  0.00000000E+00
                      -4.16666667E-01  1.66666667E-01  0.00000000E+00
                      -3.33333333E-01  1.66666667E-01  0.00000000E+00
                      -2.50000000E-01  1.66666667E-01  0.00000000E+00
                      -1.66666667E-01  1.66666667E-01  0.00000000E+00
                       2.50000000E-01  2.50000000E-01  0.00000000E+00
                       3.33333333E-01  2.50000000E-01  0.00000000E+00
                       4.16666667E-01  2.50000000E-01  0.00000000E+00
                       5.00000000E-01  2.50000000E-01  0.00000000E+00
                      -4.16666667E-01  2.50000000E-01  0.00000000E+00
                      -3.33333333E-01  2.50000000E-01  0.00000000E+00
                      -2.50000000E-01  2.50000000E-01  0.00000000E+00
                       3.33333333E-01  3.33333333E-01  0.00000000E+00
                       4.16666667E-01  3.33333333E-01  0.00000000E+00
                       5.00000000E-01  3.33333333E-01  0.00000000E+00
                      -4.16666667E-01  3.33333333E-01  0.00000000E+00
                      -3.33333333E-01  3.33333333E-01  0.00000000E+00
                       4.16666667E-01  4.16666667E-01  0.00000000E+00
                       5.00000000E-01  4.16666667E-01  0.00000000E+00
                      -4.16666667E-01  4.16666667E-01  0.00000000E+00
                       5.00000000E-01  5.00000000E-01  0.00000000E+00
                       8.33333333E-02  0.00000000E+00  8.33333333E-02
                       1.66666667E-01  0.00000000E+00  8.33333333E-02
                       2.50000000E-01  0.00000000E+00  8.33333333E-02
                       3.33333333E-01  0.00000000E+00  8.33333333E-02
                       4.16666667E-01  0.00000000E+00  8.33333333E-02
                       5.00000000E-01  0.00000000E+00  8.33333333E-02
                      -4.16666667E-01  0.00000000E+00  8.33333333E-02
                       outvar_i_n : Printing only first  50 k-points.
         kptrlatt       12    0    0      0   12    0      0    0   12
          kptrlen1     1.69873425E+02
          kptrlen2     1.69702710E+02
          kptrlen3     1.69531554E+02
          kptrlen4     1.69360589E+02
          kptrlen5     1.69166805E+02
          kptrlen6     1.68980626E+02
          kptrlen7     1.68833744E+02
          kptrlen8     1.68741041E+02
          kptrlen9     1.68645234E+02
          kptrlen10    1.68552891E+02
          kptrlen11    1.68470781E+02
          kptrlen12    1.68379377E+02
          kptrlen13    1.68289433E+02
P           mkmem          28
            natom           9
            nband          42
           ndtset          13
            ngfft          54      54      54
          ngfftdg1         90      90      90
          ngfftdg2         90      90      90
          ngfftdg3         90      90      90
          ngfftdg4         90      90      90
          ngfftdg5         90      90      90
          ngfftdg6         90      90      90
          ngfftdg7         90      90      90
          ngfftdg8         90      90      90
          ngfftdg9         90      90      90
          ngfftdg10        90      90      90
          ngfftdg11        80      80      80
          ngfftdg12        80      80      80
          ngfftdg13        80      80      80
             nkpt         163
            nstep        2500
             nsym           8
           ntypat           4
              occ      2.000000  2.000000  2.000000  2.000000  2.000000  2.000000
                       2.000000  2.000000  2.000000  2.000000  2.000000  2.000000
                       2.000000  2.000000  2.000000  2.000000  2.000000  2.000000
                       2.000000  2.000000  2.000000  2.000000  2.000000  2.000000
                       2.000000  2.000000  2.000000  2.000000  2.000000  2.000000
                       2.000000  2.000000  2.000000  2.000000  2.000000  2.000000
                       0.000000  0.000000  0.000000  0.000000  0.000000  0.000000
        pawecutdg      4.00000000E+01 Hartree
            prtwf           0
            rprim1     0.0000000000E+00  7.0710034456E-01  7.0711321776E-01
                       7.0710034456E-01  0.0000000000E+00  7.0711321776E-01
                       7.0710678119E-01  7.0710678119E-01  0.0000000000E+00
            rprim2     0.0000000000E+00  7.0712805103E-01  7.0708551071E-01
                       7.0712805103E-01  0.0000000000E+00  7.0708551071E-01
                       7.0710678119E-01  7.0710678119E-01  0.0000000000E+00
            rprim3     0.0000000000E+00  7.0708918193E-01  7.0712438001E-01
                       7.0708918193E-01  0.0000000000E+00  7.0712438001E-01
                       7.0710678119E-01  7.0710678119E-01  0.0000000000E+00
            rprim4     0.0000000000E+00  7.0708339893E-01  7.0713016267E-01
                       7.0708339893E-01  0.0000000000E+00  7.0713016267E-01
[...]
                      -2.2411617032E-12 -2.2411617032E-12  1.2335639185E-01
            xcart3     4.9948713018E+00  4.9948713018E+00  5.0355695049E+00
                       1.4984613905E+01  1.4984613905E+01  1.5025809386E+01
                       9.9897426037E+00  9.9897426037E+00  5.0588355094E+00
                       9.9897426034E+00  9.9897426034E+00  1.4730928611E+01
                       1.5041725214E+01  9.9897426038E+00  9.9867701253E+00
                       9.9897426038E+00  1.5041725214E+01  9.9867701253E+00
                       9.9897426034E+00  4.9377599937E+00  9.9867701253E+00
                       4.9377599937E+00  9.9897426034E+00  9.9867701253E+00
                      -3.9688879868E-12 -3.9688879868E-12  1.2369553612E-01
            xcart4     4.9898341955E+00  4.9898341955E+00  5.0303189994E+00
                       1.4969502587E+01  1.4969502587E+01  1.5010647407E+01
                       9.9796683912E+00  9.9796683912E+00  5.0581293434E+00
                       9.9796683909E+00  9.9796683909E+00  1.4714003934E+01
                       1.5022872184E+01  9.9796683912E+00  9.9763369838E+00
                       9.9796683912E+00  1.5022872184E+01  9.9763369838E+00
                       9.9796683909E+00  4.9364645982E+00  9.9763369838E+00
                       4.9364645982E+00  9.9796683909E+00  9.9763369838E+00
                      -3.6731436538E-12 -3.6731436538E-12  1.2417963914E-01
            xcart5     4.9841247852E+00  4.9841247852E+00  5.0255545064E+00
                       1.4952374355E+01  1.4952374355E+01  1.4998661424E+01
                       9.9682495705E+00  9.9682495705E+00  5.0573606410E+00
                       9.9682495701E+00  9.9682495701E+00  1.4702535011E+01
                       1.5001282553E+01  9.9682495705E+00  9.9689845286E+00
                       9.9682495705E+00  1.5001282553E+01  9.9689845286E+00
                       9.9682495701E+00  4.9352165878E+00  9.9689845286E+00
                       4.9352165878E+00  9.9682495701E+00  9.9689845286E+00
                      -5.3864026646E-12 -5.3864026646E-12  1.2480564836E-01
            xcart6     4.9786394491E+00  4.9786394491E+00  5.0207224631E+00
                       1.4935918347E+01  1.4935918347E+01  1.4985712021E+01
                       9.9572788986E+00  9.9572788986E+00  5.0566953857E+00
                       9.9572788980E+00  9.9572788980E+00  1.4689048566E+01
                       1.4980550124E+01  9.9572788986E+00  9.9606295739E+00
                       9.9572788986E+00  1.4980550124E+01  9.9606295739E+00
                       9.9572788980E+00  4.9340076730E+00  9.9606295739E+00
                       4.9340076730E+00  9.9572788980E+00  9.9606295739E+00
                      -7.0268866623E-12 -7.0268866623E-12  1.2521973402E-01
            xcart7     4.9743118759E+00  4.9743118759E+00  5.0148613240E+00
                       1.4922935628E+01  1.4922935628E+01  1.4967099718E+01
                       9.9486237519E+00  9.9486237519E+00  5.0562860820E+00
                       9.9486237516E+00  9.9486237516E+00  1.4666694043E+01
                       1.4964527679E+01  9.9486237519E+00  9.9467704617E+00
                       9.9486237519E+00  1.4964527679E+01  9.9467704617E+00
                       9.9486237516E+00  4.9327198249E+00  9.9467704617E+00
                       4.9327198249E+00  9.9486237516E+00  9.9467704617E+00
                      -3.8356414954E-12 -3.8356414954E-12  1.2588414144E-01
            xcart8     4.9715805882E+00  4.9715805882E+00  5.0123414661E+00
                       1.4914741765E+01  1.4914741765E+01  1.4960475450E+01
                       9.9431611766E+00  9.9431611766E+00  5.0560701376E+00
                       9.9431611763E+00  9.9431611763E+00  1.4660132311E+01
                       1.4954254248E+01  9.9431611766E+00  9.9424146478E+00
                       9.9431611766E+00  1.4954254248E+01  9.9424146478E+00
                       9.9431611763E+00  4.9320681049E+00  9.9424146478E+00
                       4.9320681049E+00  9.9431611763E+00  9.9424146478E+00
                      -3.9827755904E-12 -3.9827755904E-12  1.2639391748E-01
            xcart9     4.9687578704E+00  4.9687578704E+00  5.0107850780E+00
                       1.4906273611E+01  1.4906273611E+01  1.4955180739E+01
                       9.9375157409E+00  9.9375157409E+00  5.0554164086E+00
                       9.9375157408E+00  9.9375157408E+00  1.4653644719E+01
                       1.4943731172E+01  9.9375157409E+00  9.9384866281E+00
                       9.9375157409E+00  1.4943731172E+01  9.9384866281E+00
                       9.9375157408E+00  4.9313003093E+00  9.9384866281E+00
                       4.9313003093E+00  9.9375157408E+00  9.9384866281E+00
                      -8.4862162008E-13 -8.4862162008E-13  1.2619183254E-01
            xcart10    4.9660371749E+00  4.9660371749E+00  5.0086753711E+00
                       1.4898111525E+01  1.4898111525E+01  1.4948924517E+01
                       9.9320743498E+00  9.9320743498E+00  5.0545625193E+00
                       9.9320743498E+00  9.9320743498E+00  1.4646792886E+01
                       1.4933497432E+01  9.9320743498E+00  9.9341915057E+00
                       9.9320743498E+00  1.4933497432E+01  9.9341915057E+00
                       9.9320743498E+00  4.9306512675E+00  9.9341915057E+00
                       4.9306512675E+00  9.9320743498E+00  9.9341915057E+00
                      -7.1243588753E-13 -7.1243588753E-13  1.2627185356E-01
            xcart11    4.9636179798E+00  4.9636179798E+00  5.0059096077E+00
                       1.4890853939E+01  1.4890853939E+01  1.4940805310E+01
                       9.9272359596E+00  9.9272359596E+00  5.0543361008E+00
                       9.9272359595E+00  9.9272359595E+00  1.4637510909E+01
                       1.4924543048E+01  9.9272359596E+00  9.9284985214E+00
                       9.9272359596E+00  1.4924543048E+01  9.9284985214E+00
                       9.9272359595E+00  4.9299288708E+00  9.9284985214E+00
                       4.9299288708E+00  9.9272359595E+00  9.9284985214E+00
                      -1.2774048181E-12 -1.2774048181E-12  1.2660960269E-01
            xcart12    4.9609249559E+00  4.9609249559E+00  5.0034425262E+00
                       1.4882774868E+01  1.4882774868E+01  1.4934080995E+01
                       9.9218499118E+00  9.9218499118E+00  5.0540359373E+00
                       9.9218499118E+00  9.9218499118E+00  1.4630508405E+01
                       1.4914425224E+01  9.9218499118E+00  9.9240394058E+00
                       9.9218499118E+00  1.4914425224E+01  9.9240394058E+00
                       9.9218499118E+00  4.9292745998E+00  9.9240394058E+00
                       4.9292745998E+00  9.9218499118E+00  9.9240394058E+00
                      -2.3369055603E-13 -2.3369055603E-13  1.2688226624E-01
            xcart13    4.9582749691E+00  4.9582749691E+00  5.0007240439E+00
                       1.4874824907E+01  1.4874824907E+01  1.4926933048E+01
                       9.9165499384E+00  9.9165499384E+00  5.0536943154E+00
                       9.9165499381E+00  9.9165499381E+00  1.4623191547E+01
                       1.4904535876E+01  9.9165499384E+00  9.9194812734E+00
                       9.9165499384E+00  1.4904535876E+01  9.9194812734E+00
                       9.9165499381E+00  4.9285640004E+00  9.9194812734E+00
                       4.9285640004E+00  9.9165499381E+00  9.9194812734E+00
                      -4.3831693343E-12 -4.3831693343E-12  1.2720398773E-01
             xred1     2.5203510860E-01  2.5203510860E-01  2.4796489140E-01
                       7.5203510860E-01  7.5203510860E-01  7.4796489140E-01
                       2.5276467033E-01  2.5276467033E-01  7.4723532967E-01
                       7.3751840098E-01  7.3751840098E-01  2.6248159902E-01
                       2.4665605449E-01  7.5309625326E-01  7.5334394551E-01
                       7.5309625326E-01  2.4665605449E-01  7.5334394551E-01
                       2.4665605449E-01  7.5309625326E-01  2.4690374674E-01
                       7.5309625326E-01  2.4665605449E-01  2.4690374674E-01
                       6.1420960096E-03  6.1420960096E-03 -6.1420960096E-03
             xred2     2.5205896392E-01  2.5205896392E-01  2.4794103608E-01
                       7.5205896392E-01  7.5205896392E-01  7.4794103608E-01
                       2.5300038274E-01  2.5300038274E-01  7.4699961726E-01
                       7.3736733927E-01  7.3736733927E-01  2.6263266073E-01
                       2.4678702149E-01  7.5288609799E-01  7.5321297851E-01
                       7.5288609799E-01  2.4678702149E-01  7.5321297851E-01
                       2.4678702149E-01  7.5288609799E-01  2.4711390201E-01
                       7.5288609799E-01  2.4678702149E-01  2.4711390201E-01
                       6.1681111808E-03  6.1681111808E-03 -6.1681111808E-03
             xred3     2.5202445411E-01  2.5202445411E-01  2.4797554589E-01
                       7.5202445411E-01  7.5202445411E-01  7.4797554589E-01
                       2.5318889084E-01  2.5318889084E-01  7.4681110916E-01
                       7.3726601094E-01  7.3726601094E-01  2.6273398906E-01
                       2.4696784524E-01  7.5268484020E-01  7.5303215476E-01
                       7.5268484020E-01  2.4696784524E-01  7.5303215476E-01
                       2.4696784524E-01  7.5268484020E-01  2.4731515980E-01
                       7.5268484020E-01  2.4696784524E-01  2.4731515980E-01
                       6.1908191192E-03  6.1908191192E-03 -6.1908191192E-03
             xred4     2.5201169712E-01  2.5201169712E-01  2.4798830288E-01
                       7.5201169712E-01  7.5201169712E-01  7.4798830288E-01
                       2.5340495508E-01  2.5340495508E-01  7.4659504492E-01
                       7.3715028872E-01  7.3715028872E-01  2.6284971128E-01
                       2.4712611910E-01  7.5247395184E-01  7.5287388090E-01
                       7.5247395184E-01  2.4712611910E-01  7.5287388090E-01
                       2.4712611910E-01  7.5247395184E-01  2.4752604816E-01
                       7.5247395184E-01  2.4712611910E-01  2.4752604816E-01
                       6.2212200878E-03  6.2212200878E-03 -6.2212200878E-03
             xred5     2.5195531080E-01  2.5195531080E-01  2.4804468920E-01
                       7.5195531080E-01  7.5195531080E-01  7.4804468920E-01
                       2.5354990589E-01  2.5354990589E-01  7.4645009411E-01
                       7.3710906397E-01  7.3710906397E-01  2.6289093603E-01
                       2.4734012583E-01  7.5224652359E-01  7.5265987417E-01
                       7.5224652359E-01  2.4734012583E-01  7.5265987417E-01
                       2.4734012583E-01  7.5224652359E-01  2.4775347641E-01
                       7.5224652359E-01  2.4734012583E-01  2.4775347641E-01
                       6.2571097146E-03  6.2571097146E-03 -6.2571097146E-03
             xred6     2.5191809955E-01  2.5191809955E-01  2.4808190045E-01
                       7.5191809955E-01  7.5191809955E-01  7.4808190045E-01
                       2.5372306494E-01  2.5372306494E-01  7.4627693506E-01
                       7.3703281275E-01  7.3703281275E-01  2.6296718725E-01
                       2.4754007157E-01  7.5202239818E-01  7.5245992843E-01
                       7.5202239818E-01  2.4754007157E-01  7.5245992843E-01
                       2.4754007157E-01  7.5202239818E-01  2.4797760182E-01
                       7.5202239818E-01  2.4754007157E-01  2.4797760182E-01
                       6.2829837047E-03  6.2829837047E-03 -6.2829837047E-03
             xred7     2.5194640267E-01  2.5194640267E-01  2.4805359733E-01
                       7.5194640267E-01  7.5194640267E-01  7.4805359733E-01
                       2.5402758061E-01  2.5402758061E-01  7.4597241939E-01
                       7.3685403532E-01  7.3685403532E-01  2.6314596468E-01
                       2.4763494937E-01  7.5181563325E-01  7.5236505063E-01
                       7.5181563325E-01  2.4763494937E-01  7.5236505063E-01
                       2.4763494937E-01  7.5181563325E-01  2.4818436675E-01
                       7.5181563325E-01  2.4763494937E-01  2.4818436675E-01
                       6.3244134863E-03  6.3244134863E-03 -6.3244134863E-03
             xred8     2.5192370117E-01  2.5192370117E-01  2.4807629883E-01
                       7.5192370117E-01  7.5192370117E-01  7.4807629883E-01
                       2.5412153403E-01  2.5412153403E-01  7.4587846597E-01
                       7.3682825011E-01  7.3682825011E-01  2.6317174989E-01
                       2.4772562468E-01  7.5169945982E-01  7.5227437532E-01
                       7.5169945982E-01  2.4772562468E-01  7.5227437532E-01
                       2.4772562468E-01  7.5169945982E-01  2.4830054018E-01
                       7.5169945982E-01  2.4772562468E-01  2.4830054018E-01
                       6.3526445099E-03  6.3526445099E-03 -6.3526445099E-03
             xred9     2.5194015045E-01  2.5194015045E-01  2.4805984955E-01
                       7.5194015045E-01  7.5194015045E-01  7.4805984955E-01
                       2.5418419484E-01  2.5418419484E-01  7.4581580516E-01
                       7.3677904712E-01  7.3677904712E-01  2.6322095288E-01
                       2.4781824214E-01  7.5158755050E-01  7.5218175786E-01
                       7.5158755050E-01  2.4781824214E-01  7.5218175786E-01
                       2.4781824214E-01  7.5158755050E-01  2.4841244950E-01
                       7.5158755050E-01  2.4781824214E-01  2.4841244950E-01
                       6.3448718677E-03  6.3448718677E-03 -6.3448718677E-03
             xred10    2.5193912634E-01  2.5193912634E-01  2.4806087366E-01
                       7.5193912634E-01  7.5193912634E-01  7.4806087366E-01
                       2.5424727514E-01  2.5424727514E-01  7.4575272486E-01
                       7.3674173910E-01  7.3674173910E-01  2.6325826090E-01
                       2.4791390173E-01  7.5147669296E-01  7.5208609827E-01
                       7.5147669296E-01  2.4791390173E-01  7.5208609827E-01
                       2.4791390173E-01  7.5147669296E-01  2.4852330704E-01
                       7.5147669296E-01  2.4791390173E-01  2.4852330704E-01
                       6.3515436937E-03  6.3515436937E-03 -6.3515436937E-03
             xred11    2.5193569001E-01  2.5193569001E-01  2.4806430999E-01
                       7.5193569001E-01  7.5193569001E-01  7.4806430999E-01
                       2.5437288183E-01  2.5437288183E-01  7.4562711817E-01
                       7.3667159416E-01  7.3667159416E-01  2.6332840584E-01
                       2.4798124284E-01  7.5137484697E-01  7.5201875716E-01
                       7.5137484697E-01  2.4798124284E-01  7.5201875716E-01
                       2.4798124284E-01  7.5137484697E-01  2.4862515303E-01
                       7.5137484697E-01  2.4798124284E-01  2.4862515303E-01
                       6.3719643612E-03  6.3719643612E-03 -6.3719643612E-03
             xred12    2.5191947838E-01  2.5191947838E-01  2.4808052162E-01
                       7.5191947838E-01  7.5191947838E-01  7.4808052162E-01
                       2.5446681767E-01  2.5446681767E-01  7.4553318233E-01
                       7.3663483221E-01  7.3663483221E-01  2.6336516779E-01
                       2.4807275964E-01  7.5126272485E-01  7.5192724036E-01
                       7.5126272485E-01  2.4807275964E-01  7.5192724036E-01
                       2.4807275964E-01  7.5126272485E-01  2.4873727515E-01
                       7.5126272485E-01  2.4807275964E-01  2.4873727515E-01
                       6.3884244018E-03  6.3884244018E-03 -6.3884244018E-03
             xred13    2.5189496018E-01  2.5189496018E-01  2.4810503982E-01
                       7.5189496018E-01  7.5189496018E-01  7.4810503982E-01
                       2.5456316269E-01  2.5456316269E-01  7.4543683731E-01
                       7.3659498508E-01  7.3659498508E-01  2.6340501492E-01
                       2.4816306309E-01  7.5115916243E-01  7.5183693691E-01
                       7.5115916243E-01  2.4816306309E-01  7.5183693691E-01
                       2.4816306309E-01  7.5115916243E-01  2.4884083757E-01
                       7.5115916243E-01  2.4816306309E-01  2.4884083757E-01
                       6.4074808255E-03  6.4074808255E-03 -6.4074808255E-03
            znucl       55.00000   53.00000   40.00000   35.00000

- Timing analysis has been suppressed with timopt=0

 Suggested references for the acknowledgment of ABINIT usage.

 Calculation completed.
.Delivered   0 WARNINGs and  20 COMMENTs to log file.