.Version 9.2.2 of ABINIT

 ABINIT is a project of the Universite Catholique de Louvain,
 Corning Inc. and other collaborators, see ~abinit/doc/developers/contributors.txt .
 acknowledgments of the ABINIT effort.

.Starting date : Tue  8 Nov 2022.
- ( at 10h16 )

- input  file    -> Cs2TiI6.in
- output file    -> Cs2TiI6.out
- root for input  files -> Cs2TiI6i
- root for output files -> Cs2TiI6o

- inpspheads : Reading pseudopotential header in XML form from
-   ../../../Psps_for_tests/ATOMICDATA/Cs.GGA_PBE-JTH.xml
- inpspheads : Reading pseudopotential header in XML form from
-   ../../../Psps_for_tests/ATOMICDATA/I.GGA_PBE-JTH.xml
- inpspheads : Reading pseudopotential header in XML form from
-   ../../../Psps_for_tests/ATOMICDATA/Hf.GGA_PBE-JTH.xml
- inpspheads : Reading pseudopotential header in XML form from
-   ../../../Psps_for_tests/ATOMICDATA/Br.GGA_PBE-JTH.xml

 DATASET    1 : space group I4 m m (#107); Bravais tI (body-center tetrag.)
     intxc =       0    ionmov =       2      iscf =      17    lmnmax =      18
     lnmax =       6     mgfft =      64  mpssoang =       3    mqgrid =    3996
     natom =       9  nloc_mem =       2    nspden =       1   nspinor =       1
    nsppol =       1      nsym =       8    n1xccc =       1    ntypat =       4
    occopt =       1   xclevel =       2
-    mband =          42        mffmem =           1         mkmem =           4
       mpw =       11014          nfft =      262144          nkpt =          20
Pmy_natom=         2
 PAW method is used; the additional fine FFT grid is defined by:
   mgfftf=       100    nfftf =   1000000
  Rough estimation (10% accuracy) of disk space for files :

[...]

 DATASET   10 : space group I4 m m (#107); Bravais tI (body-center tetrag.)
     intxc =       0    ionmov =       2      iscf =      17    lmnmax =      18
     lnmax =       6     mgfft =      64  mpssoang =       3    mqgrid =    3960
     natom =       9  nloc_mem =       2    nspden =       1   nspinor =       1
    nsppol =       1      nsym =       8    n1xccc =       1    ntypat =       4
    occopt =       1   xclevel =       2
-    mband =          42        mffmem =           1         mkmem =           4
       mpw =       10730          nfft =      262144          nkpt =          20
Pmy_natom=         2
 PAW method is used; the additional fine FFT grid is defined by:
   mgfftf=       100    nfftf =   1000000
  Rough estimation (10% accuracy) of disk space for files :

------------- Echo of variables that govern the present computation ------------
-
- outvars: echo of selected default values
-   iomode0 =  0 , fftalg0 =112 , wfoptalg0 = 10
-
- outvars: echo of global parameters not present in the input file
-  max_nthreads =    0
-
 -outvars: echo values of preprocessed input variables --------
            acell1     1.4900987769E+01  1.5045313857E+01  1.4900987769E+01 Bohr
            acell2     1.4886071866E+01  1.5030253483E+01  1.4886071866E+01 Bohr
            acell3     1.4871155962E+01  1.5015193108E+01  1.4871155962E+01 Bohr
            acell4     1.4856240058E+01  1.5000132734E+01  1.4856240058E+01 Bohr
            acell5     1.4841324155E+01  1.4985072360E+01  1.4841324155E+01 Bohr
            acell6     1.4826408251E+01  1.4970011986E+01  1.4826408251E+01 Bohr
            acell7     1.4811492347E+01  1.4954951611E+01  1.4811492347E+01 Bohr
            acell8     1.4796576444E+01  1.4939891237E+01  1.4796576444E+01 Bohr
            acell9     1.4781660540E+01  1.4924830863E+01  1.4781660540E+01 Bohr
            acell10    1.4766744636E+01  1.4909770489E+01  1.4766744636E+01 Bohr
              amu      1.32905430E+02  1.26904470E+02  1.78490000E+02
                       7.99040000E+01
           diemac      1.20000000E+01
          dilatmx      1.15000000E+00
             ecut      1.60000000E+01 Hartree
           ecutsm      5.00000000E-01 Hartree
-          fftalg         112
          getxred1          0
          getxred2         -1
          getxred3         -1
          getxred4         -1
          getxred5         -1
          getxred6         -1
          getxred7         -1
          getxred8         -1
          getxred9         -1
          getxred10        -1
           ionmov           2
              ixc     -101130
           jdtset        1    2    3    4    5    6    7    8    9   10
              kpt      0.00000000E+00 -1.25000000E-01  0.00000000E+00
                       0.00000000E+00 -3.75000000E-01  0.00000000E+00
                       1.25000000E-01 -2.50000000E-01  0.00000000E+00
                       1.25000000E-01 -1.25000000E-01  1.25000000E-01
                       1.25000000E-01  5.00000000E-01  0.00000000E+00
                       2.50000000E-01 -3.75000000E-01  0.00000000E+00
                       1.25000000E-01 -3.75000000E-01  1.25000000E-01
                       2.50000000E-01 -2.50000000E-01  1.25000000E-01
                       2.50000000E-01 -1.25000000E-01  2.50000000E-01
                       1.25000000E-01  2.50000000E-01  0.00000000E+00
                       2.50000000E-01  3.75000000E-01  0.00000000E+00
                       3.75000000E-01  5.00000000E-01  0.00000000E+00
                       1.25000000E-01  3.75000000E-01  1.25000000E-01
                       2.50000000E-01  5.00000000E-01  1.25000000E-01
                       3.75000000E-01 -3.75000000E-01  1.25000000E-01
                       2.50000000E-01 -3.75000000E-01  2.50000000E-01
                       3.75000000E-01 -2.50000000E-01  2.50000000E-01
                       3.75000000E-01 -1.25000000E-01  3.75000000E-01
                       5.00000000E-01  2.50000000E-01  1.25000000E-01
                      -3.75000000E-01  3.75000000E-01  1.25000000E-01
         kptrlatt        4    4   -4     -4    4    4      4   -4    4
          kptrlen1     8.34682989E+01
          kptrlen2     8.33847471E+01
          kptrlen3     8.33011952E+01
          kptrlen4     8.32176434E+01
          kptrlen5     8.31340915E+01
          kptrlen6     8.30505397E+01
          kptrlen7     8.29669878E+01
          kptrlen8     8.28834360E+01
          kptrlen9     8.27998841E+01
          kptrlen10    8.27163323E+01
P           mkmem           4
            natom           9
            nband          42
           ndtset          10
            ngfft          64      64      64
          ngfftdg         100     100     100
             nkpt          20
            nstep        2500
             nsym           8
            ntime        1000
           ntypat           4
              occ      2.000000  2.000000  2.000000  2.000000  2.000000  2.000000
                       2.000000  2.000000  2.000000  2.000000  2.000000  2.000000
                       2.000000  2.000000  2.000000  2.000000  2.000000  2.000000
                       2.000000  2.000000  2.000000  2.000000  2.000000  2.000000
                       2.000000  2.000000  2.000000  2.000000  2.000000  2.000000
                       2.000000  2.000000  2.000000  2.000000  2.000000  2.000000
                       0.000000  0.000000  0.000000  0.000000  0.000000  0.000000
          optcell           3
        optforces           1
        pawecutdg      4.00000000E+01 Hartree
            prtwf           0
            rprim      0.0000000000E+00  7.0019098923E-01  7.1395558587E-01
                       7.0710678119E-01  0.0000000000E+00  7.0710678119E-01
                       7.1395558587E-01  7.0019098923E-01  0.0000000000E+00
           shiftk     -5.00000000E-01  5.00000000E-01  5.00000000E-01
          spgroup         107
           symrel      1  0  0   0  1  0   0  0  1       0  0  1   0  1  0   1  0  0
                       0 -1  1   0 -1  0   1 -1  0       1 -1  0   0 -1  0   0 -1  1
                       0 -1  1  -1  0  1   0  0  1       0  0  1  -1  0  1   0 -1  1
                       1  0  0   1  0 -1   1 -1  0       1 -1  0   1  0 -1   1  0  0
           toldff      1.00000000E-08
           tolmxf      1.00000000E-05
            typat      1  1  4  2  2  2  2  2  3
           useylm           1
              wtk        0.03125    0.03125    0.06250    0.03125    0.06250    0.06250
                         0.03125    0.06250    0.03125    0.06250    0.06250    0.06250
                         0.03125    0.06250    0.06250    0.03125    0.06250    0.03125
                         0.06250    0.06250
           xangst1     2.8148638228E+00  2.7489103760E+00  2.8148638228E+00
                       8.4445914685E+00  8.2701005554E+00  8.4445914685E+00
                       5.6297276456E+00  8.3921903605E+00  5.6297276456E+00
                       5.6297276456E+00  5.5161700316E+00  2.8305260707E+00
                       5.6297276457E+00  5.5161700316E+00  8.4289292207E+00
                       5.6297276457E+00  2.7616216523E+00  5.6297276457E+00
                       8.4289292207E+00  5.5161700316E+00  5.6297276457E+00
                       2.8305260707E+00  5.5161700316E+00  5.6297276456E+00
                       1.1776565821E-12 -6.7946299934E-02  1.1776565821E-12
           xangst2     2.8120461413E+00  2.7461587139E+00  2.8120461413E+00
                       8.4361384240E+00  8.2618221765E+00  8.4361384240E+00
                       5.6240922826E+00  8.3837897696E+00  5.6240922826E+00
                       5.6240922826E+00  5.5106483399E+00  2.8276927113E+00
                       5.6240922827E+00  5.5106483399E+00  8.4204918541E+00
                       5.6240922827E+00  2.7588572663E+00  5.6240922827E+00
                       8.4204918541E+00  5.5106483399E+00  5.6240922827E+00
                       2.8276927113E+00  5.5106483399E+00  5.6240922826E+00
                       1.1764773340E-12 -6.7878285620E-02  1.1764773340E-12
           xangst3     2.8092284598E+00  2.7434070519E+00  2.8092284598E+00
                       8.4276853795E+00  8.2535437975E+00  8.4276853795E+00
                       5.6184569196E+00  8.3753891786E+00  5.6184569196E+00
                       5.6184569196E+00  5.5051266482E+00  2.8248593518E+00
                       5.6184569197E+00  5.5051266482E+00  8.4120544875E+00
                       5.6184569197E+00  2.7560928803E+00  5.6184569197E+00
                       8.4120544875E+00  5.5051266482E+00  5.6184569197E+00
                       2.8248593518E+00  5.5051266482E+00  5.6184569196E+00
                       1.1752980858E-12 -6.7810271305E-02  1.1752980858E-12
           xangst4     2.8064107783E+00  2.7406553899E+00  2.8064107783E+00
                       8.4192323350E+00  8.2452654186E+00  8.4192323350E+00
                       5.6128215566E+00  8.3669885877E+00  5.6128215566E+00
                       5.6128215566E+00  5.4996049565E+00  2.8220259924E+00
                       5.6128215567E+00  5.4996049565E+00  8.4036171209E+00
                       5.6128215567E+00  2.7533284942E+00  5.6128215567E+00
                       8.4036171209E+00  5.4996049565E+00  5.6128215567E+00
                       2.8220259924E+00  5.4996049565E+00  5.6128215566E+00
                       1.1741188377E-12 -6.7742256991E-02  1.1741188377E-12
[...]
                       1.2258184230E-12 -7.0671595008E-02  1.2257832166E-12
           xangst7     2.7986058850E+00  2.7334754180E+00  2.7986058850E+00
                       8.3958176550E+00  8.2189635583E+00  8.3958176550E+00
                       5.5972117699E+00  8.3178298311E+00  5.5972117699E+00
                       5.5972117699E+00  5.4825284811E+00  2.8266795179E+00
                       5.5972117700E+00  5.4825284811E+00  8.3677440221E+00
                       5.5972117700E+00  2.7548740700E+00  5.5972117700E+00
                       8.3677440221E+00  5.4825284811E+00  5.5972117700E+00
                       2.8266795179E+00  5.4825284811E+00  5.5972117699E+00
                       1.2367420131E-12 -7.1316572843E-02  1.2367335591E-12
           xangst8     2.7958805263E+00  2.7304740233E+00  2.7958805263E+00
                       8.3876415790E+00  8.2100735456E+00  8.3876415790E+00
                       5.5917610526E+00  8.3062543914E+00  5.5917610526E+00
                       5.5917610526E+00  5.4769848361E+00  2.8256851022E+00
                       5.5917610527E+00  5.4769848361E+00  8.3578370031E+00
                       5.5917610527E+00  2.7536820360E+00  5.5917610527E+00
                       8.3578370031E+00  5.4769848361E+00  5.5917610527E+00
                       2.8256851022E+00  5.4769848361E+00  5.5917610526E+00
                       1.2413819335E-12 -7.1592092443E-02  1.2418426910E-12
           xangst9     2.7931417060E+00  2.7284100952E+00  2.7931417060E+00
                       8.3794251180E+00  8.2021737978E+00  8.3794251180E+00
                       5.5862834119E+00  8.2942065906E+00  5.5862834119E+00
                       5.5862834119E+00  5.4714137997E+00  2.8246762487E+00
                       5.5862834120E+00  5.4714137997E+00  8.3478905753E+00
                       5.5862834120E+00  2.7520567382E+00  5.5862834120E+00
                       8.3478905753E+00  5.4714137997E+00  5.5862834120E+00
                       2.8246762487E+00  5.4714137997E+00  5.5862834119E+00
                       1.2538365580E-12 -7.2357767980E-02  1.2544616053E-12
           xangst10    2.7905175278E+00  2.7251828026E+00  2.7905175278E+00
                       8.3715525835E+00  8.1926614462E+00  8.3715525835E+00
                       5.5810350556E+00  8.2818137496E+00  5.5810350556E+00
                       5.5810350556E+00  5.4654951224E+00  2.8236727956E+00
                       5.5810350557E+00  5.4654951224E+00  8.3383973157E+00
                       5.5810350557E+00  2.7508017039E+00  5.5810350557E+00
                       8.3383973157E+00  5.4654951224E+00  5.5810350557E+00
                       2.8236727956E+00  5.4654951224E+00  5.5810350556E+00
                       1.2581268948E-12 -7.2576051278E-02  1.2587465141E-12
            xcart1     5.3193978887E+00  5.1956672747E+00  5.3193978887E+00
                       1.5958193666E+01  1.5628905873E+01  1.5958193666E+01
                       1.0638795777E+01  1.5852642209E+01  1.0638795777E+01
                       1.0638795777E+01  1.0424354604E+01  5.3524619130E+00
                       1.0638795778E+01  1.0424354604E+01  1.5925129642E+01
                       1.0638795778E+01  5.2212540792E+00  1.0638795778E+01
                       1.5925129642E+01  1.0424354604E+01  1.0638795778E+01
                       5.3524619130E+00  1.0424354604E+01  1.0638795777E+01
                       2.2491790776E-12 -1.2991229549E-01  2.2479887064E-12
            xcart2     5.3140860036E+00  5.1909684350E+00  5.3140860036E+00
                       1.5942258011E+01  1.5613712993E+01  1.5942258011E+01
                       1.0628172007E+01  1.5831646576E+01  1.0628172007E+01
                       1.0628172007E+01  1.0414409534E+01  5.3507196167E+00
                       1.0628172007E+01  1.0414409534E+01  1.5905624397E+01
                       1.0628172007E+01  5.2187655394E+00  1.0628172007E+01
                       1.5905624397E+01  1.0414409534E+01  1.0628172007E+01
                       5.3507196167E+00  1.0414409534E+01  1.0628172007E+01
                       2.2634464939E-12 -1.3070850892E-01  2.2634464939E-12
            xcart3     5.3090302804E+00  5.1869548495E+00  5.3090302804E+00
                       1.5927090841E+01  1.5598200605E+01  1.5927090841E+01
                       1.0618060561E+01  1.5807827782E+01  1.0618060561E+01
                       1.0618060561E+01  1.0403420306E+01  5.3488787528E+00
                       1.0618060561E+01  1.0403420306E+01  1.5887242369E+01
                       1.0618060561E+01  5.2157847732E+00  1.0618060561E+01
                       1.5887242369E+01  1.0403420306E+01  1.0618060561E+01
                       5.3488787528E+00  1.0403420306E+01  1.0618060561E+01
                       2.2917560824E-12 -1.3241655812E-01  2.2929349240E-12
            xcart4     5.3042479584E+00  5.1807517825E+00  5.3042479584E+00
                       1.5912743875E+01  1.5579426839E+01  1.5912743875E+01
                       1.0608495917E+01  1.5783275736E+01  1.0608495917E+01
                       1.0608495917E+01  1.0391333598E+01  5.3471897649E+00
                       1.0608495917E+01  1.0391333598E+01  1.5869802069E+01
                       1.0608495917E+01  5.2133513274E+00  1.0608495917E+01
                       1.5869802069E+01  1.0391333598E+01  1.0608495917E+01
                       5.3471897649E+00  1.0391333598E+01  1.0608495917E+01
                       2.2990556813E-12 -1.3267307425E-01  2.2990762147E-12
            xcart5     5.2990831561E+00  5.1755498579E+00  5.2990831561E+00
                       1.5897249468E+01  1.5563154232E+01  1.5897249468E+01
                       1.0598166312E+01  1.5761255356E+01  1.0598166312E+01
                       1.0598166312E+01  1.0380817615E+01  5.3453841699E+00
                       1.0598166312E+01  1.0380817615E+01  1.5850948455E+01
                       1.0598166312E+01  5.2109505354E+00  1.0598166312E+01
                       1.5850948455E+01  1.0380817615E+01  1.0598166312E+01
                       5.3453841699E+00  1.0380817615E+01  1.0598166312E+01
                       2.3104185057E-12 -1.3327896671E-01  2.3113101727E-12
            xcart6     5.2938115755E+00  5.1698836853E+00  5.2938115755E+00
                       1.5881434726E+01  1.5546836037E+01  1.5881434726E+01
                       1.0587623151E+01  1.5740474707E+01  1.0587623151E+01
                       1.0587623151E+01  1.0370805855E+01  5.3435145686E+00
                       1.0587623151E+01  1.0370805855E+01  1.5831731733E+01
                       1.0587623151E+01  5.2088173369E+00  1.0587623151E+01
                       1.5831731733E+01  1.0370805855E+01  1.0587623151E+01
                       5.3435145686E+00  1.0370805855E+01  1.0587623151E+01
                       2.3164611082E-12 -1.3354995994E-01  2.3163945777E-12
            xcart7     5.2885986765E+00  5.1655199310E+00  5.2885986765E+00
                       1.5865796030E+01  1.5531590221E+01  1.5865796030E+01
                       1.0577197353E+01  1.5718420401E+01  1.0577197353E+01
                       1.0577197353E+01  1.0360477345E+01  5.3416501543E+00
                       1.0577197353E+01  1.0360477345E+01  1.5812744552E+01
                       1.0577197353E+01  5.2059575230E+00  1.0577197353E+01
                       1.5812744552E+01  1.0360477345E+01  1.0577197353E+01
                       5.3416501543E+00  1.0360477345E+01  1.0577197353E+01
                       2.3371037017E-12 -1.3476879141E-01  2.3370877261E-12
            xcart8     5.2834484950E+00  5.1598481169E+00  5.2834484950E+00
                       1.5850345485E+01  1.5514790532E+01  1.5850345485E+01
                       1.0566896990E+01  1.5696545990E+01  1.0566896990E+01
                       1.0566896990E+01  1.0350001374E+01  5.3397709809E+00
                       1.0566896990E+01  1.0350001374E+01  1.5794022999E+01
                       1.0566896990E+01  5.2037049051E+00  1.0566896990E+01
                       1.5794022999E+01  1.0350001374E+01  1.0566896990E+01
                       5.3397709809E+00  1.0350001374E+01  1.0566896990E+01
                       2.3458718806E-12 -1.3528944800E-01  2.3467425862E-12
            xcart9     5.2782728747E+00  5.1559478582E+00  5.2782728747E+00
                       1.5834818624E+01  1.5499862172E+01  1.5834818624E+01
                       1.0556545749E+01  1.5673778946E+01  1.0556545749E+01
                       1.0556545749E+01  1.0339473641E+01  5.3378645241E+00
                       1.0556545749E+01  1.0339473641E+01  1.5775226975E+01
                       1.0556545749E+01  5.2006335373E+00  1.0556545749E+01
                       1.5775226975E+01  1.0339473641E+01  1.0556545749E+01
                       5.3378645241E+00  1.0339473641E+01  1.0556545749E+01
                       2.3694077100E-12 -1.3673636507E-01  2.3705888783E-12
            xcart10    5.2733138966E+00  5.1498491590E+00  5.2733138966E+00
                       1.5819941690E+01  1.5481886433E+01  1.5819941690E+01
                       1.0546627793E+01  1.5650359870E+01  1.0546627793E+01
                       1.0546627793E+01  1.0328288962E+01  5.3359682725E+00
                       1.0546627793E+01  1.0328288962E+01  1.5757287314E+01
                       1.0546627793E+01  5.1982618662E+00  1.0546627793E+01
                       1.5757287314E+01  1.0328288962E+01  1.0546627793E+01
                       5.3359682725E+00  1.0328288962E+01  1.0546627793E+01
                       2.3775152715E-12 -1.3714886072E-01  2.3786861824E-12
             xred1     2.4899590027E-01  2.5100409973E-01  2.4899590027E-01
                       7.4899590027E-01  7.5100409973E-01  7.4899590027E-01
                       7.5971818627E-01  2.4028181373E-01  7.5971818627E-01
                       2.5112818203E-01  2.5197969079E-01  7.4802030921E-01
                       7.4802030921E-01  7.4887181797E-01  2.5112818203E-01
                       2.5022211609E-01  7.4977788391E-01  2.5022211609E-01
                       2.5112818203E-01  7.4887181797E-01  7.4802030921E-01
                       7.4802030921E-01  2.5197969079E-01  2.5112818203E-01
                      -6.2258853891E-03  6.2258853891E-03 -6.2258853891E-03
             xred2     2.4902118660E-01  2.5097881340E-01  2.4902118660E-01
                       7.4902118660E-01  7.5097881340E-01  7.4902118660E-01
                       7.5947589849E-01  2.4052410151E-01  7.5947589849E-01
                       2.5132357236E-01  2.5212326809E-01  7.4787673191E-01
                       7.4787673191E-01  7.4867642764E-01  2.5132357236E-01
                       2.5035466955E-01  7.4964533045E-01  2.5035466955E-01
                       2.5132357236E-01  7.4867642764E-01  7.4787673191E-01
                       7.4787673191E-01  2.5212326809E-01  2.5132357236E-01
                      -6.2703498195E-03  6.2703498195E-03 -6.2703498195E-03
             xred3     2.4910346808E-01  2.5089653192E-01  2.4910346808E-01
                       7.4910346808E-01  7.5089653192E-01  7.4910346808E-01
                       7.5917081169E-01  2.4082918831E-01  7.5917081169E-01
                       2.5150063063E-01  2.5225226493E-01  7.4774773507E-01
                       7.4774773507E-01  7.4849936937E-01  2.5150063063E-01
                       2.5048802495E-01  7.4951197505E-01  2.5048802495E-01
                       2.5150063063E-01  7.4849936937E-01  7.4774773507E-01
                       7.4774773507E-01  2.5225226493E-01  2.5150063063E-01
                      -6.3593042191E-03  6.3593042191E-03 -6.3593042191E-03
             xred4     2.4910634068E-01  2.5089365932E-01  2.4910634068E-01
                       7.4910634068E-01  7.5089365932E-01  7.4910634068E-01
                       7.5890801716E-01  2.4109198284E-01  7.5890801716E-01
                       2.5167093501E-01  2.5237693443E-01  7.4762306557E-01
                       7.4762306557E-01  7.4832906499E-01  2.5167093501E-01
                       2.5067382619E-01  7.4932617381E-01  2.5067382619E-01
                       2.5167093501E-01  7.4832906499E-01  7.4762306557E-01
                       7.4762306557E-01  2.5237693443E-01  2.5167093501E-01
                      -6.3793259011E-03  6.3793259011E-03 -6.3793259011E-03
             xred5     2.4912143702E-01  2.5087856298E-01  2.4912143702E-01
                       7.4912143702E-01  7.5087856298E-01  7.4912143702E-01
                       7.5865689468E-01  2.4134310532E-01  7.5865689468E-01
                       2.5185771210E-01  2.5251106382E-01  7.4748893618E-01
                       7.4748893618E-01  7.4814228790E-01  2.5185771210E-01
                       2.5082542363E-01  7.4917457637E-01  2.5082542363E-01
                       2.5185771210E-01  7.4814228790E-01  7.4748893618E-01
                       7.4748893618E-01  2.5251106382E-01  2.5185771210E-01
                      -6.4152889305E-03  6.4152889305E-03 -6.4152889305E-03
             xred6     2.4910414494E-01  2.5089585506E-01  2.4910414494E-01
                       7.4910414494E-01  7.5089585506E-01  7.4910414494E-01
                       7.5843437331E-01  2.4156562669E-01  7.5843437331E-01
                       2.5205106050E-01  2.5264338248E-01  7.4735661752E-01
                       7.4735661752E-01  7.4794893950E-01  2.5205106050E-01
                       2.5098011248E-01  7.4901988752E-01  2.5098011248E-01
                       2.5205106050E-01  7.4794893950E-01  7.4735661752E-01
                       7.4735661752E-01  2.5264338248E-01  2.5205106050E-01
                      -6.4349317320E-03  6.4349317320E-03 -6.4349317320E-03
             xred7     2.4915516615E-01  2.5084483385E-01  2.4915516615E-01
                       7.4915516615E-01  7.5084483385E-01  7.4915516615E-01
                       7.5816678647E-01  2.4183321353E-01  7.5816678647E-01
                       2.5223805129E-01  2.5277759473E-01  7.4722240527E-01
                       7.4722240527E-01  7.4776194871E-01  2.5223805129E-01
                       2.5110564453E-01  7.4889435547E-01  2.5110564453E-01
                       2.5223805129E-01  7.4776194871E-01  7.4722240527E-01
                       7.4722240527E-01  2.5277759473E-01  2.5223805129E-01
                      -6.5004764407E-03  6.5004764407E-03 -6.5004764407E-03
             xred8     2.4914904932E-01  2.5085095068E-01  2.4914904932E-01
                       7.4914904932E-01  7.5085095068E-01  7.4914904932E-01
                       7.5792531530E-01  2.4207468470E-01  7.5792531530E-01
                       2.5242646006E-01  2.5290362747E-01  7.4709637253E-01
                       7.4709637253E-01  7.4757353994E-01  2.5242646006E-01
                       2.5126672348E-01  7.4873327652E-01  2.5126672348E-01
                       2.5242646006E-01  7.4757353994E-01  7.4709637253E-01
                       7.4709637253E-01  2.5290362747E-01  2.5242646006E-01
                      -6.5326026246E-03  6.5326026246E-03 -6.5326026246E-03
             xred9     2.4922614890E-01  2.5077385110E-01  2.4922614890E-01
                       7.4922614890E-01  7.5077385110E-01  7.4922614890E-01
                       7.5763286846E-01  2.4236713154E-01  7.5763286846E-01
                       2.5260784610E-01  2.5303714904E-01  7.4696285096E-01
                       7.4696285096E-01  7.4739215390E-01  2.5260784610E-01
                       2.5138614742E-01  7.4861385258E-01  2.5138614742E-01
                       2.5260784610E-01  7.4739215390E-01  7.4696285096E-01
                       7.4696285096E-01  2.5303714904E-01  2.5260784610E-01
                      -6.6095078187E-03  6.6095078187E-03 -6.6095078187E-03
             xred10    2.4921750776E-01  2.5078249224E-01  2.4921750776E-01
                       7.4921750776E-01  7.5078249224E-01  7.4921750776E-01
                       7.5737047087E-01  2.4262952913E-01  7.5737047087E-01
                       2.5278895847E-01  2.5315174383E-01  7.4684825617E-01
                       7.4684825617E-01  7.4721104153E-01  2.5278895847E-01
                       2.5156035196E-01  7.4843964804E-01  2.5156035196E-01
                       2.5278895847E-01  7.4721104153E-01  7.4684825617E-01
                       7.4684825617E-01  2.5315174383E-01  2.5278895847E-01
                      -6.6370676512E-03  6.6370676512E-03 -6.6370676512E-03
            znucl       55.00000   53.00000   72.00000   35.00000

- Timing analysis has been suppressed with timopt=0

 Suggested references for the acknowledgment of ABINIT usage.

 Calculation completed.
.Delivered   0 WARNINGs and 170 COMMENTs to log file.