.Version 9.2.2 of ABINIT

 ABINIT is a project of the Universite Catholique de Louvain,
 Corning Inc. and other collaborators, see ~abinit/doc/developers/contributors.txt .
 acknowledgments of the ABINIT effort.

.Starting date : Mon 17 Jul 2023.
- ( at 11h02 )

- The starting date is more than 2 years after the initial release
- of this version of ABINIT, namely Nov 2020.
- Note that the use beyond 3 years after the release will not be supported.
- Action: please, switch to a more recent version of ABINIT.

- input  file    -> Cs2TiI6.in
- output file    -> Cs2TiI6.out
- root for input  files -> Cs2TiI6i
- root for output files -> Cs2TiI6o

 Symmetries : space group Fm m 2 (# 42); Bravais oF (face-center ortho.)
     intxc =       0    ionmov =       0      iscf =      17    lmnmax =       8
     lnmax =       8     mgfft =      64  mpssoang =       4    mqgrid =    3001
     natom =       9  nloc_mem =       1    nspden =       1   nspinor =       1
    nsppol =       1      nsym =       4    n1xccc =    2501    ntypat =       4
    occopt =       1   xclevel =       2
-    mband =          42        mffmem =           1         mkmem =           2
       mpw =       11489          nfft =      262144          nkpt =           5
  Rough estimation (10% accuracy) of disk space for files :

------------- Echo of variables that govern the present computation ------------
-
- outvars: echo of selected default values
-   iomode0 =  0 , fftalg0 =112 , wfoptalg0 =  0
-
- outvars: echo of global parameters not present in the input file
-  max_nthreads =    0
-
 -outvars: echo values of preprocessed input variables --------
            acell      1.5546298368E+01  1.5720170163E+01  1.5547594142E+01 Bohr
              amu      1.32905430E+02  1.26904470E+02  1.78490000E+02
                       7.99040000E+01
           diemac      1.20000000E+01
             ecut      2.00000000E+01 Hartree
-          fftalg         112
             iscf          17
           istwfk        1    1    1    1    1
              ixc        -428
              kpt      0.00000000E+00  0.00000000E+00  0.00000000E+00
                       5.00000000E-01  0.00000000E+00  0.00000000E+00
                       5.00000000E-01  5.00000000E-01  0.00000000E+00
                       5.00000000E-01  0.00000000E+00  5.00000000E-01
                       0.00000000E+00  5.00000000E-01  5.00000000E-01
         kptns_hf      0.00000000E+00  0.00000000E+00  0.00000000E+00
                       5.00000000E-01  0.00000000E+00  0.00000000E+00
                       0.00000000E+00  5.00000000E-01  0.00000000E+00
                       5.00000000E-01  5.00000000E-01  0.00000000E+00
                       0.00000000E+00  0.00000000E+00  5.00000000E-01
                       5.00000000E-01  0.00000000E+00  5.00000000E-01
                       0.00000000E+00  5.00000000E-01  5.00000000E-01
                       5.00000000E-01  5.00000000E-01  5.00000000E-01
         kptrlatt        2    0    0      0    2    0      0    0    2
          kptrlen      3.10925967E+01
P           mkmem           2
            natom           9
            nband          42
          nbandhf          36
            ngfft          64      64      64
             nkpt           5
           nkpthf           8
-           npkpt           4
            nstep        2500
             nsym           4
           ntypat           4
              occ      2.000000  2.000000  2.000000  2.000000  2.000000  2.000000
                       2.000000  2.000000  2.000000  2.000000  2.000000  2.000000
                       2.000000  2.000000  2.000000  2.000000  2.000000  2.000000
                       2.000000  2.000000  2.000000  2.000000  2.000000  2.000000
                       2.000000  2.000000  2.000000  2.000000  2.000000  2.000000
                       2.000000  2.000000  2.000000  2.000000  2.000000  2.000000
                       0.000000  0.000000  0.000000  0.000000  0.000000  0.000000
            rprim      0.0000000000E+00  6.9916856495E-01  7.1495686428E-01
                       7.0716442159E-01  0.0000000000E+00  7.0704913608E-01
                       7.1501384324E-01  6.9911029457E-01  0.0000000000E+00
          spgroup          42
           symrel      1  0  0   0  1  0   0  0  1       1  0  0   1  0 -1   1 -1  0
                       0  1 -1   1  0 -1   0  0 -1       0  1 -1   0  1  0  -1  1  0
           toldfe      1.00000000E-08 Hartree
            typat      1  1  4  4  2  4  2  2  3
          usefock           1
              wtk        0.12500    0.50000    0.12500    0.12500    0.12500
           xangst      2.9413640546E+00  2.8759413682E+00  2.9501663699E+00
                       8.8240921638E+00  8.6278241047E+00  8.8319354470E+00
                       5.8827281092E+00  8.8948158823E+00  5.9102604073E+00
                       5.8827281092E+00  5.7518827365E+00  2.6703804346E+00
                       5.8827281092E+00  5.7518827364E+00  8.9344583670E+00
                       5.8827281092E+00  2.6089495905E+00  5.9102604074E+00
                       8.8830902250E+00  5.7518827365E+00  5.8925283404E+00
                       2.8823659934E+00  5.7518827364E+00  5.8925283403E+00
                       1.9807351140E-14 -6.3586985244E-13  6.1634502656E-02
            xcart      5.5583725203E+00  5.4347415602E+00  5.5750064855E+00
                       1.6675117561E+01  1.6304224681E+01  1.6689939218E+01
                       1.1116745041E+01  1.6808766020E+01  1.1168773544E+01
                       1.1116745041E+01  1.0869483120E+01  5.0462876920E+00
                       1.1116745041E+01  1.0869483120E+01  1.6883679459E+01
                       1.1116745041E+01  4.9302002206E+00  1.1168773544E+01
                       1.6786607739E+01  1.0869483120E+01  1.1135264794E+01
                       5.4468823423E+00  1.0869483120E+01  1.1135264793E+01
                       3.7430469072E-14 -1.2016198773E-12  1.1647233036E-01
             xred      2.5078903398E-01  2.5078903398E-01  2.4921096602E-01
                       7.5078903398E-01  7.5078903398E-01  7.4921096602E-01
                       7.7563108039E-01  2.2921292656E-01  7.7078707344E-01
                       2.2700486874E-01  2.2700486874E-01  7.7299513126E-01
                       7.5950434724E-01  7.5950434724E-01  2.4049565276E-01
                       2.2921292656E-01  7.7563108039E-01  2.2436891961E-01
                       2.4590011278E-01  7.5592914354E-01  7.5409988722E-01
                       7.5592914354E-01  2.4590011278E-01  2.4407085646E-01
                       5.2394527776E-03  5.2394527776E-03 -5.2394527776E-03
            znucl       55.00000   53.00000   72.00000   35.00000

 chkinp: Checking input parameters for consistency.

== DATASET  1 ==================================================================
-   mpi_nproc: 4, omp_nthreads: -1 (-1 if OMP is not activated)
-    --> not optimal distribution: autoparal keyword recommended in input file <--

--- !DatasetInfo
iteration_state: {dtset: 1, }
dimensions: {natom: 9, nkpt: 5, mband: 42, nsppol: 1, nspinor: 1, nspden: 1, mpw: 11489, }
cutoff_energies: {ecut:  20.0, pawecutdg:  -1.0, }
electrons: {nelect:   7.20000000E+01, charge:   0.00000000E+00, occopt:   1.00000000E+00, tsmear:   1.00000000E-02, }
meta: {optdriver: 0, ionmov: 0, optcell: 0, iscf: 17, paral_kgb: 0, }
...

 Real(R)+Recip(G) space primitive vectors, cartesian coordinates (Bohr,Bohr^-1):
 R(1)=  0.0000000 10.8694831 11.1149327  G(1)= -0.0449772  0.0460003  0.0449845
 R(2)= 11.1167450  0.0000000 11.1149327  G(2)=  0.0449772 -0.0460003  0.0449845
 R(3)= 11.1167450 10.8694831  0.0000000  G(3)=  0.0449772  0.0460003 -0.0449845
 Unit cell volume ucvol=  2.6861074E+03 bohr^3
 Angles (23,13,12)=  5.96266618E+01  6.07385270E+01  5.96348112E+01 degrees

 getcut: wavevector=  0.0000  0.0000  0.0000  ngfft=  64  64  64
         ecut(hartree)=     20.000   => boxcut(ratio)=   2.02229

--- Pseudopotential description ------------------------------------------------
- pspini: atom type   1  psp file is ../../../Psps_for_tests/ONCVPSP-PBE-PDv0.4/Cs-sp.psp8
- pspatm: opening atomic psp file    ../../../Psps_for_tests/ONCVPSP-PBE-PDv0.4/Cs-sp.psp8
- Cs    ONCVPSP-3.2.3.1  r_core=   2.27353   1.85623   2.01788   1.90105
- 55.00000   9.00000    170703                znucl, zion, pspdat
    8   32    3    4       600   0.00000      pspcod,pspxc,lmax,lloc,mmax,r2well
    5.99000000000000    5.00000000000000    0.00000000000000   rchrg,fchrg,qchrg
     nproj     2     2     2     2
     extension_switch     1
  pspatm : epsatm=   22.81663475
         --- l  ekb(1:nproj) -->
             0    6.176104    0.756334
             1    6.263084    0.786397
             2    3.737592    0.906929
             3   -9.272327   -2.535859
 pspatm: atomic psp has been read  and splines computed

- pspini: atom type   2  psp file is ../../../Psps_for_tests/ONCVPSP-PBE-PDv0.4/I.psp8
- pspatm: opening atomic psp file    ../../../Psps_for_tests/ONCVPSP-PBE-PDv0.4/I.psp8
- I     ONCVPSP-3.2.3.1  r_core=   2.02042   2.17032   2.27639
- 53.00000   7.00000    170510                znucl, zion, pspdat
    8   32    2    4       600   0.00000      pspcod,pspxc,lmax,lloc,mmax,r2well
    5.99000000000000    4.00000000000000    0.00000000000000   rchrg,fchrg,qchrg
     nproj     2     2     2
     extension_switch     1
  pspatm : epsatm=   19.17050482
         --- l  ekb(1:nproj) -->
             0    5.955518    0.916455
             1    4.011347    0.742302
             2    4.134838    0.711910
 pspatm: atomic psp has been read  and splines computed

- pspini: atom type   3  psp file is ../../../Psps_for_tests/ONCVPSP-PBE-PDv0.4/Hf-sp.psp8
- pspatm: opening atomic psp file    ../../../Psps_for_tests/ONCVPSP-PBE-PDv0.4/Hf-sp.psp8
- Hf    ONCVPSP-3.2.3.1  r_core=   1.71613   1.71613   1.71613   2.42541
- 72.00000  12.00000    170501                znucl, zion, pspdat
    8   32    3    4       600   0.00000      pspcod,pspxc,lmax,lloc,mmax,r2well
    5.99000000000000    5.40000000000000    0.00000000000000   rchrg,fchrg,qchrg
     nproj     2     2     2     2
     extension_switch     1
  pspatm : epsatm=   21.94432712
         --- l  ekb(1:nproj) -->
             0    5.751490   -0.631383
             1   -2.986358    2.305386
             2    1.422276    0.146986
             3    8.827595    0.343102
 pspatm: atomic psp has been read  and splines computed

- pspini: atom type   4  psp file is ../../../Psps_for_tests/ONCVPSP-PBE-PDv0.4/Br.psp8
- pspatm: opening atomic psp file    ../../../Psps_for_tests/ONCVPSP-PBE-PDv0.4/Br.psp8
- Br    ONCVPSP-3.2.3.1  r_core=   1.81012   1.51356   1.92136
- 35.00000   7.00000    170504                znucl, zion, pspdat
    8   32    2    4       600   0.00000      pspcod,pspxc,lmax,lloc,mmax,r2well
    5.99000000000000    8.00000000000000    0.00000000000000   rchrg,fchrg,qchrg
     nproj     2     2     2
     extension_switch     1
  pspatm : epsatm=   11.64859511
         --- l  ekb(1:nproj) -->
             0    8.455549    0.878460
             1    5.292495    0.880691
             2    2.589748    0.385882
 pspatm: atomic psp has been read  and splines computed

   1.15225125E+04                                ecore*ucvol(ha*bohr**3)

_setup2: Arith. and geom. avg. npw (full set) are   11474.875   11474.867

--- !BeginCycle
iteration_state: {dtset: 1, }
solver: {iscf: 17, nstep: 2500, nline: 4, wfoptalg: 0, }
tolerances: {toldfe: 1.00E-08, }
...

     iter   Etot(hartree)      deltaE(h)  residm     nres2
 ETOT  1  -184.52288867770    -1.845E+02 1.453E-02 2.993E+00
 ETOT  2  -189.67383650594    -5.151E+00 1.165E-02 1.835E+00
 ETOT  3  -189.68091973008    -7.083E-03 3.468E-03 6.724E-01
 ETOT  4  -189.66558798954     1.533E-02 6.986E-04 6.578E-02
 ETOT  5  -189.66635722266    -7.692E-04 4.275E-04 2.554E-02
 ETOT  6  -189.66625470129     1.025E-04 5.619E-04 2.572E-03
 ETOT  7  -189.66630138105    -4.668E-05 3.978E-04 2.014E-04
 ETOT  8  -189.66630465748    -3.276E-06 6.568E-04 4.534E-05
 ETOT  9  -189.66630555662    -8.991E-07 4.955E-04 1.267E-06
 ETOT 10  -189.66630573328    -1.767E-07 2.046E-04 4.259E-07
 ETOT 11  -189.66630576639    -3.311E-08 1.574E-04 6.206E-08
 ETOT 12  -189.66630576584     5.487E-10 1.612E-04 5.340E-09
 ETOT 13  -189.66630576732    -1.474E-09 1.546E-04 3.422E-09

 At SCF step   13, etot is converged :
  for the second time, diff in etot=  1.474E-09 < toldfe=  1.000E-08

 Cartesian components of stress tensor (hartree/bohr^3)
  sigma(1 1)=  2.25123934E-05  sigma(3 2)=  4.90300430E-14
  sigma(2 2)=  2.51604670E-05  sigma(3 1)= -3.20973755E-14
  sigma(3 3)=  2.37327267E-05  sigma(2 1)= -1.62003794E-14

--- !ResultsGS
iteration_state: {dtset: 1, }
comment   : Summary of ground state results
lattice_vectors:
- [  0.0000000,  10.8694831,  11.1149327, ]
- [ 11.1167450,   0.0000000,  11.1149327, ]
- [ 11.1167450,  10.8694831,   0.0000000, ]
lattice_lengths: [  15.54630,   15.72017,   15.54759, ]
lattice_angles: [ 59.627,  60.739,  59.635, ] # degrees, (23, 13, 12)
lattice_volume:   2.6861074E+03
convergence: {deltae: -1.474E-09, res2:  3.422E-09, residm:  1.546E-04, diffor: null, }
etotal    :  -1.89666306E+02
entropy   :   0.00000000E+00
fermie    :   1.26746926E-02
cartesian_stress_tensor: # hartree/bohr^3
- [  2.25123934E-05,  -1.62003794E-14,  -3.20973755E-14, ]
- [ -1.62003794E-14,   2.51604670E-05,   4.90300430E-14, ]
- [ -3.20973755E-14,   4.90300430E-14,   2.37327267E-05, ]
pressure_GPa:  -7.0027E-01
xred      :
- [  2.5079E-01,   2.5079E-01,   2.4921E-01, Cs]
- [  7.5079E-01,   7.5079E-01,   7.4921E-01, Cs]
- [  7.7563E-01,   2.2921E-01,   7.7079E-01, Br]
- [  2.2700E-01,   2.2700E-01,   7.7300E-01, Br]
- [  7.5950E-01,   7.5950E-01,   2.4050E-01,  I]
- [  2.2921E-01,   7.7563E-01,   2.2437E-01, Br]
- [  2.4590E-01,   7.5593E-01,   7.5410E-01,  I]
- [  7.5593E-01,   2.4590E-01,   2.4407E-01,  I]
- [  5.2395E-03,   5.2395E-03,  -5.2395E-03, Hf]
cartesian_forces: # hartree/bohr
- [  4.49596013E-16,  -4.59800584E-16,  -2.30759825E-05, ]
- [  4.49589237E-16,  -4.59793807E-16,  -2.30759825E-05, ]
- [ -2.46616611E-14,   2.42014203E-03,  -1.55150149E-05, ]
- [  4.68885507E-14,  -4.79550028E-14,  -2.40660597E-03, ]
- [ -3.51431833E-14,   3.59425554E-14,   1.80376173E-03, ]
- [  2.52661882E-14,  -2.42014203E-03,  -1.55150149E-05, ]
- [  1.80541779E-03,   3.80941131E-15,   1.61395693E-04, ]
- [ -1.80541779E-03,   2.62257149E-15,   1.61395693E-04, ]
- [ -6.96007452E-15,   7.11840730E-15,   3.57234850E-04, ]
force_length_stats: {min:   2.30759825E-05, max:   2.42019176E-03, mean:   1.45326366E-03, }
...

 Integrated electronic density in atomic spheres:
 Atom  Sphere_radius  Integrated_density
    1        2.00000          4.45959672
    2        2.00000          4.45959672
    3        2.00000          4.24100111
    4        2.00000          4.26679503
    5        2.00000          2.88939596
    6        2.00000          4.24100111
    7        2.00000          2.88949103
    8        2.00000          2.88949103
    9        2.00000          8.22369511

 ----iterations are completed or convergence reached----

 Mean square residual over all n,k,spin=   10.749E-07; max=  15.465E-05
 reduced coordinates (array xred) for    9 atoms
       0.250789033980      0.250789033980      0.249210966020
       0.750789033980      0.750789033980      0.749210966020
       0.775631080390      0.229212926560      0.770787073440
       0.227004868740      0.227004868740      0.772995131260
       0.759504347240      0.759504347240      0.240495652760
       0.229212926560      0.775631080390      0.224368919610
       0.245900112780      0.755929143540      0.754099887220
       0.755929143540      0.245900112780      0.244070856460
       0.005239452778      0.005239452778     -0.005239452778
 rms dE/dt=  1.5709E-02; max dE/dt=  2.7215E-02; dE/dt below (all hartree)
    1       0.000722099549      0.000722099549      0.000000000000
    2       0.000722099549      0.000722099549      0.000000000000
    3      -0.025667632989      0.000638059903     -0.026305692891
    4       0.027214875024      0.027214875024      0.000000000000
    5      -0.019583078716     -0.019583078716      0.000000000000
    6       0.026943752794      0.000638059903      0.026305692891
    7      -0.001328290719     -0.021398660014     -0.020070369295
    8      -0.001328290719      0.018742078576      0.020070369295
    9      -0.003505029774     -0.003505029774      0.000000000000

 cartesian coordinates (angstrom) at end:
    1      2.94136405459855     2.87594136822237     2.95016636987036
    2      8.82409216379565     8.62782410466729     8.83193544695375
    3      5.88272810919607     8.89481588233951     5.91026040730845
    4      5.88272810919606     5.75188273647805     2.67038043460461
    5      5.88272810919808     5.75188273641343     8.93445836701327
    6      5.88272810919814     2.60894959054975     5.91026040743370
    7      8.88309022495550     5.75188273647576     5.89252834039888
    8      2.88236599343870     5.75188273641386     5.89252834028197
    9      0.00000000000002    -0.00000000000064     0.06163450265625

 cartesian forces (hartree/bohr) at end:
    1      0.00000000000000    -0.00000000000000    -0.00002307598255
    2      0.00000000000000    -0.00000000000000    -0.00002307598255
    3     -0.00000000000002     0.00242014202516    -0.00001551501488
    4      0.00000000000005    -0.00000000000005    -0.00240660596986
    5     -0.00000000000004     0.00000000000004     0.00180376172791
    6      0.00000000000003    -0.00242014202516    -0.00001551501493
    7      0.00180541779284     0.00000000000000     0.00016139569334
    8     -0.00180541779285     0.00000000000000     0.00016139569334
    9     -0.00000000000001     0.00000000000001     0.00035723485017
 frms,max,avg= 1.0084791E-03 2.4201420E-03   0.000E+00  0.000E+00 -4.189E-05 h/b

 cartesian forces (eV/Angstrom) at end:
    1      0.00000000000002    -0.00000000000002    -0.00118661463279
    2      0.00000000000002    -0.00000000000002    -0.00118661463279
    3     -0.00000000000127     0.12444869615212    -0.00079781407541
    4      0.00000000000241    -0.00000000000247    -0.12375264426098
    5     -0.00000000000181     0.00000000000185     0.09275314955612
    6      0.00000000000130    -0.12444869615215    -0.00079781407798
    7      0.09283830783187     0.00000000000020     0.00829929954198
    8     -0.09283830783219     0.00000000000013     0.00829929954204
    9     -0.00000000000036     0.00000000000037     0.01836975303980
 frms,max,avg= 5.1858074E-02 1.2444870E-01   0.000E+00  0.000E+00 -2.154E-03 e/A
 length scales= 15.546298368000 15.720170163000 15.547594142000 bohr
              =  8.226746774286  8.318755765416  8.227432468354 angstroms
 prteigrs : about to open file Cs2TiI6o_EIG
 Fermi (or HOMO) energy (hartree) =   0.01267   Average Vxc (hartree)=  -0.23767
 Eigenvalues (hartree) for nkpt=   5  k points:
 kpt#   1, nband= 42, wtk=  0.12500, kpt=  0.0000  0.0000  0.0000 (reduced coord)
  -2.41568   -1.20158   -1.20140   -1.20101   -0.79300   -0.79285   -0.54545   -0.53578
  -0.53280   -0.43829   -0.42941   -0.42498   -0.27454   -0.27378   -0.27352   -0.27207
  -0.27204   -0.27193   -0.14827   -0.09783   -0.09506   -0.08768   -0.08738   -0.08652
  -0.08263   -0.07832   -0.06520   -0.03944   -0.03436   -0.03405   -0.01267   -0.00877
  -0.00392   -0.00311   -0.00077    0.01267    0.13402    0.13899    0.14308    0.19134
   0.20893    0.21644
 prteigrs : prtvol=0 or 1, do not print more k-points.

--- !EnergyTerms
iteration_state     : {dtset: 1, }
comment             : Components of total free energy in Hartree
kinetic             :  4.70099057296325E+01
hartree             :  4.05648200932279E+01
xc                  : -5.04596662351933E+01
Ewald energy        : -1.13771793209057E+02
psp_core            :  4.28966934510661E+00
local_psp           : -1.33927822286682E+02
non_local_psp+x     :  1.66286090948145E+01
total_energy        : -1.89666277468150E+02
...

--- !EnergyTermsDC
iteration_state     : {dtset: 1, }
comment             : '"Double-counting" decomposition of free energy'
band_energy         : -2.63210461002786E+01
Ewald energy        : -1.13771793209057E+02
psp_core            :  4.28966934510661E+00
xc_dc               : -5.38631358030904E+01
total_energy_dc     : -1.89666305767319E+02
...

 Cartesian components of stress tensor (hartree/bohr^3)
  sigma(1 1)=  2.25123934E-05  sigma(3 2)=  4.90300430E-14
  sigma(2 2)=  2.51604670E-05  sigma(3 1)= -3.20973755E-14
  sigma(3 3)=  2.37327267E-05  sigma(2 1)= -1.62003794E-14

-Cartesian components of stress tensor (GPa)         [Pressure= -7.0027E-01 GPa]
- sigma(1 1)=  6.62337369E-01  sigma(3 2)=  1.44251342E-09
- sigma(2 2)=  7.40246372E-01  sigma(3 1)= -9.44337230E-10
- sigma(3 3)=  6.98240809E-01  sigma(2 1)= -4.76631538E-10

== END DATASET(S) ==============================================================

 -outvars: echo values of variables after computation  --------
            acell      1.5546298368E+01  1.5720170163E+01  1.5547594142E+01 Bohr
              amu      1.32905430E+02  1.26904470E+02  1.78490000E+02
                       7.99040000E+01
           diemac      1.20000000E+01
             ecut      2.00000000E+01 Hartree
           etotal     -1.8966630577E+02
            fcart      4.4959601342E-16 -4.5980058371E-16 -2.3075982548E-05
                       4.4958923716E-16 -4.5979380744E-16 -2.3075982548E-05
                      -2.4661661130E-14  2.4201420252E-03 -1.5515014877E-05
                       4.6888550702E-14 -4.7955002786E-14 -2.4066059699E-03
                      -3.5143183327E-14  3.5942555362E-14  1.8037617279E-03
                       2.5266188240E-14 -2.4201420252E-03 -1.5515014926E-05
                       1.8054177928E-03  3.8094113128E-15  1.6139569334E-04
                      -1.8054177928E-03  2.6225714874E-15  1.6139569334E-04
                      -6.9600745158E-15  7.1184072955E-15  3.5723485017E-04
-          fftalg         112
             iscf          17
           istwfk        1    1    1    1    1
              ixc        -428
              kpt      0.00000000E+00  0.00000000E+00  0.00000000E+00
                       5.00000000E-01  0.00000000E+00  0.00000000E+00
                       5.00000000E-01  5.00000000E-01  0.00000000E+00
                       5.00000000E-01  0.00000000E+00  5.00000000E-01
                       0.00000000E+00  5.00000000E-01  5.00000000E-01
         kptns_hf      0.00000000E+00  0.00000000E+00  0.00000000E+00
                       5.00000000E-01  0.00000000E+00  0.00000000E+00
                       0.00000000E+00  5.00000000E-01  0.00000000E+00
                       5.00000000E-01  5.00000000E-01  0.00000000E+00
                       0.00000000E+00  0.00000000E+00  5.00000000E-01
                       5.00000000E-01  0.00000000E+00  5.00000000E-01
                       0.00000000E+00  5.00000000E-01  5.00000000E-01
                       5.00000000E-01  5.00000000E-01  5.00000000E-01
         kptrlatt        2    0    0      0    2    0      0    0    2
          kptrlen      3.10925967E+01
P           mkmem           2
            natom           9
            nband          42
          nbandhf          36
            ngfft          64      64      64
             nkpt           5
           nkpthf           8
-           npkpt           4
            nstep        2500
             nsym           4
           ntypat           4
              occ      2.000000  2.000000  2.000000  2.000000  2.000000  2.000000
                       2.000000  2.000000  2.000000  2.000000  2.000000  2.000000
                       2.000000  2.000000  2.000000  2.000000  2.000000  2.000000
                       2.000000  2.000000  2.000000  2.000000  2.000000  2.000000
                       2.000000  2.000000  2.000000  2.000000  2.000000  2.000000
                       2.000000  2.000000  2.000000  2.000000  2.000000  2.000000
                       0.000000  0.000000  0.000000  0.000000  0.000000  0.000000
            rprim      0.0000000000E+00  6.9916856495E-01  7.1495686428E-01
                       7.0716442159E-01  0.0000000000E+00  7.0704913608E-01
                       7.1501384324E-01  6.9911029457E-01  0.0000000000E+00
          spgroup          42
           strten      2.2512393373E-05  2.5160467032E-05  2.3732726728E-05
                       4.9030042959E-14 -3.2097375460E-14 -1.6200379424E-14
           symrel      1  0  0   0  1  0   0  0  1       1  0  0   1  0 -1   1 -1  0
                       0  1 -1   1  0 -1   0  0 -1       0  1 -1   0  1  0  -1  1  0
           toldfe      1.00000000E-08 Hartree
            typat      1  1  4  4  2  4  2  2  3
          usefock           1
              wtk        0.12500    0.50000    0.12500    0.12500    0.12500
           xangst      2.9413640546E+00  2.8759413682E+00  2.9501663699E+00
                       8.8240921638E+00  8.6278241047E+00  8.8319354470E+00
                       5.8827281092E+00  8.8948158823E+00  5.9102604073E+00
                       5.8827281092E+00  5.7518827365E+00  2.6703804346E+00
                       5.8827281092E+00  5.7518827364E+00  8.9344583670E+00
                       5.8827281092E+00  2.6089495905E+00  5.9102604074E+00
                       8.8830902250E+00  5.7518827365E+00  5.8925283404E+00
                       2.8823659934E+00  5.7518827364E+00  5.8925283403E+00
                       1.9807351140E-14 -6.3586985244E-13  6.1634502656E-02
            xcart      5.5583725203E+00  5.4347415602E+00  5.5750064855E+00
                       1.6675117561E+01  1.6304224681E+01  1.6689939218E+01
                       1.1116745041E+01  1.6808766020E+01  1.1168773544E+01
                       1.1116745041E+01  1.0869483120E+01  5.0462876920E+00
                       1.1116745041E+01  1.0869483120E+01  1.6883679459E+01
                       1.1116745041E+01  4.9302002206E+00  1.1168773544E+01
                       1.6786607739E+01  1.0869483120E+01  1.1135264794E+01
                       5.4468823423E+00  1.0869483120E+01  1.1135264793E+01
                       3.7430469072E-14 -1.2016198773E-12  1.1647233036E-01
             xred      2.5078903398E-01  2.5078903398E-01  2.4921096602E-01
                       7.5078903398E-01  7.5078903398E-01  7.4921096602E-01
                       7.7563108039E-01  2.2921292656E-01  7.7078707344E-01
                       2.2700486874E-01  2.2700486874E-01  7.7299513126E-01
                       7.5950434724E-01  7.5950434724E-01  2.4049565276E-01
                       2.2921292656E-01  7.7563108039E-01  2.2436891961E-01
                       2.4590011278E-01  7.5592914354E-01  7.5409988722E-01
                       7.5592914354E-01  2.4590011278E-01  2.4407085646E-01
                       5.2394527776E-03  5.2394527776E-03 -5.2394527776E-03
            znucl       55.00000   53.00000   72.00000   35.00000

- Timing analysis has been suppressed with timopt=0

 Suggested references for the acknowledgment of ABINIT usage.

 Calculation completed.
.Delivered   0 WARNINGs and   0 COMMENTs to log file.