.Version 9.2.2 of ABINIT

 ABINIT is a project of the Universite Catholique de Louvain,
 Corning Inc. and other collaborators, see ~abinit/doc/developers/contributors.txt .
 acknowledgments of the ABINIT effort.

.Starting date : Tue 18 Jul 2023.
- ( at 04h51 )

- The starting date is more than 2 years after the initial release
- of this version of ABINIT, namely Nov 2020.
- Note that the use beyond 3 years after the release will not be supported.
- Action: please, switch to a more recent version of ABINIT.

- input  file    -> Cs2TiI6.in
- output file    -> Cs2TiI6.out
- root for input  files -> Cs2TiI6i
- root for output files -> Cs2TiI6o

 Symmetries : space group Im m 2 (# 44); Bravais oI (body-center ortho.)
     intxc =       0    ionmov =       0      iscf =      17    lmnmax =       8
     lnmax =       8     mgfft =      60  mpssoang =       4    mqgrid =    3001
     natom =       9  nloc_mem =       1    nspden =       1   nspinor =       1
    nsppol =       1      nsym =       4    n1xccc =    2501    ntypat =       4
    occopt =       1   xclevel =       2
-    mband =          42        mffmem =           1         mkmem =           2
       mpw =        9580          nfft =      216000          nkpt =           5
  Rough estimation (10% accuracy) of disk space for files :

------------- Echo of variables that govern the present computation ------------
-
- outvars: echo of selected default values
-   iomode0 =  0 , fftalg0 =112 , wfoptalg0 =  0
-
- outvars: echo of global parameters not present in the input file
-  max_nthreads =    0
-
 -outvars: echo values of preprocessed input variables --------
            acell      1.4530467161E+01  1.4693344040E+01  1.4693344040E+01 Bohr
              amu      1.32905430E+02  1.26904470E+02  9.12240000E+01
                       3.54527000E+01
           diemac      1.20000000E+01
             ecut      2.00000000E+01 Hartree
-          fftalg         112
             iscf          17
           istwfk        1    1    1    1    1
              ixc        -428
              kpt      0.00000000E+00  0.00000000E+00  0.00000000E+00
                       5.00000000E-01  0.00000000E+00  0.00000000E+00
                       0.00000000E+00  5.00000000E-01  0.00000000E+00
                       5.00000000E-01  5.00000000E-01  0.00000000E+00
                       0.00000000E+00  5.00000000E-01  5.00000000E-01
         kptns_hf      0.00000000E+00  0.00000000E+00  0.00000000E+00
                       5.00000000E-01  0.00000000E+00  0.00000000E+00
                       0.00000000E+00  5.00000000E-01  0.00000000E+00
                       5.00000000E-01  5.00000000E-01  0.00000000E+00
                       0.00000000E+00  0.00000000E+00  5.00000000E-01
                       5.00000000E-01  0.00000000E+00  5.00000000E-01
                       0.00000000E+00  5.00000000E-01  5.00000000E-01
                       5.00000000E-01  5.00000000E-01  5.00000000E-01
         kptrlatt        2    0    0      0    2    0      0    0    2
          kptrlen      2.90609343E+01
P           mkmem           2
            natom           9
            nband          42
          nbandhf          36
            ngfft          60      60      60
             nkpt           5
           nkpthf           8
-           npkpt           4
            nstep        2500
             nsym           4
           ntypat           4
              occ      2.000000  2.000000  2.000000  2.000000  2.000000  2.000000
                       2.000000  2.000000  2.000000  2.000000  2.000000  2.000000
                       2.000000  2.000000  2.000000  2.000000  2.000000  2.000000
                       2.000000  2.000000  2.000000  2.000000  2.000000  2.000000
                       2.000000  2.000000  2.000000  2.000000  2.000000  2.000000
                       2.000000  2.000000  2.000000  2.000000  2.000000  2.000000
                       0.000000  0.000000  0.000000  0.000000  0.000000  0.000000
            rprim      0.0000000000E+00  7.0710678119E-01  7.0710678119E-01
                       7.0912012816E-01 -5.7954205932E-03  7.0506386727E-01
                       7.0912012816E-01  7.0506386727E-01 -5.7954205932E-03
          spgroup          44
           symrel      1  0  0   0  1  0   0  0  1       1  0  0   1  0 -1   1 -1  0
                       1  0  0   0  0  1   0  1  0       1  0  0   1 -1  0   1  0 -1
           toldfe      1.00000000E-08 Hartree
            typat      1  1  2  4  2  4  2  2  3
          usefock           1
              wtk        0.12500    0.25000    0.25000    0.25000    0.12500
           xangst      2.7720007010E+00  2.7032336581E+00  2.7032336581E+00
                       8.2553601715E+00  8.1403134998E+00  8.1403134998E+00
                       5.5136804362E+00  5.4551425065E+00  2.7069598279E+00
                       5.5136804362E+00  5.3466694288E+00  8.3634962663E+00
                       8.1799235976E+00  5.4460532718E+00  5.4460532718E+00
                       5.5136804362E+00  8.3634962663E+00  5.3466694288E+00
                       5.5136804362E+00  2.7069598279E+00  5.4551425065E+00
                       2.8474372749E+00  5.4460532718E+00  5.4460532718E+00
                      -2.5383544536E-36 -1.1128299752E-01 -1.1128299752E-01
            xcart      5.2383221651E+00  5.1083712870E+00  5.1083712870E+00
                       1.5600369852E+01  1.5382963150E+01  1.5382963150E+01
                       1.0419346009E+01  1.0308725353E+01  5.1154127274E+00
                       1.0419346009E+01  1.0103740944E+01  1.5804717457E+01
                       1.5457815387E+01  1.0291549189E+01  1.0291549189E+01
                       1.0419346009E+01  1.5804717457E+01  1.0103740944E+01
                       1.0419346009E+01  5.1154127274E+00  1.0308725353E+01
                       5.3808766301E+00  1.0291549189E+01  1.0291549189E+01
                      -4.7967947454E-36 -2.1029438856E-01 -2.1029438856E-01
             xred      2.4581003151E-01  2.5137480609E-01  2.5137480609E-01
                       7.4855964369E-01  7.4862519391E-01  7.4862519391E-01
                       2.5059614463E-01  2.5139481538E-01  7.4860518462E-01
                       7.6080231433E-01  7.7290718289E-01  2.2709281711E-01
                       2.5986607436E-01  7.4178433917E-01  7.4178433917E-01
                       7.6080231433E-01  2.2709281711E-01  7.7290718289E-01
                       2.5059614463E-01  7.4860518462E-01  2.5139481538E-01
                       7.4343475270E-01  2.5821566083E-01  2.5821566083E-01
                      -2.0467420152E-02  5.0754166481E-20 -5.0754166481E-20
            znucl       55.00000   53.00000   40.00000   17.00000

 chkinp: Checking input parameters for consistency.

== DATASET  1 ==================================================================
-   mpi_nproc: 4, omp_nthreads: -1 (-1 if OMP is not activated)
-    --> not optimal distribution: autoparal keyword recommended in input file <--

--- !DatasetInfo
iteration_state: {dtset: 1, }
dimensions: {natom: 9, nkpt: 5, mband: 42, nsppol: 1, nspinor: 1, nspden: 1, mpw: 9580, }
cutoff_energies: {ecut:  20.0, pawecutdg:  -1.0, }
electrons: {nelect:   7.20000000E+01, charge:   0.00000000E+00, occopt:   1.00000000E+00, tsmear:   1.00000000E-02, }
meta: {optdriver: 0, ionmov: 0, optcell: 0, iscf: 17, paral_kgb: 0, }
...

 Real(R)+Recip(G) space primitive vectors, cartesian coordinates (Bohr,Bohr^-1):
 R(1)=  0.0000000 10.2745919 10.2745919  G(1)= -0.0479877  0.0486637  0.0486637
 R(2)= 10.4193460 -0.0851541 10.3597460  G(2)=  0.0479877 -0.0478703  0.0478703
 R(3)= 10.4193460 10.3597460 -0.0851541  G(3)=  0.0479877  0.0478703 -0.0478703
 Unit cell volume ucvol=  2.2363477E+03 bohr^3
 Angles (23,13,12)=  6.03514097E+01  6.03660190E+01  6.03660190E+01 degrees

 getcut: wavevector=  0.0000  0.0000  0.0000  ngfft=  60  60  60
         ecut(hartree)=     20.000   => boxcut(ratio)=   2.02856

--- Pseudopotential description ------------------------------------------------
- pspini: atom type   1  psp file is ../../../Psps_for_tests/ONCVPSP-PBE-PDv0.4/Cs-sp.psp8
- pspatm: opening atomic psp file    ../../../Psps_for_tests/ONCVPSP-PBE-PDv0.4/Cs-sp.psp8
- Cs    ONCVPSP-3.2.3.1  r_core=   2.27353   1.85623   2.01788   1.90105
- 55.00000   9.00000    170703                znucl, zion, pspdat
    8   32    3    4       600   0.00000      pspcod,pspxc,lmax,lloc,mmax,r2well
    5.99000000000000    5.00000000000000    0.00000000000000   rchrg,fchrg,qchrg
     nproj     2     2     2     2
     extension_switch     1
  pspatm : epsatm=   22.81663475
         --- l  ekb(1:nproj) -->
             0    6.176104    0.756334
             1    6.263084    0.786397
             2    3.737592    0.906929
             3   -9.272327   -2.535859
 pspatm: atomic psp has been read  and splines computed

- pspini: atom type   2  psp file is ../../../Psps_for_tests/ONCVPSP-PBE-PDv0.4/I.psp8
- pspatm: opening atomic psp file    ../../../Psps_for_tests/ONCVPSP-PBE-PDv0.4/I.psp8
- I     ONCVPSP-3.2.3.1  r_core=   2.02042   2.17032   2.27639
- 53.00000   7.00000    170510                znucl, zion, pspdat
    8   32    2    4       600   0.00000      pspcod,pspxc,lmax,lloc,mmax,r2well
    5.99000000000000    4.00000000000000    0.00000000000000   rchrg,fchrg,qchrg
     nproj     2     2     2
     extension_switch     1
  pspatm : epsatm=   19.17050482
         --- l  ekb(1:nproj) -->
             0    5.955518    0.916455
             1    4.011347    0.742302
             2    4.134838    0.711910
 pspatm: atomic psp has been read  and splines computed

- pspini: atom type   3  psp file is ../../../Psps_for_tests/ONCVPSP-PBE-PDv0.4/Zr-sp.psp8
- pspatm: opening atomic psp file    ../../../Psps_for_tests/ONCVPSP-PBE-PDv0.4/Zr-sp.psp8
- Zr    ONCVPSP-3.2.3.1  r_core=   1.56507   1.56507   1.51006
- 40.00000  12.00000    170510                znucl, zion, pspdat
    8   32    2    4       600   0.00000      pspcod,pspxc,lmax,lloc,mmax,r2well
    5.99000000000000    5.00000000000000    0.00000000000000   rchrg,fchrg,qchrg
     nproj     2     2     2
     extension_switch     1
  pspatm : epsatm=   18.79873988
         --- l  ekb(1:nproj) -->
             0   10.621766    0.898805
             1    5.849837    0.750341
             2    1.531478    0.503023
 pspatm: atomic psp has been read  and splines computed

- pspini: atom type   4  psp file is ../../../Psps_for_tests/ONCVPSP-PBE-PDv0.4/Cl.psp8
- pspatm: opening atomic psp file    ../../../Psps_for_tests/ONCVPSP-PBE-PDv0.4/Cl.psp8
- Cl    ONCVPSP-3.2.3.1  r_core=   1.56009   1.35202   1.75774
- 17.00000   7.00000    170504                znucl, zion, pspdat
    8   32    2    4       600   0.00000      pspcod,pspxc,lmax,lloc,mmax,r2well
    5.99000000000000    8.00000000000000    0.00000000000000   rchrg,fchrg,qchrg
     nproj     2     2     2
     extension_switch     1
  pspatm : epsatm=    9.12776994
         --- l  ekb(1:nproj) -->
             0    8.139296    0.698720
             1    3.821713    1.107519
             2   -2.938609   -0.805455
 pspatm: atomic psp has been read  and splines computed

   1.14746089E+04                                ecore*ucvol(ha*bohr**3)

_setup2: Arith. and geom. avg. npw (full set) are    9557.625    9557.606

--- !BeginCycle
iteration_state: {dtset: 1, }
solver: {iscf: 17, nstep: 2500, nline: 4, wfoptalg: 0, }
tolerances: {toldfe: 1.00E-08, }
...

     iter   Etot(hartree)      deltaE(h)  residm     nres2
 ETOT  1  -177.18428223322    -1.772E+02 1.838E-02 3.423E+00
 ETOT  2  -182.39652932331    -5.212E+00 3.543E-03 2.434E+00
 ETOT  3  -182.39918489875    -2.656E-03 4.934E-03 8.456E-01
 ETOT  4  -182.38385541879     1.533E-02 3.447E-03 8.078E-02
 ETOT  5  -182.38435288892    -4.975E-04 1.573E-03 2.676E-02
 ETOT  6  -182.38428679358     6.610E-05 1.452E-03 3.275E-03
 ETOT  7  -182.38428326649     3.527E-06 7.599E-04 1.196E-04
 ETOT  8  -182.38429547479    -1.221E-05 6.256E-04 7.344E-05
 ETOT  9  -182.38429455322     9.216E-07 2.796E-04 7.981E-06
 ETOT 10  -182.38429471933    -1.661E-07 1.104E-04 7.139E-06
 ETOT 11  -182.38429458188     1.375E-07 5.157E-05 6.690E-07
 ETOT 12  -182.38429460330    -2.142E-08 2.097E-05 8.408E-08
 ETOT 13  -182.38429460481    -1.504E-09 1.081E-05 2.382E-08
 ETOT 14  -182.38429460409     7.159E-10 4.262E-06 6.448E-09

 At SCF step   14, etot is converged :
  for the second time, diff in etot=  7.159E-10 < toldfe=  1.000E-08

 Cartesian components of stress tensor (hartree/bohr^3)
  sigma(1 1)= -3.77544793E-05  sigma(3 2)=  1.44358359E-06
  sigma(2 2)= -3.36027732E-05  sigma(3 1)=  6.84935735E-15
  sigma(3 3)= -3.36027732E-05  sigma(2 1)=  6.84924816E-15

--- !ResultsGS
iteration_state: {dtset: 1, }
comment   : Summary of ground state results
lattice_vectors:
- [  0.0000000,  10.2745919,  10.2745919, ]
- [ 10.4193460,  -0.0851541,  10.3597460, ]
- [ 10.4193460,  10.3597460,  -0.0851541, ]
lattice_lengths: [  14.53047,   14.69334,   14.69334, ]
lattice_angles: [ 60.351,  60.366,  60.366, ] # degrees, (23, 13, 12)
lattice_volume:   2.2363477E+03
convergence: {deltae:  7.159E-10, res2:  6.448E-09, residm:  4.262E-06, diffor: null, }
etotal    :  -1.82384295E+02
entropy   :   0.00000000E+00
fermie    :   7.62560209E-02
cartesian_stress_tensor: # hartree/bohr^3
- [ -3.77544793E-05,   6.84924816E-15,   6.84935735E-15, ]
- [  6.84924816E-15,  -3.36027732E-05,   1.44358359E-06, ]
- [  6.84935735E-15,   1.44358359E-06,  -3.36027732E-05, ]
pressure_GPa:   1.0293E+00
xred      :
- [  2.4581E-01,   2.5137E-01,   2.5137E-01, Cs]
- [  7.4856E-01,   7.4863E-01,   7.4863E-01, Cs]
- [  2.5060E-01,   2.5139E-01,   7.4861E-01,  I]
- [  7.6080E-01,   7.7291E-01,   2.2709E-01, Cl]
- [  2.5987E-01,   7.4178E-01,   7.4178E-01,  I]
- [  7.6080E-01,   2.2709E-01,   7.7291E-01, Cl]
- [  2.5060E-01,   7.4861E-01,   2.5139E-01,  I]
- [  7.4343E-01,   2.5822E-01,   2.5822E-01,  I]
- [ -2.0467E-02,   5.0754E-20,  -5.0754E-20, Zr]
cartesian_forces: # hartree/bohr
- [ -8.56593267E-05,   1.39012887E-04,   1.39012887E-04, ]
- [  8.56593267E-05,   1.39012887E-04,   1.39012887E-04, ]
- [ -8.06709345E-15,  -5.88794209E-05,  -2.60556160E-03, ]
- [  9.20095825E-15,  -5.19136036E-04,   3.55810629E-03, ]
- [  2.35123085E-03,   1.94804494E-04,   1.94804494E-04, ]
- [  9.20113172E-15,   3.55810629E-03,  -5.19136036E-04, ]
- [ -8.06688577E-15,  -2.60556160E-03,  -5.88794209E-05, ]
- [ -2.35123085E-03,   1.94804494E-04,   1.94804494E-04, ]
- [ -6.31066043E-15,  -1.04216400E-03,  -1.04216400E-03, ]
force_length_stats: {min:   2.14445064E-04, max:   3.59577845E-03, mean:   2.11570829E-03, }
...

 Integrated electronic density in atomic spheres:
 Atom  Sphere_radius  Integrated_density
    1        2.00000          4.46870795
    2        2.00000          4.46870795
    3        2.00000          2.88384164
    4        2.00000          5.09840095
    5        2.00000          2.92675917
    6        2.00000          5.09840095
    7        2.00000          2.88384164
    8        2.00000          2.92675917
    9        2.00000          8.19185658

 ----iterations are completed or convergence reached----

 Mean square residual over all n,k,spin=   55.121E-09; max=  42.615E-07
 reduced coordinates (array xred) for    9 atoms
       0.245810031510      0.251374806090      0.251374806090
       0.748559643690      0.748625193910      0.748625193910
       0.250596144630      0.251394815380      0.748605184620
       0.760802314330      0.772907182890      0.227092817110
       0.259866074355      0.741784339170      0.741784339170
       0.760802314330      0.227092817110      0.772907182890
       0.250596144630      0.748605184620      0.251394815380
       0.743434752695      0.258215660830      0.258215660830
      -0.020467420152      0.000000000000     -0.000000000000
 rms dE/dt=  2.0076E-02; max dE/dt=  2.8696E-02; dE/dt below (all hartree)
    1      -0.001536711676      0.000124158326      0.000124158326
    2      -0.001536711676     -0.001660870002     -0.001660870002
    3       0.028695933670      0.027647887265      0.001048046405
    4      -0.029904289417     -0.036245339085      0.006341049668
    5      -0.002683183663     -0.025839879594     -0.025839879594
    6      -0.029904289417      0.006341049668     -0.036245339085
    7       0.028695933670      0.001048046405      0.027647887265
    8      -0.002683183663      0.023156695931      0.023156695931
    9       0.022735509237      0.011367754619      0.011367754619

 cartesian coordinates (angstrom) at end:
    1      2.77200070100431     2.70323365809374     2.70323365809374
    2      8.25536017147647     8.14031349975359     8.14031349975359
    3      5.51368043624039     5.45514250650639     2.70695982787589
    4      5.51368043624039     5.34666942883831     8.36349626629360
    5      8.17992359758227     5.44605327175889     5.44605327175889
    6      5.51368043624039     8.36349626629360     5.34666942883831
    7      5.51368043624039     2.70695982787589     5.45514250650639
    8      2.84743727489851     5.44605327177503     5.44605327177503
    9     -0.00000000000000    -0.11128299751956    -0.11128299751956

 cartesian forces (hartree/bohr) at end:
    1     -0.00008565932671     0.00013901288674     0.00013901288674
    2      0.00008565932672     0.00013901288674     0.00013901288674
    3     -0.00000000000001    -0.00005887942087    -0.00260556159635
    4      0.00000000000001    -0.00051913603631     0.00355810629476
    5      0.00235123084901     0.00019480449396     0.00019480449396
    6      0.00000000000001     0.00355810629476    -0.00051913603631
    7     -0.00000000000001    -0.00260556159635    -0.00005887942087
    8     -0.00235123084900     0.00019480449396     0.00019480449396
    9     -0.00000000000001    -0.00104216400262    -0.00104216400262
 frms,max,avg= 1.3999555E-03 3.5581063E-03   0.000E+00 -6.423E-05 -6.423E-05 h/b

 cartesian forces (eV/Angstrom) at end:
    1     -0.00440477931127     0.00714832944657     0.00714832944657
    2      0.00440477931136     0.00714832944657     0.00714832944657
    3     -0.00000000000041    -0.00302770130065    -0.13398335305898
    4      0.00000000000047    -0.02669504606432     0.18296516673369
    5      0.12090514129711     0.01001724899835     0.01001724899835
    6      0.00000000000047     0.18296516673369    -0.02669504606432
    7     -0.00000000000041    -0.13398335305898    -0.00302770130065
    8     -0.12090514129699     0.01001724899835     0.01001724899835
    9     -0.00000000000032    -0.05359022319957    -0.05359022319957
 frms,max,avg= 7.1988599E-02 1.8296517E-01   0.000E+00 -3.303E-03 -3.303E-03 e/A
 length scales= 14.530467161000 14.693344040000 14.693344040000 bohr
              =  7.689192051767  7.775382783940  7.775382783940 angstroms
 prteigrs : about to open file Cs2TiI6o_EIG
 Fermi (or HOMO) energy (hartree) =   0.07626   Average Vxc (hartree)=  -0.26188
 Eigenvalues (hartree) for nkpt=   5  k points:
 kpt#   1, nband= 42, wtk=  0.12500, kpt=  0.0000  0.0000  0.0000 (reduced coord)
  -1.87811   -1.01923   -1.01886   -1.01747   -0.73526   -0.73480   -0.52361   -0.51809
  -0.40496   -0.38688   -0.37853   -0.37835   -0.22346   -0.22269   -0.22169   -0.21828
  -0.21766   -0.21730   -0.10816   -0.07799   -0.06910   -0.06191   -0.05729   -0.05189
  -0.04278   -0.03697   -0.01935   -0.00598   -0.00215    0.01826    0.03168    0.04586
   0.04947    0.06661    0.06667    0.07626    0.16322    0.16363    0.17033    0.25367
   0.25469    0.25601
 prteigrs : prtvol=0 or 1, do not print more k-points.

--- !EnergyTerms
iteration_state     : {dtset: 1, }
comment             : Components of total free energy in Hartree
kinetic             :  4.83566083362188E+01
hartree             :  3.39919601126652E+01
xc                  : -4.36904305315154E+01
Ewald energy        : -1.25240609960523E+02
psp_core            :  5.13095927930196E+00
local_psp           : -1.20017978782827E+02
non_local_psp+x     :  1.90851988010920E+01
total_energy        : -1.82384292745587E+02
...

--- !EnergyTermsDC
iteration_state     : {dtset: 1, }
comment             : '"Double-counting" decomposition of free energy'
band_energy         : -2.11777338441025E+01
Ewald energy        : -1.25240609960523E+02
psp_core            :  5.13095927930196E+00
xc_dc               : -4.10969100787667E+01
total_energy_dc     : -1.82384294604090E+02
...

 Cartesian components of stress tensor (hartree/bohr^3)
  sigma(1 1)= -3.77544793E-05  sigma(3 2)=  1.44358359E-06
  sigma(2 2)= -3.36027732E-05  sigma(3 1)=  6.84935735E-15
  sigma(3 3)= -3.36027732E-05  sigma(2 1)=  6.84924816E-15

-Cartesian components of stress tensor (GPa)         [Pressure=  1.0293E+00 GPa]
- sigma(1 1)= -1.11077494E+00  sigma(3 2)=  4.24716884E-02
- sigma(2 2)= -9.88627553E-01  sigma(3 1)=  2.01515016E-10
- sigma(3 3)= -9.88627553E-01  sigma(2 1)=  2.01511804E-10

== END DATASET(S) ==============================================================

 -outvars: echo values of variables after computation  --------
            acell      1.4530467161E+01  1.4693344040E+01  1.4693344040E+01 Bohr
              amu      1.32905430E+02  1.26904470E+02  9.12240000E+01
                       3.54527000E+01
           diemac      1.20000000E+01
             ecut      2.00000000E+01 Hartree
           etotal     -1.8238429460E+02
            fcart     -8.5659326714E-05  1.3901288674E-04  1.3901288674E-04
                       8.5659326715E-05  1.3901288674E-04  1.3901288674E-04
                      -8.0670934519E-15 -5.8879420869E-05 -2.6055615964E-03
                       9.2009582473E-15 -5.1913603631E-04  3.5581062948E-03
                       2.3512308490E-03  1.9480449396E-04  1.9480449396E-04
                       9.2011317232E-15  3.5581062948E-03 -5.1913603631E-04
                      -8.0668857716E-15 -2.6055615964E-03 -5.8879420869E-05
                      -2.3512308490E-03  1.9480449396E-04  1.9480449396E-04
                      -6.3106604317E-15 -1.0421640026E-03 -1.0421640026E-03
-          fftalg         112
             iscf          17
           istwfk        1    1    1    1    1
              ixc        -428
              kpt      0.00000000E+00  0.00000000E+00  0.00000000E+00
                       5.00000000E-01  0.00000000E+00  0.00000000E+00
                       0.00000000E+00  5.00000000E-01  0.00000000E+00
                       5.00000000E-01  5.00000000E-01  0.00000000E+00
                       0.00000000E+00  5.00000000E-01  5.00000000E-01
         kptns_hf      0.00000000E+00  0.00000000E+00  0.00000000E+00
                       5.00000000E-01  0.00000000E+00  0.00000000E+00
                       0.00000000E+00  5.00000000E-01  0.00000000E+00
                       5.00000000E-01  5.00000000E-01  0.00000000E+00
                       0.00000000E+00  0.00000000E+00  5.00000000E-01
                       5.00000000E-01  0.00000000E+00  5.00000000E-01
                       0.00000000E+00  5.00000000E-01  5.00000000E-01
                       5.00000000E-01  5.00000000E-01  5.00000000E-01
         kptrlatt        2    0    0      0    2    0      0    0    2
          kptrlen      2.90609343E+01
P           mkmem           2
            natom           9
            nband          42
          nbandhf          36
            ngfft          60      60      60
             nkpt           5
           nkpthf           8
-           npkpt           4
            nstep        2500
             nsym           4
           ntypat           4
              occ      2.000000  2.000000  2.000000  2.000000  2.000000  2.000000
                       2.000000  2.000000  2.000000  2.000000  2.000000  2.000000
                       2.000000  2.000000  2.000000  2.000000  2.000000  2.000000
                       2.000000  2.000000  2.000000  2.000000  2.000000  2.000000
                       2.000000  2.000000  2.000000  2.000000  2.000000  2.000000
                       2.000000  2.000000  2.000000  2.000000  2.000000  2.000000
                       0.000000  0.000000  0.000000  0.000000  0.000000  0.000000
            rprim      0.0000000000E+00  7.0710678119E-01  7.0710678119E-01
                       7.0912012816E-01 -5.7954205932E-03  7.0506386727E-01
                       7.0912012816E-01  7.0506386727E-01 -5.7954205932E-03
          spgroup          44
           strten     -3.7754479272E-05 -3.3602773175E-05 -3.3602773175E-05
                       1.4435835905E-06  6.8493573456E-15  6.8492481611E-15
           symrel      1  0  0   0  1  0   0  0  1       1  0  0   1  0 -1   1 -1  0
                       1  0  0   0  0  1   0  1  0       1  0  0   1 -1  0   1  0 -1
           toldfe      1.00000000E-08 Hartree
            typat      1  1  2  4  2  4  2  2  3
          usefock           1
              wtk        0.12500    0.25000    0.25000    0.25000    0.12500
           xangst      2.7720007010E+00  2.7032336581E+00  2.7032336581E+00
                       8.2553601715E+00  8.1403134998E+00  8.1403134998E+00
                       5.5136804362E+00  5.4551425065E+00  2.7069598279E+00
                       5.5136804362E+00  5.3466694288E+00  8.3634962663E+00
                       8.1799235976E+00  5.4460532718E+00  5.4460532718E+00
                       5.5136804362E+00  8.3634962663E+00  5.3466694288E+00
                       5.5136804362E+00  2.7069598279E+00  5.4551425065E+00
                       2.8474372749E+00  5.4460532718E+00  5.4460532718E+00
                      -2.5383544536E-36 -1.1128299752E-01 -1.1128299752E-01
            xcart      5.2383221651E+00  5.1083712870E+00  5.1083712870E+00
                       1.5600369852E+01  1.5382963150E+01  1.5382963150E+01
                       1.0419346009E+01  1.0308725353E+01  5.1154127274E+00
                       1.0419346009E+01  1.0103740944E+01  1.5804717457E+01
                       1.5457815387E+01  1.0291549189E+01  1.0291549189E+01
                       1.0419346009E+01  1.5804717457E+01  1.0103740944E+01
                       1.0419346009E+01  5.1154127274E+00  1.0308725353E+01
                       5.3808766301E+00  1.0291549189E+01  1.0291549189E+01
                      -4.7967947454E-36 -2.1029438856E-01 -2.1029438856E-01
             xred      2.4581003151E-01  2.5137480609E-01  2.5137480609E-01
                       7.4855964369E-01  7.4862519391E-01  7.4862519391E-01
                       2.5059614463E-01  2.5139481538E-01  7.4860518462E-01
                       7.6080231433E-01  7.7290718289E-01  2.2709281711E-01
                       2.5986607436E-01  7.4178433917E-01  7.4178433917E-01
                       7.6080231433E-01  2.2709281711E-01  7.7290718289E-01
                       2.5059614463E-01  7.4860518462E-01  2.5139481538E-01
                       7.4343475270E-01  2.5821566083E-01  2.5821566083E-01
                      -2.0467420152E-02  5.0754166481E-20 -5.0754166481E-20
            znucl       55.00000   53.00000   40.00000   17.00000

- Timing analysis has been suppressed with timopt=0

 Suggested references for the acknowledgment of ABINIT usage.

 Calculation completed.
.Delivered   0 WARNINGs and   0 COMMENTs to log file.