.Version 9.2.2 of ABINIT

 ABINIT is a project of the Universite Catholique de Louvain,
 Corning Inc. and other collaborators, see ~abinit/doc/developers/contributors.txt .
 acknowledgments of the ABINIT effort.

.Starting date : Sat 10 Dec 2022.
- ( at 23h12 )

- The starting date is more than 2 years after the initial release
- of this version of ABINIT, namely Nov 2020.
- Note that the use beyond 3 years after the release will not be supported.
- Action: please, switch to a more recent version of ABINIT.

- input  file    -> Cs2TiI6.in
- output file    -> Cs2TiI6.out
- root for input  files -> Cs2TiI6i
- root for output files -> Cs2TiI6o

- inpspheads : Reading pseudopotential header in XML form from
-   ../../../Psps_for_tests/ATOMICDATA/Cs.GGA_PBE-JTH.xml
- inpspheads : Reading pseudopotential header in XML form from
-   ../../../Psps_for_tests/ATOMICDATA/I.GGA_PBE-JTH.xml
- inpspheads : Reading pseudopotential header in XML form from
-   ../../../Psps_for_tests/ATOMICDATA/Zr.GGA_PBE-JTH.xml
- inpspheads : Reading pseudopotential header in XML form from
-   ../../../Psps_for_tests/ATOMICDATA/Cl.GGA_PBE-JTH.xml

 DATASET    1 : space group I4 m m (#107); Bravais tI (body-center tetrag.)
     intxc =       0    ionmov =       0      iscf =      17    lmnmax =      18
     lnmax =       6     mgfft =      60  mpssoang =       3    mqgrid =    3659
     natom =       9  nloc_mem =       2    nspden =       1   nspinor =       1
    nsppol =       1      nsym =       8    n1xccc =       1    ntypat =       4
    occopt =       1   xclevel =       2
-    mband =          42        mffmem =           1         mkmem =          41
       mpw =        8456          nfft =      216000          nkpt =         163
Pmy_natom=         3
 PAW method is used; the additional fine FFT grid is defined by:
   mgfftf=        96    nfftf =    884736
  Rough estimation (10% accuracy) of disk space for files :

[...]

 DATASET   10 : space group I4 m m (#107); Bravais tI (body-center tetrag.)
     intxc =       0    ionmov =       0      iscf =      17    lmnmax =      18
     lnmax =       6     mgfft =      54  mpssoang =       3    mqgrid =    3326
     natom =       9  nloc_mem =       2    nspden =       1   nspinor =       1
    nsppol =       1      nsym =       8    n1xccc =       1    ntypat =       4
    occopt =       1   xclevel =       2
-    mband =          42        mffmem =           1         mkmem =          41
       mpw =        6370          nfft =      157464          nkpt =         163
Pmy_natom=         3
 PAW method is used; the additional fine FFT grid is defined by:
   mgfftf=        90    nfftf =    729000
  Rough estimation (10% accuracy) of disk space for files :

------------- Echo of variables that govern the present computation ------------
-
- outvars: echo of selected default values
-   iomode0 =  0 , fftalg0 =112 , wfoptalg0 = 10
-
- outvars: echo of global parameters not present in the input file
-  max_nthreads =    0
-
 -outvars: echo values of preprocessed input variables --------
            acell1     1.5678957360E+01  1.5678957360E+01  1.5865928970E+01 Bohr
            acell2     1.5520159575E+01  1.5520159575E+01  1.5706593077E+01 Bohr
            acell3     1.5360893941E+01  1.5360893941E+01  1.5548279831E+01 Bohr
            acell4     1.5200437945E+01  1.5200437945E+01  1.5392576946E+01 Bohr
            acell5     1.5038304242E+01  1.5038304242E+01  1.5240585986E+01 Bohr
            acell6     1.4875419679E+01  1.4875419679E+01  1.5090315988E+01 Bohr
            acell7     1.4712989595E+01  1.4712989595E+01  1.4939107722E+01 Bohr
            acell8     1.4550050907E+01  1.4550050907E+01  1.4789115091E+01 Bohr
            acell9     1.4386116225E+01  1.4386116225E+01  1.4641482096E+01 Bohr
            acell10    1.4224277549E+01  1.4224277549E+01  1.4489166822E+01 Bohr
              amu      1.32905430E+02  1.26904470E+02  9.12240000E+01
                       3.54527000E+01
           diemac      1.20000000E+01
             ecut      1.60000000E+01 Hartree
-          fftalg         112
           istwfk        2    0    0    0    0    0    3    0    0    0
                         0    0    0    0    0    0    0    0    0    0
                         0    0    0    0    0    0    0    0    0    0
                         0    0    0    0    0    0    0    0    0    0
                         0    0    7    0    0    0    0    0    0    0
                       outvar_i_n : Printing only first  50 k-points.
              ixc     -101130
           jdtset        1    2    3    4    5    6    7    8    9   10
              kpt      0.00000000E+00  0.00000000E+00  0.00000000E+00
                       8.33333333E-02  0.00000000E+00  0.00000000E+00
                       1.66666667E-01  0.00000000E+00  0.00000000E+00
                       2.50000000E-01  0.00000000E+00  0.00000000E+00
                       3.33333333E-01  0.00000000E+00  0.00000000E+00
                       4.16666667E-01  0.00000000E+00  0.00000000E+00
                       5.00000000E-01  0.00000000E+00  0.00000000E+00
                       8.33333333E-02  8.33333333E-02  0.00000000E+00
                       1.66666667E-01  8.33333333E-02  0.00000000E+00
                       2.50000000E-01  8.33333333E-02  0.00000000E+00
                       3.33333333E-01  8.33333333E-02  0.00000000E+00
                       4.16666667E-01  8.33333333E-02  0.00000000E+00
                       5.00000000E-01  8.33333333E-02  0.00000000E+00
                      -4.16666667E-01  8.33333333E-02  0.00000000E+00
                      -3.33333333E-01  8.33333333E-02  0.00000000E+00
                      -2.50000000E-01  8.33333333E-02  0.00000000E+00
                      -1.66666667E-01  8.33333333E-02  0.00000000E+00
                      -8.33333333E-02  8.33333333E-02  0.00000000E+00
                       1.66666667E-01  1.66666667E-01  0.00000000E+00
                       2.50000000E-01  1.66666667E-01  0.00000000E+00
                       3.33333333E-01  1.66666667E-01  0.00000000E+00
                       4.16666667E-01  1.66666667E-01  0.00000000E+00
                       5.00000000E-01  1.66666667E-01  0.00000000E+00
                      -4.16666667E-01  1.66666667E-01  0.00000000E+00
                      -3.33333333E-01  1.66666667E-01  0.00000000E+00
                      -2.50000000E-01  1.66666667E-01  0.00000000E+00
                      -1.66666667E-01  1.66666667E-01  0.00000000E+00
                       2.50000000E-01  2.50000000E-01  0.00000000E+00
                       3.33333333E-01  2.50000000E-01  0.00000000E+00
                       4.16666667E-01  2.50000000E-01  0.00000000E+00
                       5.00000000E-01  2.50000000E-01  0.00000000E+00
                      -4.16666667E-01  2.50000000E-01  0.00000000E+00
                      -3.33333333E-01  2.50000000E-01  0.00000000E+00
                      -2.50000000E-01  2.50000000E-01  0.00000000E+00
                       3.33333333E-01  3.33333333E-01  0.00000000E+00
                       4.16666667E-01  3.33333333E-01  0.00000000E+00
                       5.00000000E-01  3.33333333E-01  0.00000000E+00
                      -4.16666667E-01  3.33333333E-01  0.00000000E+00
                      -3.33333333E-01  3.33333333E-01  0.00000000E+00
                       4.16666667E-01  4.16666667E-01  0.00000000E+00
                       5.00000000E-01  4.16666667E-01  0.00000000E+00
                      -4.16666667E-01  4.16666667E-01  0.00000000E+00
                       5.00000000E-01  5.00000000E-01  0.00000000E+00
                       8.33333333E-02  0.00000000E+00  8.33333333E-02
                       1.66666667E-01  0.00000000E+00  8.33333333E-02
                       2.50000000E-01  0.00000000E+00  8.33333333E-02
                       3.33333333E-01  0.00000000E+00  8.33333333E-02
                       4.16666667E-01  0.00000000E+00  8.33333333E-02
                       5.00000000E-01  0.00000000E+00  8.33333333E-02
                      -4.16666667E-01  0.00000000E+00  8.33333333E-02
                       outvar_i_n : Printing only first  50 k-points.
         kptrlatt       12    0    0      0   12    0      0    0   12
          kptrlen1     1.88147488E+02
          kptrlen2     1.86241915E+02
          kptrlen3     1.84330727E+02
          kptrlen4     1.82405255E+02
          kptrlen5     1.80459651E+02
          kptrlen6     1.78505036E+02
          kptrlen7     1.76555875E+02
          kptrlen8     1.74600611E+02
          kptrlen9     1.72633395E+02
          kptrlen10    1.70691331E+02
P           mkmem          41
            natom           9
            nband          42
           ndtset          10
            ngfft1         60      60      60
            ngfft2         60      60      60
            ngfft3         60      60      60
            ngfft4         60      60      60
            ngfft5         60      60      60
            ngfft6         60      60      60
            ngfft7         54      54      54
            ngfft8         54      54      54
            ngfft9         54      54      54
            ngfft10        54      54      54
          ngfftdg1         96      96      96
          ngfftdg2         90      90      90
          ngfftdg3         90      90      90
          ngfftdg4         90      90      90
          ngfftdg5         90      90      90
          ngfftdg6         90      90      90
          ngfftdg7         90      90      90
          ngfftdg8         90      90      90
          ngfftdg9         90      90      90
          ngfftdg10        90      90      90
             nkpt         163
            nstep        2500
             nsym           8
           ntypat           4
              occ      2.000000  2.000000  2.000000  2.000000  2.000000  2.000000
                       2.000000  2.000000  2.000000  2.000000  2.000000  2.000000
                       2.000000  2.000000  2.000000  2.000000  2.000000  2.000000
                       2.000000  2.000000  2.000000  2.000000  2.000000  2.000000
                       2.000000  2.000000  2.000000  2.000000  2.000000  2.000000
                       2.000000  2.000000  2.000000  2.000000  2.000000  2.000000
                       0.000000  0.000000  0.000000  0.000000  0.000000  0.000000
        pawecutdg      4.00000000E+01 Hartree
            prtwf           0
            rprim1     0.0000000000E+00  7.1553903149E-01  6.9857275528E-01
                       7.1553903149E-01  0.0000000000E+00  6.9857275528E-01
                       7.0710678119E-01  7.0710678119E-01  0.0000000000E+00
            rprim2     0.0000000000E+00  7.1560079137E-01  6.9850948983E-01
                       7.1560079137E-01  0.0000000000E+00  6.9850948983E-01
                       7.0710678119E-01  7.0710678119E-01  0.0000000000E+00
            rprim3     0.0000000000E+00  7.1573270059E-01  6.9837432750E-01
                       7.1573270059E-01  0.0000000000E+00  6.9837432750E-01
                       7.0710678119E-01  7.0710678119E-01  0.0000000000E+00
[...]
                       9.9231772531E-13  9.9231772531E-13  1.1063551896E-01
           xangst7     2.7949934626E+00  2.7949934626E+00  2.7280559783E+00
                       8.3849803877E+00  8.3849803877E+00  8.1475021805E+00
                       5.5899869252E+00  5.5899869252E+00  2.5540600710E+00
                       5.5899869250E+00  5.5899869250E+00  8.1090028364E+00
                       8.3367711322E+00  5.5899869252E+00  5.4249398112E+00
                       5.5899869252E+00  8.3367711322E+00  5.4249398112E+00
                       5.5899869250E+00  2.8432027180E+00  5.4249398112E+00
                       2.8432027180E+00  5.5899869250E+00  5.4249398112E+00
                      -3.1313993245E-12 -3.1313993245E-12  1.1718930678E-01
           xangst8     2.7669309818E+00  2.7669309818E+00  2.6908900071E+00
                       8.3007929454E+00  8.3007929454E+00  8.0443490713E+00
                       5.5338619637E+00  5.5338619637E+00  2.5594382798E+00
                       5.5338619636E+00  5.5338619636E+00  7.9952064960E+00
                       8.2361931524E+00  5.5338619637E+00  5.3532094719E+00
                       5.5338619637E+00  8.2361931524E+00  5.3532094719E+00
                       5.5338619636E+00  2.8315307749E+00  5.3532094719E+00
                       2.8315307749E+00  5.5338619636E+00  5.3532094719E+00
                      -2.3472353843E-12 -2.3472353843E-12  1.2495077216E-01
           xangst9     2.7393099710E+00  2.7393099710E+00  2.6521858248E+00
                       8.2179299131E+00  8.2179299131E+00  7.9379706157E+00
                       5.4786199421E+00  5.4786199421E+00  2.5650843589E+00
                       5.4786199420E+00  5.4786199420E+00  7.8795783225E+00
                       8.1390204538E+00  5.4786199421E+00  5.2793884427E+00
                       5.4786199421E+00  8.1390204538E+00  5.2793884427E+00
                       5.4786199420E+00  2.8182194303E+00  5.2793884427E+00
                       2.8182194303E+00  5.4786199420E+00  5.2793884427E+00
                      -1.8885555255E-12 -1.8885555255E-12  1.3390543438E-01
           xangst10    2.7108129415E+00  2.7108129415E+00  2.6155013482E+00
                       8.1324388244E+00  8.1324388244E+00  7.8370109914E+00
                       5.4216258829E+00  5.4216258829E+00  2.5689894630E+00
                       5.4216258829E+00  5.4216258829E+00  7.7715288041E+00
                       8.0396703732E+00  5.4216258829E+00  5.2090326298E+00
                       5.4216258829E+00  8.0396703732E+00  5.2090326298E+00
                       5.4216258829E+00  2.8035813927E+00  5.2090326298E+00
                       2.8035813927E+00  5.4216258829E+00  5.2090326298E+00
                       5.8798172909E-13  5.8798172909E-13  1.4291601968E-01
            xcart1     5.6094529822E+00  5.6094529822E+00  5.5405970687E+00
                       1.6828358947E+01  1.6828358947E+01  1.6493489512E+01
                       1.1218905964E+01  1.1218905964E+01  4.7710729409E+00
                       1.1218905964E+01  1.1218905964E+01  1.6606254415E+01
                       1.6978266548E+01  1.1218905964E+01  1.1011752925E+01
                       1.1218905964E+01  1.6978266548E+01  1.1011752925E+01
                       1.1218905964E+01  5.4595453808E+00  1.1011752925E+01
                       5.4595453808E+00  1.1218905964E+01  1.1011752925E+01
                      -3.1465384172E-12 -3.1465384172E-12  1.6471390729E-01
            xcart2     5.5531192370E+00  5.5531192370E+00  5.4820373482E+00
                       1.6659357711E+01  1.6659357711E+01  1.6323016095E+01
                       1.1106238474E+01  1.1106238474E+01  4.7788257742E+00
                       1.1106238474E+01  1.1106238474E+01  1.6398341320E+01
                       1.6762656521E+01  1.1106238474E+01  1.0893641573E+01
                       1.1106238474E+01  1.6762656521E+01  1.0893641573E+01
                       1.1106238474E+01  5.4498204269E+00  1.0893641573E+01
                       5.4498204269E+00  1.1106238474E+01  1.0893641573E+01
                      -6.3054421516E-13 -6.3054421516E-13  1.7104314538E-01
            xcart3     5.4971470521E+00  5.4971470521E+00  5.4220481699E+00
                       1.6491441156E+01  1.6491441156E+01  1.6149702146E+01
                       1.0994294104E+01  1.0994294104E+01  4.7867872697E+00
                       1.0994294104E+01  1.0994294104E+01  1.6190129476E+01
                       1.6550189401E+01  1.0994294104E+01  1.0773628711E+01
                       1.0994294104E+01  1.6550189401E+01  1.0773628711E+01
                       1.0994294104E+01  5.4383988077E+00  1.0773628711E+01
                       5.4383988077E+00  1.0994294104E+01  1.0773628711E+01
                      -3.9112225613E-12 -3.9112225613E-12  1.7804990227E-01
            xcart4     5.4420977692E+00  5.4420977692E+00  5.3580839545E+00
                       1.6326293308E+01  1.6326293308E+01  1.5968814429E+01
                       1.0884195538E+01  1.0884195538E+01  4.7964969255E+00
                       1.0884195538E+01  1.0884195538E+01  1.5978383757E+01
                       1.6343212692E+01  1.0884195538E+01  1.0649263259E+01
                       1.0884195538E+01  1.6343212692E+01  1.0649263259E+01
                       1.0884195538E+01  5.4251783849E+00  1.0649263259E+01
                       5.4251783849E+00  1.0884195538E+01  1.0649263259E+01
                      -2.3000446370E-12 -2.3000446370E-12  1.8701169520E-01
            xcart5     5.3883608499E+00  5.3883608499E+00  5.2927889050E+00
                       1.6165082550E+01  1.6165082550E+01  1.5781490630E+01
                       1.0776721700E+01  1.0776721700E+01  4.8050343010E+00
                       1.0776721700E+01  1.0776721700E+01  1.5758852473E+01
                       1.6143389681E+01  1.0776721700E+01  1.0518827072E+01
                       1.0776721700E+01  1.6143389681E+01  1.0518827072E+01
                       1.0776721700E+01  5.4100537190E+00  1.0518827072E+01
                       5.4100537190E+00  1.0776721700E+01  1.0518827072E+01
                      -3.6213900417E-12 -3.6213900417E-12  1.9613920341E-01
            xcart6     5.3352323828E+00  5.3352323828E+00  5.2228673037E+00
                       1.6005697148E+01  1.6005697148E+01  1.5587195179E+01
                       1.0670464765E+01  1.0670464765E+01  4.8168331570E+00
                       1.0670464766E+01  1.0670464766E+01  1.5539190844E+01
                       1.5948240586E+01  1.0670464765E+01  1.0384866422E+01
                       1.0670464765E+01  1.5948240586E+01  1.0384866422E+01
                       1.0670464766E+01  5.3926889450E+00  1.0384866422E+01
                       5.3926889450E+00  1.0670464766E+01  1.0384866422E+01
                       1.8752087377E-12  1.8752087377E-12  2.0907083140E-01
            xcart7     5.2817721874E+00  5.2817721874E+00  5.1552786741E+00
                       1.5845316562E+01  1.5845316562E+01  1.5396547788E+01
                       1.0563544375E+01  1.0563544375E+01  4.8264740612E+00
                       1.0563544375E+01  1.0563544375E+01  1.5323794572E+01
                       1.5754214272E+01  1.0563544375E+01  1.0251650531E+01
                       1.0563544375E+01  1.5754214272E+01  1.0251650531E+01
                       1.0563544375E+01  5.3728744773E+00  1.0251650531E+01
                       5.3728744773E+00  1.0563544375E+01  1.0251650531E+01
                      -5.9174871361E-12 -5.9174871361E-12  2.2145569552E-01
            xcart8     5.2287417842E+00  5.2287417842E+00  5.0850451671E+00
                       1.5686225353E+01  1.5686225353E+01  1.5201616662E+01
                       1.0457483569E+01  1.0457483569E+01  4.8366374028E+00
                       1.0457483568E+01  1.0457483568E+01  1.5108750653E+01
                       1.5564149436E+01  1.0457483569E+01  1.0116099834E+01
                       1.0457483569E+01  1.5564149436E+01  1.0116099834E+01
                       1.0457483568E+01  5.3508177014E+00  1.0116099834E+01
                       5.3508177014E+00  1.0457483568E+01  1.0116099834E+01
                      -4.4356320457E-12 -4.4356320457E-12  2.3612273947E-01
            xcart9     5.1765456383E+00  5.1765456383E+00  5.0119048623E+00
                       1.5529636915E+01  1.5529636915E+01  1.5000590515E+01
                       1.0353091277E+01  1.0353091277E+01  4.8473069461E+00
                       1.0353091277E+01  1.0353091277E+01  1.4890245072E+01
                       1.5380519648E+01  1.0353091277E+01  9.9765983059E+00
                       1.0353091277E+01  1.5380519648E+01  9.9765983059E+00
                       1.0353091277E+01  5.3256629056E+00  9.9765983059E+00
                       5.3256629056E+00  1.0353091277E+01  9.9765983059E+00
                      -3.5688527299E-12 -3.5688527299E-12  2.5304459868E-01
            xcart10    5.1226940568E+00  5.1226940568E+00  4.9425812482E+00
                       1.5368082171E+01  1.5368082171E+01  1.4809804474E+01
                       1.0245388114E+01  1.0245388114E+01  4.8546865233E+00
                       1.0245388114E+01  1.0245388114E+01  1.4686061074E+01
                       1.5192775204E+01  1.0245388114E+01  9.8436450876E+00
                       1.0245388114E+01  1.5192775204E+01  9.8436450876E+00
                       1.0245388114E+01  5.2980010234E+00  9.8436450876E+00
                       5.2980010234E+00  1.0245388114E+01  9.8436450876E+00
                       1.1111244391E-12  1.1111244391E-12  2.7007213720E-01
             xred1     2.5292848887E-01  2.5292848887E-01  2.4707151113E-01
                       7.5292848887E-01  7.5292848887E-01  7.4707151113E-01
                       2.1779968012E-01  2.1779968012E-01  7.8220031988E-01
                       7.5807621145E-01  7.5807621145E-01  2.4192378855E-01
                       2.4600595763E-01  7.5936800932E-01  7.5399404237E-01
                       7.5936800932E-01  2.4600595763E-01  7.5399404237E-01
                       2.4600595763E-01  7.5936800932E-01  2.4063199068E-01
                       7.5936800932E-01  2.4600595763E-01  2.4063199068E-01
                       7.5191967851E-03  7.5191967851E-03 -7.5191967851E-03
             xred2     2.5283867242E-01  2.5283867242E-01  2.4716132758E-01
                       7.5283867242E-01  7.5283867242E-01  7.4716132758E-01
                       2.2040564260E-01  2.2040564260E-01  7.7959435740E-01
                       7.5631276948E-01  7.5631276948E-01  2.4368723052E-01
                       2.4777839197E-01  7.5707936371E-01  7.5222160803E-01
                       7.5707936371E-01  2.4777839197E-01  7.5222160803E-01
                       2.4777839197E-01  7.5707936371E-01  2.4292063629E-01
                       7.5707936371E-01  2.4777839197E-01  2.4292063629E-01
                       7.8887316992E-03  7.8887316992E-03 -7.8887316992E-03
             xred3     2.5271360272E-01  2.5271360272E-01  2.4728639728E-01
                       7.5271360272E-01  7.5271360272E-01  7.4728639728E-01
                       2.2310503678E-01  2.2310503678E-01  7.7689496322E-01
                       7.5459786045E-01  7.5459786045E-01  2.4540213955E-01
                       2.4947105339E-01  7.5481457466E-01  7.5052894661E-01
                       7.5481457466E-01  2.4947105339E-01  7.5052894661E-01
                       2.4947105339E-01  7.5481457466E-01  2.4518542534E-01
                       7.5481457466E-01  2.4947105339E-01  2.4518542534E-01
                       8.2986411880E-03  8.2986411880E-03 -8.2986411880E-03
             xred4     2.5248421715E-01  2.5248421715E-01  2.4751578285E-01
                       7.5248421715E-01  7.5248421715E-01  7.4751578285E-01
                       2.2602105185E-01  2.2602105185E-01  7.7397894815E-01
                       7.5293514408E-01  7.5293514408E-01  2.4706485592E-01
                       2.5103850054E-01  7.5259299157E-01  7.4896149946E-01
                       7.5259299157E-01  2.5103850054E-01  7.4896149946E-01
                       2.5103850054E-01  7.5259299157E-01  2.4740700843E-01
                       7.5259299157E-01  2.5103850054E-01  2.4740700843E-01
                       8.8123855210E-03  8.8123855210E-03 -8.8123855210E-03
             xred5     2.5230905805E-01  2.5230905805E-01  2.4769094195E-01
                       7.5230905805E-01  7.5230905805E-01  7.4769094195E-01
                       2.2905762919E-01  2.2905762919E-01  7.7094237081E-01
                       7.5122988935E-01  7.5122988935E-01  2.4877011065E-01
                       2.5244255443E-01  7.5042961676E-01  7.4755744557E-01
                       7.5042961676E-01  2.5244255443E-01  7.4755744557E-01
                       2.5244255443E-01  7.5042961676E-01  2.4957038324E-01
                       7.5042961676E-01  2.5244255443E-01  2.4957038324E-01
                       9.3500229366E-03  9.3500229366E-03 -9.3500229366E-03
             xred6     2.5196362786E-01  2.5196362786E-01  2.4803637214E-01
                       7.5196362786E-01  7.5196362786E-01  7.4803637214E-01
                       2.3237556814E-01  2.3237556814E-01  7.6762443186E-01
                       7.4964778373E-01  7.4964778373E-01  2.5035221627E-01
                       2.5368314638E-01  7.4829851099E-01  7.4631685362E-01
                       7.4829851099E-01  2.5368314638E-01  7.4631685362E-01
                       2.5368314638E-01  7.4829851099E-01  2.5170148901E-01
                       7.4829851099E-01  2.5368314638E-01  2.5170148901E-01
                       1.0086077646E-02  1.0086077646E-02 -1.0086077646E-02
             xred7     2.5169139765E-01  2.5169139765E-01  2.4830860235E-01
                       7.5169139765E-01  7.5169139765E-01  7.4830860235E-01
                       2.3563847446E-01  2.3563847446E-01  7.6436152554E-01
                       7.4813943471E-01  7.4813943471E-01  2.5186056529E-01
                       2.5481895035E-01  7.4619473421E-01  7.4518104965E-01
                       7.4619473421E-01  2.5481895035E-01  7.4518104965E-01
                       2.5481895035E-01  7.4619473421E-01  2.5380526579E-01
                       7.4619473421E-01  2.5481895035E-01  2.5380526579E-01
                       1.0811926386E-02  1.0811926386E-02 -1.0811926386E-02
             xred8     2.5132255377E-01  2.5132255377E-01  2.4867744623E-01
                       7.5132255377E-01  7.5132255377E-01  7.4867744623E-01
                       2.3904528353E-01  2.3904528353E-01  7.6095471647E-01
                       7.4673275727E-01  7.4673275727E-01  2.5326724273E-01
                       2.5581346176E-01  7.4413991560E-01  7.4418653824E-01
                       7.4413991560E-01  2.5581346176E-01  7.4418653824E-01
                       2.5581346176E-01  7.4413991560E-01  2.5586008440E-01
                       7.4413991560E-01  2.5581346176E-01  2.5586008440E-01
                       1.1670096909E-02  1.1670096909E-02 -1.1670096909E-02
             xred9     2.5087909645E-01  2.5087909645E-01  2.4912090355E-01
                       7.5087909645E-01  7.5087909645E-01  7.4912090355E-01
                       2.4263987850E-01  2.4263987850E-01  7.5736012150E-01
                       7.4535557483E-01  7.4535557483E-01  2.5464442517E-01
                       2.5659652990E-01  7.4219336631E-01  7.4340347010E-01
                       7.4219336631E-01  2.5659652990E-01  7.4340347010E-01
                       2.5659652990E-01  7.4219336631E-01  2.5780663369E-01
                       7.4219336631E-01  2.5659652990E-01  2.5780663369E-01
                       1.2666561322E-02  1.2666561322E-02 -1.2666561322E-02
             xred10    2.5045451669E-01  2.5045451669E-01  2.4954548331E-01
                       7.5045451669E-01  7.5045451669E-01  7.4954548331E-01
                       2.4600064335E-01  2.4600064335E-01  7.5399935665E-01
                       7.4418408996E-01  7.4418408996E-01  2.5581591004E-01
                       2.5736063807E-01  7.4024982054E-01  7.4263936193E-01
                       7.4024982054E-01  2.5736063807E-01  7.4263936193E-01
                       2.5736063807E-01  7.4024982054E-01  2.5975017946E-01
                       7.4024982054E-01  2.5736063807E-01  2.5975017946E-01
                       1.3685316072E-02  1.3685316072E-02 -1.3685316072E-02
            znucl       55.00000   53.00000   40.00000   17.00000

- Timing analysis has been suppressed with timopt=0

 Suggested references for the acknowledgment of ABINIT usage.

 Calculation completed.
.Delivered   0 WARNINGs and   1 COMMENTs to log file.