.Version 9.2.2 of ABINIT

 ABINIT is a project of the Universite Catholique de Louvain,
 Corning Inc. and other collaborators, see ~abinit/doc/developers/contributors.txt .
 acknowledgments of the ABINIT effort.

.Starting date : Sat 10 Dec 2022.
- ( at 19h13 )

- The starting date is more than 2 years after the initial release
- of this version of ABINIT, namely Nov 2020.
- Note that the use beyond 3 years after the release will not be supported.
- Action: please, switch to a more recent version of ABINIT.

- input  file    -> Cs2TiI6.in
- output file    -> Cs2TiI6.out
- root for input  files -> Cs2TiI6i
- root for output files -> Cs2TiI6o

- inpspheads : Reading pseudopotential header in XML form from
-   ../../../Psps_for_tests/ATOMICDATA/Cs.GGA_PBE-JTH.xml
- inpspheads : Reading pseudopotential header in XML form from
-   ../../../Psps_for_tests/ATOMICDATA/Cl.GGA_PBE-JTH.xml
- inpspheads : Reading pseudopotential header in XML form from
-   ../../../Psps_for_tests/ATOMICDATA/Zr.GGA_PBE-JTH.xml

 DATASET    1 : space group Fm -3 m (#225); Bravais cF (face-center cubic)
     intxc =       0    ionmov =       0      iscf =      17    lmnmax =      18
     lnmax =       6     mgfft =      54  mpssoang =       3    mqgrid =    3318
     natom =       9  nloc_mem =       2    nspden =       1   nspinor =       1
    nsppol =       1      nsym =      48    n1xccc =       1    ntypat =       3
    occopt =       1   xclevel =       2
-    mband =          42        mffmem =           1         mkmem =          18
       mpw =        6303          nfft =      157464          nkpt =          72
Pmy_natom=         3
 PAW method is used; the additional fine FFT grid is defined by:
   mgfftf=        90    nfftf =    729000
  Rough estimation (10% accuracy) of disk space for files :

[...]

 DATASET   10 : space group Fm -3 m (#225); Bravais cF (face-center cubic)
     intxc =       0    ionmov =       0      iscf =      17    lmnmax =      18
     lnmax =       6     mgfft =      48  mpssoang =       3    mqgrid =    3017
     natom =       9  nloc_mem =       2    nspden =       1   nspinor =       1
    nsppol =       1      nsym =      48    n1xccc =       1    ntypat =       3
    occopt =       1   xclevel =       2
-    mband =          42        mffmem =           1         mkmem =          18
       mpw =        4756          nfft =      110592          nkpt =          72
Pmy_natom=         3
 PAW method is used; the additional fine FFT grid is defined by:
   mgfftf=        75    nfftf =    421875
  Rough estimation (10% accuracy) of disk space for files :

------------- Echo of variables that govern the present computation ------------
-
- outvars: echo of selected default values
-   iomode0 =  0 , fftalg0 =112 , wfoptalg0 = 10
-
- outvars: echo of global parameters not present in the input file
-  max_nthreads =    0
-
 -outvars: echo values of preprocessed input variables --------
            acell1     1.4272286659E+01  1.4272286659E+01  1.4272286659E+01 Bohr
            acell2     1.4128122148E+01  1.4128122148E+01  1.4128122148E+01 Bohr
            acell3     1.3983957636E+01  1.3983957636E+01  1.3983957636E+01 Bohr
            acell4     1.3839793124E+01  1.3839793124E+01  1.3839793124E+01 Bohr
            acell5     1.3695628612E+01  1.3695628612E+01  1.3695628612E+01 Bohr
            acell6     1.3551464101E+01  1.3551464101E+01  1.3551464101E+01 Bohr
            acell7     1.3407299589E+01  1.3407299589E+01  1.3407299589E+01 Bohr
            acell8     1.3263135077E+01  1.3263135077E+01  1.3263135077E+01 Bohr
            acell9     1.3118970566E+01  1.3118970566E+01  1.3118970566E+01 Bohr
            acell10    1.2974806054E+01  1.2974806054E+01  1.2974806054E+01 Bohr
              amu      1.32905430E+02  3.54527000E+01  9.12240000E+01
           diemac      1.20000000E+01
             ecut      1.60000000E+01 Hartree
-          fftalg         112
           istwfk        2    0    0    0    0    0    3    0    0    0
                         0    0    0    0    0    0    0    0    0    0
                         0    0    0    0    0    0    0    0    0    0
                         0    0    0    0    0    0    0    0    0    0
                         0    0    7    0    0    0    0    0    0    0
                       outvar_i_n : Printing only first  50 k-points.
              ixc     -101130
           jdtset        1    2    3    4    5    6    7    8    9   10
              kpt      0.00000000E+00  0.00000000E+00  0.00000000E+00
                       8.33333333E-02  0.00000000E+00  0.00000000E+00
                       1.66666667E-01  0.00000000E+00  0.00000000E+00
                       2.50000000E-01  0.00000000E+00  0.00000000E+00
                       3.33333333E-01  0.00000000E+00  0.00000000E+00
                       4.16666667E-01  0.00000000E+00  0.00000000E+00
                       5.00000000E-01  0.00000000E+00  0.00000000E+00
                       8.33333333E-02  8.33333333E-02  0.00000000E+00
                       1.66666667E-01  8.33333333E-02  0.00000000E+00
                       2.50000000E-01  8.33333333E-02  0.00000000E+00
                       3.33333333E-01  8.33333333E-02  0.00000000E+00
                       4.16666667E-01  8.33333333E-02  0.00000000E+00
                       5.00000000E-01  8.33333333E-02  0.00000000E+00
                      -4.16666667E-01  8.33333333E-02  0.00000000E+00
                      -3.33333333E-01  8.33333333E-02  0.00000000E+00
                      -2.50000000E-01  8.33333333E-02  0.00000000E+00
                      -1.66666667E-01  8.33333333E-02  0.00000000E+00
                      -8.33333333E-02  8.33333333E-02  0.00000000E+00
                       1.66666667E-01  1.66666667E-01  0.00000000E+00
                       2.50000000E-01  1.66666667E-01  0.00000000E+00
                       3.33333333E-01  1.66666667E-01  0.00000000E+00
                       4.16666667E-01  1.66666667E-01  0.00000000E+00
                       5.00000000E-01  1.66666667E-01  0.00000000E+00
                      -4.16666667E-01  1.66666667E-01  0.00000000E+00
                      -3.33333333E-01  1.66666667E-01  0.00000000E+00
                      -2.50000000E-01  1.66666667E-01  0.00000000E+00
                      -1.66666667E-01  1.66666667E-01  0.00000000E+00
                       2.50000000E-01  2.50000000E-01  0.00000000E+00
                       3.33333333E-01  2.50000000E-01  0.00000000E+00
                       4.16666667E-01  2.50000000E-01  0.00000000E+00
                       5.00000000E-01  2.50000000E-01  0.00000000E+00
                      -4.16666667E-01  2.50000000E-01  0.00000000E+00
                      -3.33333333E-01  2.50000000E-01  0.00000000E+00
                      -2.50000000E-01  2.50000000E-01  0.00000000E+00
                       3.33333333E-01  3.33333333E-01  0.00000000E+00
                       4.16666667E-01  3.33333333E-01  0.00000000E+00
                       5.00000000E-01  3.33333333E-01  0.00000000E+00
                      -4.16666667E-01  3.33333333E-01  0.00000000E+00
                      -3.33333333E-01  3.33333333E-01  0.00000000E+00
                       4.16666667E-01  4.16666667E-01  0.00000000E+00
                       5.00000000E-01  4.16666667E-01  0.00000000E+00
                      -4.16666667E-01  4.16666667E-01  0.00000000E+00
                       5.00000000E-01  5.00000000E-01  0.00000000E+00
                       2.50000000E-01  1.66666667E-01  8.33333333E-02
                       3.33333333E-01  1.66666667E-01  8.33333333E-02
                       4.16666667E-01  1.66666667E-01  8.33333333E-02
                       5.00000000E-01  1.66666667E-01  8.33333333E-02
                      -4.16666667E-01  1.66666667E-01  8.33333333E-02
                       3.33333333E-01  2.50000000E-01  8.33333333E-02
                       4.16666667E-01  2.50000000E-01  8.33333333E-02
                       outvar_i_n : Printing only first  50 k-points.
         kptrlatt       12    0    0      0   12    0      0    0   12
          kptrlen1     1.71267440E+02
          kptrlen2     1.69537466E+02
          kptrlen3     1.67807492E+02
          kptrlen4     1.66077517E+02
          kptrlen5     1.64347543E+02
          kptrlen6     1.62617569E+02
          kptrlen7     1.60887595E+02
          kptrlen8     1.59157621E+02
          kptrlen9     1.57427647E+02
          kptrlen10    1.55697673E+02
P           mkmem          18
            natom           9
            nband          42
           ndtset          10
            ngfft1         54      54      54
            ngfft2         54      54      54
            ngfft3         54      54      54
            ngfft4         50      50      50
            ngfft5         50      50      50
            ngfft6         50      50      50
            ngfft7         50      50      50
            ngfft8         48      48      48
            ngfft9         48      48      48
            ngfft10        48      48      48
          ngfftdg1         90      90      90
          ngfftdg2         90      90      90
          ngfftdg3         80      80      80
          ngfftdg4         80      80      80
          ngfftdg5         80      80      80
          ngfftdg6         80      80      80
          ngfftdg7         80      80      80
          ngfftdg8         80      80      80
          ngfftdg9         80      80      80
          ngfftdg10        75      75      75
             nkpt          72
            nstep        2500
             nsym          48
           ntypat           3
              occ      2.000000  2.000000  2.000000  2.000000  2.000000  2.000000
                       2.000000  2.000000  2.000000  2.000000  2.000000  2.000000
                       2.000000  2.000000  2.000000  2.000000  2.000000  2.000000
                       2.000000  2.000000  2.000000  2.000000  2.000000  2.000000
                       2.000000  2.000000  2.000000  2.000000  2.000000  2.000000
                       2.000000  2.000000  2.000000  2.000000  2.000000  2.000000
                       0.000000  0.000000  0.000000  0.000000  0.000000  0.000000
        pawecutdg      4.00000000E+01 Hartree
            prtwf           0
            rprim      0.0000000000E+00  7.0710678119E-01  7.0710678119E-01
                       7.0710678119E-01  0.0000000000E+00  7.0710678119E-01
                       7.0710678119E-01  7.0710678119E-01  0.0000000000E+00
          spgroup         225
           symrel      1  0  0   0  1  0   0  0  1      -1  0  0   0 -1  0   0  0 -1
                       0 -1  1   0 -1  0   1 -1  0       0  1 -1   0  1  0  -1  1  0
                      -1  0  0  -1  0  1  -1  1  0       1  0  0   1  0 -1   1 -1  0
                       0  1 -1   1  0 -1   0  0 -1       0 -1  1  -1  0  1   0  0  1
                      -1  0  0  -1  1  0  -1  0  1       1  0  0   1 -1  0   1  0 -1
                       0 -1  1   1 -1  0   0 -1  0       0  1 -1  -1  1  0   0  1  0
                       1  0  0   0  0  1   0  1  0      -1  0  0   0  0 -1   0 -1  0
[...]
                      -1.1123954183E-18  4.2915941618E-18  7.2673808619E-19
           xangst7     2.5084038083E+00  2.5084038083E+00  2.5084038083E+00
                       7.5252114250E+00  7.5252114250E+00  7.5252114250E+00
                       5.0168076166E+00  5.0168076166E+00  2.4647293752E+00
                       5.0168076166E+00  5.0168076166E+00  7.5688858581E+00
                       7.5688858581E+00  5.0168076166E+00  5.0168076166E+00
                       5.0168076166E+00  7.5688858581E+00  5.0168076166E+00
                       5.0168076166E+00  2.4647293752E+00  5.0168076166E+00
                       2.4647293752E+00  5.0168076166E+00  5.0168076166E+00
                      -1.2582255460E-18  4.3580665286E-18  7.4329460830E-19
           xangst8     2.4814317243E+00  2.4814317243E+00  2.4814317243E+00
                       7.4442951729E+00  7.4442951729E+00  7.4442951729E+00
                       4.9628634486E+00  4.9628634486E+00  2.4594063201E+00
                       4.9628634486E+00  4.9628634486E+00  7.4663205771E+00
                       7.4663205771E+00  4.9628634486E+00  4.9628634486E+00
                       4.9628634486E+00  7.4663205771E+00  4.9628634486E+00
                       4.9628634486E+00  2.4594063201E+00  4.9628634486E+00
                       2.4594063201E+00  4.9628634486E+00  4.9628634486E+00
                      -9.5036843759E-19  2.6527567381E-18  2.8696081056E-18
           xangst9     2.4544596405E+00  2.4544596405E+00  2.4544596405E+00
                       7.3633789214E+00  7.3633789214E+00  7.3633789214E+00
                       4.9089192810E+00  4.9089192810E+00  2.4532661911E+00
                       4.9089192810E+00  4.9089192810E+00  7.3645723708E+00
                       7.3645723708E+00  4.9089192810E+00  4.9089192810E+00
                       4.9089192810E+00  7.3645723708E+00  4.9089192810E+00
                       4.9089192810E+00  2.4532661911E+00  4.9089192810E+00
                       2.4532661911E+00  4.9089192810E+00  4.9089192810E+00
                      -8.9276913436E-19  2.0624149350E-18  2.9449875692E-18
           xangst10    2.4274875565E+00  2.4274875565E+00  2.4274875565E+00
                       7.2824626694E+00  7.2824626694E+00  7.2824626694E+00
                       4.8549751129E+00  4.8549751129E+00  2.4461623098E+00
                       4.8549751129E+00  4.8549751129E+00  7.2637879161E+00
                       7.2637879161E+00  4.8549751129E+00  4.8549751129E+00
                       4.8549751129E+00  7.2637879161E+00  4.8549751129E+00
                       4.8549751129E+00  2.4461623098E+00  4.8549751129E+00
                       2.4461623098E+00  4.8549751129E+00  4.8549751129E+00
                      -9.4003756539E-19  2.6224836625E-18  2.7990751180E-18
            xcart1     5.0460153398E+00  5.0460153398E+00  5.0460153398E+00
                       1.5138046019E+01  1.5138046019E+01  1.5138046019E+01
                       1.0092030680E+01  1.0092030680E+01  4.6951877425E+00
                       1.0092030680E+01  1.0092030680E+01  1.5488873617E+01
                       1.5488873617E+01  1.0092030680E+01  1.0092030680E+01
                       1.0092030680E+01  1.5488873617E+01  1.0092030680E+01
                       1.0092030680E+01  4.6951877425E+00  1.0092030680E+01
                       4.6951877425E+00  1.0092030680E+01  1.0092030680E+01
                       5.9234585286E-19  4.3129344680E-18  6.0083568884E-18
            xcart2     4.9950454882E+00  4.9950454882E+00  4.9950454882E+00
                       1.4985136464E+01  1.4985136464E+01  1.4985136464E+01
                       9.9900909763E+00  9.9900909763E+00  4.6910450371E+00
                       9.9900909763E+00  9.9900909763E+00  1.5289136916E+01
                       1.5289136916E+01  9.9900909763E+00  9.9900909763E+00
                       9.9900909763E+00  1.5289136916E+01  9.9900909763E+00
                       9.9900909763E+00  4.6910450371E+00  9.9900909763E+00
                       4.6910450371E+00  9.9900909763E+00  9.9900909763E+00
                      -2.0413204178E-18  5.3973454007E-18  5.7768389811E-18
            xcart3     4.9440756361E+00  4.9440756361E+00  4.9440756361E+00
                       1.4832226908E+01  1.4832226908E+01  1.4832226908E+01
                       9.8881512723E+00  9.8881512723E+00  4.6864050433E+00
                       9.8881512723E+00  9.8881512723E+00  1.5089897501E+01
                       1.5089897501E+01  9.8881512723E+00  9.8881512723E+00
                       9.8881512723E+00  1.5089897501E+01  9.8881512723E+00
                       9.8881512723E+00  4.6864050433E+00  9.8881512723E+00
                       4.6864050433E+00  9.8881512723E+00  9.8881512723E+00
                      -1.9113326985E-18  5.2965876463E-18  5.7169728411E-18
            xcart4     4.8931057841E+00  4.8931057841E+00  4.8931057841E+00
                       1.4679317352E+01  1.4679317352E+01  1.4679317352E+01
                       9.7862115682E+00  9.7862115682E+00  4.6805885247E+00
                       9.7862115682E+00  9.7862115682E+00  1.4891834612E+01
                       1.4891834612E+01  9.7862115682E+00  9.7862115682E+00
                       9.7862115682E+00  1.4891834612E+01  9.7862115682E+00
                       9.7862115682E+00  4.6805885247E+00  9.7862115682E+00
                       4.6805885247E+00  9.7862115682E+00  9.7862115682E+00
                      -3.4066700171E-18  6.4486126805E-18  4.7924092765E-18
            xcart5     4.8421359321E+00  4.8421359321E+00  4.8421359321E+00
                       1.4526407796E+01  1.4526407796E+01  1.4526407796E+01
                       9.6842718642E+00  9.6842718642E+00  4.6738000094E+00
                       9.6842718642E+00  9.6842718642E+00  1.4694743719E+01
                       1.4694743719E+01  9.6842718642E+00  9.6842718642E+00
                       9.6842718642E+00  1.4694743719E+01  9.6842718642E+00
                       9.6842718642E+00  4.6738000094E+00  9.6842718642E+00
                       4.6738000094E+00  9.6842718642E+00  9.6842718642E+00
                      -1.5510919129E-18  6.5554930877E-18  2.6530655819E-18
            xcart6     4.7911660804E+00  4.7911660804E+00  4.7911660804E+00
                       1.4373498241E+01  1.4373498241E+01  1.4373498241E+01
                       9.5823321609E+00  9.5823321609E+00  4.6662904888E+00
                       9.5823321609E+00  9.5823321609E+00  1.4498373833E+01
                       1.4498373833E+01  9.5823321609E+00  9.5823321609E+00
                       9.5823321609E+00  1.4498373833E+01  9.5823321609E+00
                       9.5823321609E+00  4.6662904888E+00  9.5823321609E+00
                       4.6662904888E+00  9.5823321609E+00  9.5823321609E+00
                      -2.1021226921E-18  8.1099376392E-18  1.3733359532E-18
            xcart7     4.7401962284E+00  4.7401962284E+00  4.7401962284E+00
                       1.4220588685E+01  1.4220588685E+01  1.4220588685E+01
                       9.4803924568E+00  9.4803924568E+00  4.6576635107E+00
                       9.4803924568E+00  9.4803924568E+00  1.4303121403E+01
                       1.4303121403E+01  9.4803924568E+00  9.4803924568E+00
                       9.4803924568E+00  1.4303121403E+01  9.4803924568E+00
                       9.4803924568E+00  4.6576635107E+00  9.4803924568E+00
                       4.6576635107E+00  9.4803924568E+00  9.4803924568E+00
                      -2.3777016954E-18  8.2355522080E-18  1.4046232457E-18
            xcart8     4.6892263764E+00  4.6892263764E+00  4.6892263764E+00
                       1.4067679129E+01  1.4067679129E+01  1.4067679129E+01
                       9.3784527528E+00  9.3784527528E+00  4.6476043946E+00
                       9.3784527528E+00  9.3784527528E+00  1.4109301111E+01
                       1.4109301111E+01  9.3784527528E+00  9.3784527528E+00
                       9.3784527528E+00  1.4109301111E+01  9.3784527528E+00
                       9.3784527528E+00  4.6476043946E+00  9.3784527528E+00
                       4.6476043946E+00  9.3784527528E+00  9.3784527528E+00
                      -1.7959360724E-18  5.0129837321E-18  5.4227734283E-18
            xcart9     4.6382565247E+00  4.6382565247E+00  4.6382565247E+00
                       1.3914769574E+01  1.3914769574E+01  1.3914769574E+01
                       9.2765130495E+00  9.2765130495E+00  4.6360012322E+00
                       9.2765130495E+00  9.2765130495E+00  1.3917024867E+01
                       1.3917024867E+01  9.2765130495E+00  9.2765130495E+00
                       9.2765130495E+00  1.3917024867E+01  9.2765130495E+00
                       9.2765130495E+00  4.6360012322E+00  9.2765130495E+00
                       4.6360012322E+00  9.2765130495E+00  9.2765130495E+00
                      -1.6870891638E-18  3.8973993995E-18  5.5652199705E-18
            xcart10    4.5872866727E+00  4.5872866727E+00  4.5872866727E+00
                       1.3761860018E+01  1.3761860018E+01  1.3761860018E+01
                       9.1745733454E+00  9.1745733454E+00  4.6225768421E+00
                       9.1745733454E+00  9.1745733454E+00  1.3726569849E+01
                       1.3726569849E+01  9.1745733454E+00  9.1745733454E+00
                       9.1745733454E+00  1.3726569849E+01  9.1745733454E+00
                       9.1745733454E+00  4.6225768421E+00  9.1745733454E+00
                       4.6225768421E+00  9.1745733454E+00  9.1745733454E+00
                      -1.7764135532E-18  4.9557759101E-18  5.2894853983E-18
             xred1     2.5000000000E-01  2.5000000000E-01  2.5000000000E-01
                       7.5000000000E-01  7.5000000000E-01  7.5000000000E-01
                       2.3261858250E-01  2.3261858250E-01  7.6738141750E-01
                       7.6738141750E-01  7.6738141750E-01  2.3261858250E-01
                       2.3261858250E-01  7.6738141750E-01  7.6738141750E-01
                       7.6738141750E-01  2.3261858250E-01  7.6738141750E-01
                       2.3261858250E-01  7.6738141750E-01  2.3261858250E-01
                       7.6738141750E-01  2.3261858250E-01  2.3261858250E-01
                       4.8201129249E-19  1.1334528926E-19 -5.4650872679E-20
             xred2     2.5000000000E-01  2.5000000000E-01  2.5000000000E-01
                       7.5000000000E-01  7.5000000000E-01  7.5000000000E-01
                       2.3478490077E-01  2.3478490077E-01  7.6521509923E-01
                       7.6521509923E-01  7.6521509923E-01  2.3478490077E-01
                       2.3478490077E-01  7.6521509923E-01  7.6521509923E-01
                       7.6521509923E-01  2.3478490077E-01  7.6521509923E-01
                       2.3478490077E-01  7.6521509923E-01  2.3478490077E-01
                       7.6521509923E-01  2.3478490077E-01  2.3478490077E-01
                       6.6143065318E-19 -8.3173758942E-20 -1.2116075839E-19
             xred3     2.5000000000E-01  2.5000000000E-01  2.5000000000E-01
                       7.5000000000E-01  7.5000000000E-01  7.5000000000E-01
                       2.3697073974E-01  2.3697073974E-01  7.6302926026E-01
                       7.6302926026E-01  7.6302926026E-01  2.3697073974E-01
                       2.3697073974E-01  7.6302926026E-01  7.6302926026E-01
                       7.6302926026E-01  2.3697073974E-01  7.6302926026E-01
                       2.3697073974E-01  7.6302926026E-01  2.3697073974E-01
                       7.6302926026E-01  2.3697073974E-01  2.3697073974E-01
                       6.5355458417E-19 -7.5390609560E-20 -1.1790464310E-19
             xred4     2.5000000000E-01  2.5000000000E-01  2.5000000000E-01
                       7.5000000000E-01  7.5000000000E-01  7.5000000000E-01
                       2.3914200567E-01  2.3914200567E-01  7.6085799433E-01
                       7.6085799433E-01  7.6085799433E-01  2.3914200567E-01
                       2.3914200567E-01  7.6085799433E-01  7.6085799433E-01
                       7.6085799433E-01  2.3914200567E-01  7.6085799433E-01
                       2.3914200567E-01  7.6085799433E-01  2.3914200567E-01
                       7.6085799433E-01  2.3914200567E-01  2.3914200567E-01
                       7.4838418687E-19 -2.5867381804E-19 -8.9435355088E-20
             xred5     2.5000000000E-01  2.5000000000E-01  2.5000000000E-01
                       7.5000000000E-01  7.5000000000E-01  7.5000000000E-01
                       2.4130879817E-01  2.4130879817E-01  7.5869120183E-01
                       7.5869120183E-01  7.5869120183E-01  2.4130879817E-01
                       2.4130879817E-01  7.5869120183E-01  7.5869120183E-01
                       7.5869120183E-01  2.4130879817E-01  7.5869120183E-01
                       2.4130879817E-01  7.5869120183E-01  2.4130879817E-01
                       7.5869120183E-01  2.4130879817E-01  2.4130879817E-01
                       5.5552191912E-19 -2.8156579530E-19  1.2139971006E-19
             xred6     2.5000000000E-01  2.5000000000E-01  2.5000000000E-01
                       7.5000000000E-01  7.5000000000E-01  7.5000000000E-01
                       2.4348407102E-01  2.4348407102E-01  7.5651592898E-01
                       7.5651592898E-01  7.5651592898E-01  2.4348407102E-01
                       2.4348407102E-01  7.5651592898E-01  7.5651592898E-01
                       7.5651592898E-01  2.4348407102E-01  7.5651592898E-01
                       2.4348407102E-01  7.5651592898E-01  2.4348407102E-01
                       7.5651592898E-01  2.4348407102E-01  2.4348407102E-01
                       6.0451861249E-19 -4.6119901866E-19  2.4182416744E-19
             xred7     2.5000000000E-01  2.5000000000E-01  2.5000000000E-01
                       7.5000000000E-01  7.5000000000E-01  7.5000000000E-01
                       2.4564718876E-01  2.4564718876E-01  7.5435281124E-01
                       7.5435281124E-01  7.5435281124E-01  2.4564718876E-01
                       2.4564718876E-01  7.5435281124E-01  7.5435281124E-01
                       7.5435281124E-01  2.4564718876E-01  7.5435281124E-01
                       2.4564718876E-01  7.5435281124E-01  2.4564718876E-01
                       7.5435281124E-01  2.4564718876E-01  2.4564718876E-01
                       6.3382804055E-19 -4.8566716513E-19  2.3486513281E-19
             xred8     2.5000000000E-01  2.5000000000E-01  2.5000000000E-01
                       7.5000000000E-01  7.5000000000E-01  7.5000000000E-01
                       2.4778097822E-01  2.4778097822E-01  7.5221902178E-01
                       7.5221902178E-01  7.5221902178E-01  2.4778097822E-01
                       2.4778097822E-01  7.5221902178E-01  7.5221902178E-01
                       7.5221902178E-01  2.4778097822E-01  7.5221902178E-01
                       2.4778097822E-01  7.5221902178E-01  2.4778097822E-01
                       7.5221902178E-01  2.4778097822E-01  2.4778097822E-01
                       6.5211680195E-19 -7.3900589615E-20 -1.1759539802E-19
             xred9     2.5000000000E-01  2.5000000000E-01  2.5000000000E-01
                       7.5000000000E-01  7.5000000000E-01  7.5000000000E-01
                       2.4987844072E-01  2.4987844072E-01  7.5012155928E-01
                       7.5012155928E-01  7.5012155928E-01  2.4987844072E-01
                       2.4987844072E-01  7.5012155928E-01  7.5012155928E-01
                       7.5012155928E-01  2.4987844072E-01  7.5012155928E-01
                       2.4987844072E-01  7.5012155928E-01  2.4987844072E-01
                       7.5012155928E-01  2.4987844072E-01  2.4987844072E-01
                       6.0096441812E-19 -1.0385687366E-21 -1.8082816878E-19
             xred10    2.5000000000E-01  2.5000000000E-01  2.5000000000E-01
                       7.5000000000E-01  7.5000000000E-01  7.5000000000E-01
                       2.5192325943E-01  2.5192325943E-01  7.4807674057E-01
                       7.4807674057E-01  7.4807674057E-01  2.5192325943E-01
                       2.5192325943E-01  7.4807674057E-01  7.4807674057E-01
                       7.4807674057E-01  2.5192325943E-01  7.4807674057E-01
                       2.5192325943E-01  7.4807674057E-01  2.5192325943E-01
                       7.4807674057E-01  2.5192325943E-01  2.5192325943E-01
                       6.5516261133E-19 -7.8625131144E-20 -1.1499842892E-19
            znucl       55.00000   17.00000   40.00000

- Timing analysis has been suppressed with timopt=0

 Suggested references for the acknowledgment of ABINIT usage.

 Calculation completed.
.Delivered   0 WARNINGs and   4 COMMENTs to log file.