.Version 9.2.2 of ABINIT

 ABINIT is a project of the Universite Catholique de Louvain,
 Corning Inc. and other collaborators, see ~abinit/doc/developers/contributors.txt .
 acknowledgments of the ABINIT effort.

.Starting date : Sun  4 Dec 2022.
- ( at 21h25 )

- The starting date is more than 2 years after the initial release
- of this version of ABINIT, namely Nov 2020.
- Note that the use beyond 3 years after the release will not be supported.
- Action: please, switch to a more recent version of ABINIT.

- input  file    -> Cs2TiI6.in
- output file    -> Cs2TiI6.out
- root for input  files -> Cs2TiI6i
- root for output files -> Cs2TiI6o

- inpspheads : Reading pseudopotential header in XML form from
-   ../../../Psps_for_tests/ATOMICDATA/Cs.GGA_PBE-JTH.xml
- inpspheads : Reading pseudopotential header in XML form from
-   ../../../Psps_for_tests/ATOMICDATA/I.GGA_PBE-JTH.xml
- inpspheads : Reading pseudopotential header in XML form from
-   ../../../Psps_for_tests/ATOMICDATA/Zr.GGA_PBE-JTH.xml
- inpspheads : Reading pseudopotential header in XML form from
-   ../../../Psps_for_tests/ATOMICDATA/Cl.GGA_PBE-JTH.xml

 DATASET    1 : space group I4 m m (#107); Bravais tI (body-center tetrag.)
     intxc =       0    ionmov =       2      iscf =      17    lmnmax =      18
     lnmax =       6     mgfft =      72  mpssoang =       3    mqgrid =    4259
     natom =       9  nloc_mem =       2    nspden =       1   nspinor =       1
    nsppol =       1      nsym =       8    n1xccc =       1    ntypat =       4
    occopt =       1   xclevel =       2
-    mband =          42        mffmem =           1         mkmem =           5
       mpw =       13334          nfft =      373248          nkpt =          20
Pmy_natom=         3
 PAW method is used; the additional fine FFT grid is defined by:
   mgfftf=       108    nfftf =   1259712
  Rough estimation (10% accuracy) of disk space for files :

 DATASET    2 : space group I4 m m (#107); Bravais tI (body-center tetrag.)
     intxc =       0    ionmov =       2      iscf =      17    lmnmax =      18
     lnmax =       6     mgfft =      72  mpssoang =       3    mqgrid =    4259
     natom =       9  nloc_mem =       2    nspden =       1   nspinor =       1
    nsppol =       1      nsym =       8    n1xccc =       1    ntypat =       4
    occopt =       1   xclevel =       2
-    mband =          42        mffmem =           1         mkmem =           5
       mpw =       13334          nfft =      373248          nkpt =          20
Pmy_natom=         3
 PAW method is used; the additional fine FFT grid is defined by:
   mgfftf=       108    nfftf =   1259712
  Rough estimation (10% accuracy) of disk space for files :

------------- Echo of variables that govern the present computation ------------
-
- outvars: echo of selected default values
-   iomode0 =  0 , fftalg0 =112 , wfoptalg0 = 10
-
- outvars: echo of global parameters not present in the input file
-  max_nthreads =    0
-
 -outvars: echo values of preprocessed input variables --------
            acell1     1.5886054674E+01  1.5886054674E+01  1.6017060638E+01 Bohr
            acell2     1.5886054642E+01  1.5886054642E+01  1.6017060649E+01 Bohr
              amu      1.32905430E+02  1.26904470E+02  9.12240000E+01
                       3.54527000E+01
           diemac      1.20000000E+01
          dilatmx      1.15000000E+00
             ecut      1.60000000E+01 Hartree
           ecutsm      5.00000000E-01 Hartree
-          fftalg         112
           ionmov           2
              ixc     -101130
           jdtset        1    2
              kpt     -1.25000000E-01 -2.50000000E-01  0.00000000E+00
                      -1.25000000E-01  5.00000000E-01  0.00000000E+00
                      -2.50000000E-01 -3.75000000E-01  0.00000000E+00
                      -1.25000000E-01 -3.75000000E-01  1.25000000E-01
                      -1.25000000E-01  2.50000000E-01  0.00000000E+00
                      -2.50000000E-01  3.75000000E-01  0.00000000E+00
                      -1.25000000E-01  3.75000000E-01  1.25000000E-01
                      -3.75000000E-01  5.00000000E-01  0.00000000E+00
                      -2.50000000E-01  5.00000000E-01  1.25000000E-01
                      -1.25000000E-01  5.00000000E-01  2.50000000E-01
                      -1.25000000E-01  0.00000000E+00  0.00000000E+00
                      -1.25000000E-01  1.25000000E-01  1.25000000E-01
                      -1.25000000E-01  2.50000000E-01  2.50000000E-01
                      -1.25000000E-01  3.75000000E-01  3.75000000E-01
                      -3.75000000E-01  0.00000000E+00  0.00000000E+00
                      -2.50000000E-01  0.00000000E+00  1.25000000E-01
                      -3.75000000E-01  1.25000000E-01  1.25000000E-01
                      -2.50000000E-01  1.25000000E-01  2.50000000E-01
                      -3.75000000E-01  2.50000000E-01  2.50000000E-01
                      -2.50000000E-01  2.50000000E-01  3.75000000E-01
         kptrlatt        4   -4    4     -4    4    4     -4   -4    4
          kptrlen1     8.91178518E+01
          kptrlen2     8.91178514E+01
P           mkmem           5
            natom           9
            nband          42
           ndtset           2
            ngfft          72      72      72
          ngfftdg         108     108     108
             nkpt          20
            nstep        2500
             nsym           8
            ntime        1000
           ntypat           4
              occ      2.000000  2.000000  2.000000  2.000000  2.000000  2.000000
                       2.000000  2.000000  2.000000  2.000000  2.000000  2.000000
                       2.000000  2.000000  2.000000  2.000000  2.000000  2.000000
                       2.000000  2.000000  2.000000  2.000000  2.000000  2.000000
                       2.000000  2.000000  2.000000  2.000000  2.000000  2.000000
                       2.000000  2.000000  2.000000  2.000000  2.000000  2.000000
                       0.000000  0.000000  0.000000  0.000000  0.000000  0.000000
          optcell           2
        optforces           1
        pawecutdg      4.00000000E+01 Hartree
            prtwf           0
            rprim1     0.0000000000E+00  7.1293800910E-01  7.0122706392E-01
                       7.1293800910E-01  0.0000000000E+00  7.0122706392E-01
                       7.0710678119E-01  7.0710678119E-01  0.0000000000E+00
            rprim2     0.0000000000E+00  7.1293801104E-01  7.0122706195E-01
                       7.1293801104E-01  0.0000000000E+00  7.0122706195E-01
                       7.0710678119E-01  7.0710678119E-01  0.0000000000E+00
           shiftk      5.00000000E-01  5.00000000E-01  5.00000000E-01
          spgroup         107
           symrel      1  0  0   0  1  0   0  0  1       1  0 -1   0  1 -1   0  0 -1
                       0  1 -1   1  0 -1   0  0 -1       0  1  0   1  0  0   0  0  1
                       1  0  0   1  0 -1   1 -1  0       0  1  0   0  1 -1  -1  1  0
                       0  1 -1   0  1  0  -1  1  0       1  0 -1   1  0  0   1 -1  0
           toldff      1.00000000E-08
           tolmxf      1.00000000E-05
            typat1     1  1  4  2  2  2  2  2  3
            typat2     1  1  2  4  2  2  2  2  3
           useylm           1
              wtk        0.03125    0.03125    0.03125    0.06250    0.03125    0.03125
                         0.06250    0.03125    0.06250    0.06250    0.03125    0.06250
                         0.06250    0.06250    0.03125    0.06250    0.06250    0.06250
                         0.06250    0.06250
           xangst1     2.9966702568E+00  2.9966702568E+00  2.9638778924E+00
                       8.9900107704E+00  8.9900107704E+00  8.8587698995E+00
                       5.9933405136E+00  5.9933405136E+00  2.6731362947E+00
                       5.9933405136E+00  5.9933405136E+00  8.9575776446E+00
                       9.0966902820E+00  5.9933405136E+00  5.9119275351E+00
                       5.9933405136E+00  9.0966902820E+00  5.9119275351E+00
                       5.9933405136E+00  2.8899907452E+00  5.9119275351E+00
                       2.8899907452E+00  5.9933405136E+00  5.9119275351E+00
                      -3.2816307763E-13 -3.2816307763E-13  5.8064184762E-02
           xangst2     2.9966702589E+00  2.9966702589E+00  2.9310140745E+00
                       8.9900107766E+00  8.9900107766E+00  8.8259060531E+00
                       5.9933405177E+00  5.9933405177E+00  2.8322063676E+00
                       5.9933405178E+00  5.9933405178E+00  9.1166476721E+00
                       9.0966902909E+00  5.9933405177E+00  5.8778564614E+00
                       5.9933405177E+00  9.0966902909E+00  5.8778564614E+00
                       5.9933405178E+00  2.8899907446E+00  5.8778564614E+00
                       2.8899907446E+00  5.9933405178E+00  5.8778564614E+00
                      -2.6278842704E-13 -2.6278842704E-13 -5.8064183662E-02
            xcart1     5.6628860959E+00  5.6628860959E+00  5.6009175079E+00
                       1.6988658288E+01  1.6988658288E+01  1.6740648984E+01
                       1.1325772192E+01  1.1325772192E+01  5.0514955129E+00
                       1.1325772192E+01  1.1325772192E+01  1.6927368562E+01
                       1.7190253349E+01  1.1325772192E+01  1.1171923959E+01
                       1.1325772192E+01  1.7190253349E+01  1.1171923959E+01
                       1.1325772192E+01  5.4612910349E+00  1.1171923959E+01
                       5.4612910349E+00  1.1325772192E+01  1.1171923959E+01
                      -6.2013834365E-13 -6.2013834365E-13  1.0972540733E-01
            xcart2     5.6628860998E+00  5.6628860998E+00  5.5388138924E+00
                       1.6988658300E+01  1.6988658300E+01  1.6678545315E+01
                       1.1325772200E+01  1.1325772200E+01  5.3520943865E+00
                       1.1325772200E+01  1.1325772200E+01  1.7227967350E+01
                       1.7190253366E+01  1.1325772200E+01  1.1107538960E+01
                       1.1325772200E+01  1.7190253366E+01  1.1107538960E+01
                       1.1325772200E+01  5.4612910339E+00  1.1107538960E+01
                       5.4612910339E+00  1.1325772200E+01  1.1107538960E+01
                      -4.9659815801E-13 -4.9659815801E-13 -1.0972540525E-01
             xred1     2.5139373960E-01  2.5139373960E-01  2.4860626040E-01
                       7.5139373960E-01  7.5139373960E-01  7.4860626040E-01
                       2.2673327107E-01  2.2673327107E-01  7.7326672893E-01
                       7.5977453309E-01  7.5977453309E-01  2.4022546691E-01
                       2.4254510243E-01  7.6034477715E-01  7.5745489757E-01
                       7.6034477715E-01  2.4254510243E-01  7.5745489757E-01
                       2.4254510243E-01  7.6034477715E-01  2.3965522285E-01
                       7.6034477715E-01  2.4254510243E-01  2.3965522285E-01
                       4.9249574625E-03  4.9249574625E-03 -4.9249574625E-03
             xred2     2.4860625819E-01  2.4860625819E-01  2.5139374181E-01
[...]
    1      -0.000250074912     -0.000250074912      0.000000000000
    2      -0.000250074912     -0.000250074912      0.000000000000
    3      -0.000092401109     -0.000092401109      0.000000000000
    4      -0.000218975281     -0.000218975281      0.000000000000
    5      -0.000165564510     -0.000133669082      0.000031895428
    6      -0.000133669082     -0.000165564510      0.000031895428
    7      -0.000197459938     -0.000165564510     -0.000031895428
    8      -0.000165564510     -0.000197459938     -0.000031895428
    9      -0.000153844484     -0.000153844484      0.000000000000

 cartesian coordinates (angstrom) at end:
    1      2.99846248045824     2.99846248045824     2.89048350225842
    2      8.99538744137506     8.99538744137505     8.74472232685105
    3      5.99692496090299     5.99692496090299     2.81196842244993
    4      5.99692496093196     5.99692496093196     9.18814307370068
    5      9.10031122445384     5.99692496090290     5.82060026551935
    6      5.99692496090290     9.10031122445384     5.82060026551935
    7      5.99692496093042     2.89353869737948     5.82060026551935
    8      2.89353869737948     5.99692496093043     5.82060026551935
    9     -0.00000000000038    -0.00000000000038    -0.08380779063314

 cartesian forces (hartree/bohr) at end:
    1     -0.00000000000000     0.00000000000000     0.00000625760185
    2      0.00000000000000    -0.00000000000000     0.00000625760185
    3     -0.00000000000000     0.00000000000000    -0.00000799487147
    4      0.00000000000000    -0.00000000000000     0.00000344643948
    5     -0.00000281449805    -0.00000000000000    -0.00000138147469
    6     -0.00000000000000    -0.00000281449805    -0.00000138147469
    7      0.00000000000000     0.00000281449805    -0.00000138147469
    8      0.00000281449805     0.00000000000000    -0.00000138147469
    9      0.00000000000000    -0.00000000000000    -0.00000244087297
 frms,max,avg= 2.7174908E-06 7.9948715E-06   0.000E+00  0.000E+00  1.635E-05 h/b

 cartesian forces (eV/Angstrom) at end:
    1     -0.00000000000000     0.00000000000000     0.00032177879794
    2      0.00000000000000    -0.00000000000000     0.00032177879794
    3     -0.00000000000000     0.00000000000000    -0.00041111278604
    4      0.00000000000000    -0.00000000000000     0.00017722302873
    5     -0.00014472729663    -0.00000000000000    -0.00007103827856
    6     -0.00000000000000    -0.00014472729663    -0.00007103827856
    7      0.00000000000000     0.00014472729663    -0.00007103827856
    8      0.00014472729663     0.00000000000000    -0.00007103827856
    9      0.00000000000000    -0.00000000000000    -0.00012551472434
 frms,max,avg= 1.3973899E-04 4.1111279E-04   0.000E+00  0.000E+00  8.406E-04 e/A
 length scales= 15.837125060499 15.837125060499 16.026639988563 bohr
              =  8.380645631606  8.380645631606  8.480932612225 angstroms
 prteigrs : about to open file Cs2TiI6o_DS2_EIG
 Fermi (or HOMO) energy (hartree) =  -0.10098   Average Vxc (hartree)=  -0.27607
 Eigenvalues (hartree) for nkpt=  20  k points:
 kpt#   1, nband= 42, wtk=  0.03125, kpt= -0.1250 -0.2500  0.0000 (reduced coord)
  -1.91709   -1.10812   -1.10687   -1.10687   -0.85614   -0.85608   -0.62100   -0.52086
  -0.50839   -0.50793   -0.50536   -0.50327   -0.37205   -0.37164   -0.37144   -0.37089
  -0.37084   -0.37044   -0.22796   -0.20310   -0.19981   -0.19947   -0.17954   -0.17656
  -0.17577   -0.16718   -0.16691   -0.14465   -0.14363   -0.12929   -0.12579   -0.11859
  -0.11587   -0.10695   -0.10671   -0.10207   -0.03086   -0.02071   -0.02035    0.05187
   0.05484    0.06594
 prteigrs : prtvol=0 or 1, do not print more k-points.

--- !EnergyTerms
iteration_state     : {dtset: 2, itime: 35, icycle: 1, }
comment             : Components of total free energy in Hartree
kinetic             :  4.62390690919630E+01
hartree             :  4.03960452639044E+01
xc                  : -5.63425785376798E+01
Ewald energy        : -1.12092239603674E+02
psp_core            :  1.37016440314408E+01
local_psp           : -1.17985203139076E+02
spherical_terms     :  2.37595582665569E+01
total_energy        : -1.62323704626564E+02
total_energy_eV     : -4.41705263617070E+03
...

--- !EnergyTermsDC
iteration_state     : {dtset: 2, itime: 35, icycle: 1, }
comment             : '"Double-counting" decomposition of free energy'
band_energy         : -3.03286815171930E+01
Ewald energy        : -1.12092239603674E+02
psp_core            :  1.37016440314408E+01
xc_dc               : -5.52897062880870E+01
spherical_terms     :  2.16852787394689E+01
total_energy_dc     : -1.62323704638044E+02
total_energy_dc_eV  : -4.41705263648308E+03
...

 rms coord change=  4.0955E-03   atom, delta coord (reduced):
     1       -0.001735265319     -0.001735265319      0.001735265319
     2       -0.001735265319     -0.001735265319      0.001735265319
     3       -0.000060306664     -0.000060306664      0.000060306664
     4        0.011476032023      0.011476032023     -0.011476032023
     5       -0.001276364383     -0.001579775404      0.001276364383
     6       -0.001579775404     -0.001276364383      0.001276364383
     7       -0.001276364383     -0.001579775404      0.001579775404
     8       -0.001579775404     -0.001276364383      0.001579775404
     9       -0.002232915146     -0.002232915146      0.002232915146

 Cartesian components of stress tensor (hartree/bohr^3)
  sigma(1 1)=  1.18042478E-08  sigma(3 2)= -2.19063918E-14
  sigma(2 2)=  1.18042478E-08  sigma(3 1)= -2.19056914E-14
  sigma(3 3)= -4.05345997E-08  sigma(2 1)=  4.27696690E-14

-Cartesian components of stress tensor (GPa)         [Pressure=  1.6599E-04 GPa]
- sigma(1 1)=  3.47292901E-04  sigma(3 2)= -6.44508189E-10
- sigma(2 2)=  3.47292901E-04  sigma(3 1)= -6.44487583E-10
- sigma(3 3)= -1.19256890E-03  sigma(2 1)=  1.25832689E-09

== END DATASET(S) ==============================================================

 -outvars: echo values of variables after computation  --------
            acell1     1.5837124838E+01  1.5837124838E+01  1.6026639824E+01 Bohr
            acell2     1.5837125060E+01  1.5837125060E+01  1.6026639989E+01 Bohr
              amu      1.32905430E+02  1.26904470E+02  9.12240000E+01
                       3.54527000E+01
           diemac      1.20000000E+01
          dilatmx      1.15000000E+00
             ecut      1.60000000E+01 Hartree
           ecutsm      5.00000000E-01 Hartree
           etotal1    -1.6232370464E+02
           etotal2    -1.6232370464E+02
            fcart1     6.4848980620E-22 -7.0755783220E-22 -6.2571505177E-06
                      -1.7432988556E-21  1.6842308296E-21 -6.2571505177E-06
                      -1.3636143262E-22  7.7293406622E-23 -3.4441815877E-06
                      -3.2159630103E-22  2.6252827504E-22  7.9946461572E-06
                      -2.8153751127E-06  1.5590636469E-17  1.3806760359E-06
                       1.5590865201E-17 -2.8153751127E-06  1.3806760359E-06
                      -1.5590050633E-17  2.8153751127E-06  1.3806760360E-06
                       2.8153751127E-06 -1.5590423167E-17  1.3806760360E-06
                       5.5337531279E-22 -6.1244333879E-22  2.4411323220E-06
            fcart2    -1.0883062379E-22  5.9756333559E-23  6.2576018535E-06
                       1.5852352707E-21 -1.6343095609E-21  6.2576018535E-06
                      -3.6004186668E-22  3.1096757645E-22 -7.9948714720E-06
                       1.1640084851E-22 -1.6547513874E-22  3.4464394801E-06
                      -2.8144980509E-06 -1.2482992845E-17 -1.3814746851E-06
                      -1.2483388654E-17 -2.8144980509E-06 -1.3814746851E-06
                       1.2482732012E-17  2.8144980509E-06 -1.3814746852E-06
                       2.8144980509E-06  1.2483763096E-17 -1.3814746852E-06
                       8.5467547993E-23 -1.3454183822E-22 -2.4408729746E-06
-          fftalg         112
           ionmov           2
              ixc     -101130
           jdtset        1    2
              kpt     -1.25000000E-01 -2.50000000E-01  0.00000000E+00
                      -1.25000000E-01  5.00000000E-01  0.00000000E+00
                      -2.50000000E-01 -3.75000000E-01  0.00000000E+00
                      -1.25000000E-01 -3.75000000E-01  1.25000000E-01
                      -1.25000000E-01  2.50000000E-01  0.00000000E+00
                      -2.50000000E-01  3.75000000E-01  0.00000000E+00
                      -1.25000000E-01  3.75000000E-01  1.25000000E-01
                      -3.75000000E-01  5.00000000E-01  0.00000000E+00
                      -2.50000000E-01  5.00000000E-01  1.25000000E-01
                      -1.25000000E-01  5.00000000E-01  2.50000000E-01
                      -1.25000000E-01  0.00000000E+00  0.00000000E+00
                      -1.25000000E-01  1.25000000E-01  1.25000000E-01
                      -1.25000000E-01  2.50000000E-01  2.50000000E-01
                      -1.25000000E-01  3.75000000E-01  3.75000000E-01
                      -3.75000000E-01  0.00000000E+00  0.00000000E+00
                      -2.50000000E-01  0.00000000E+00  1.25000000E-01
                      -3.75000000E-01  1.25000000E-01  1.25000000E-01
                      -2.50000000E-01  1.25000000E-01  2.50000000E-01
                      -3.75000000E-01  2.50000000E-01  2.50000000E-01
                      -2.50000000E-01  2.50000000E-01  3.75000000E-01
         kptrlatt        4   -4    4     -4    4    4     -4   -4    4
          kptrlen1     8.91178518E+01
          kptrlen2     8.91178514E+01
P           mkmem           5
            natom           9
            nband          42
           ndtset           2
            ngfft          72      72      72
          ngfftdg         108     108     108
             nkpt          20
            nstep        2500
             nsym           8
            ntime        1000
           ntypat           4
              occ      2.000000  2.000000  2.000000  2.000000  2.000000  2.000000
                       2.000000  2.000000  2.000000  2.000000  2.000000  2.000000
                       2.000000  2.000000  2.000000  2.000000  2.000000  2.000000
                       2.000000  2.000000  2.000000  2.000000  2.000000  2.000000
                       2.000000  2.000000  2.000000  2.000000  2.000000  2.000000
                       2.000000  2.000000  2.000000  2.000000  2.000000  2.000000
                       0.000000  0.000000  0.000000  0.000000  0.000000  0.000000
          optcell           2
        optforces           1
        pawecutdg      4.00000000E+01 Hartree
            prtwf           0
            rprim1     0.0000000000E+00  7.1556837589E-01  6.9854269693E-01
                       7.1556837589E-01  0.0000000000E+00  6.9854269693E-01
                       7.0710678119E-01  7.0710678119E-01  0.0000000000E+00
            rprim2     0.0000000000E+00  7.1556837320E-01  6.9854269968E-01
                       7.1556837320E-01  0.0000000000E+00  6.9854269968E-01
                       7.0710678119E-01  7.0710678119E-01  0.0000000000E+00
           shiftk      5.00000000E-01  5.00000000E-01  5.00000000E-01
          spgroup         107
           strten1     1.1791907901E-08  1.1791907899E-08 -4.0549287127E-08
                       2.7355773825E-14  2.7354040641E-14 -5.3407048162E-14
           strten2     1.1804247755E-08  1.1804247753E-08 -4.0534599724E-08
                      -2.1906391787E-14 -2.1905691373E-14  4.2769669026E-14
           symrel      1  0  0   0  1  0   0  0  1       1  0 -1   0  1 -1   0  0 -1
                       0  1 -1   1  0 -1   0  0 -1       0  1  0   1  0  0   0  0  1
                       1  0  0   1  0 -1   1 -1  0       0  1  0   0  1 -1  -1  1  0
                       0  1 -1   0  1  0  -1  1  0       1  0 -1   1  0  0   1 -1  0
           toldff      1.00000000E-08
           tolmxf      1.00000000E-05
            typat1     1  1  4  2  2  2  2  2  3
            typat2     1  1  2  4  2  2  2  2  3
           useylm           1
              wtk        0.03125    0.03125    0.03125    0.06250    0.03125    0.03125
                         0.06250    0.03125    0.06250    0.06250    0.03125    0.06250
                         0.06250    0.06250    0.03125    0.06250    0.06250    0.06250
                         0.06250    0.06250
           xangst1     2.9984624496E+00  2.9984624496E+00  2.9637552310E+00
                       8.9953873488E+00  8.9953873488E+00  8.8179939502E+00
                       5.9969248992E+00  5.9969248992E+00  2.5203345619E+00
                       5.9969248992E+00  5.9969248992E+00  8.8965090272E+00
                       9.1003111094E+00  5.9969248992E+00  5.8878772995E+00
                       5.9969248992E+00  9.1003111094E+00  5.8878772995E+00
                       5.9969248992E+00  2.8935386890E+00  5.8878772995E+00
                       2.8935386890E+00  5.9969248992E+00  5.8878772995E+00
                      -4.7543750270E-13 -4.7559906649E-13  8.3807785144E-02
           xangst2     2.9984624805E+00  2.9984624805E+00  2.8904835023E+00
                       8.9953874414E+00  8.9953874414E+00  8.7447223269E+00
                       5.9969249609E+00  5.9969249609E+00  2.8119684224E+00
                       5.9969249609E+00  5.9969249609E+00  9.1881430737E+00
                       9.1003112245E+00  5.9969249609E+00  5.8206002655E+00
                       5.9969249609E+00  9.1003112245E+00  5.8206002655E+00
                       5.9969249609E+00  2.8935386974E+00  5.8206002655E+00
                       2.8935386974E+00  5.9969249609E+00  5.8206002655E+00
                      -3.8062685978E-13 -3.7964278937E-13 -8.3807790633E-02
            xcart1     5.6662728495E+00  5.6662728495E+00  5.6006857116E+00
                       1.6998818548E+01  1.6998818548E+01  1.6663593607E+01
                       1.1332545699E+01  1.1332545699E+01  4.7627420853E+00
                       1.1332545699E+01  1.1332545699E+01  1.6811965600E+01
                       1.7197095721E+01  1.1332545699E+01  1.1126475600E+01
                       1.1332545699E+01  1.7197095721E+01  1.1126475600E+01
                       1.1332545699E+01  5.4679956771E+00  1.1126475600E+01
                       5.4679956771E+00  1.1332545699E+01  1.1126475600E+01
                      -8.9844667340E-13 -8.9875198473E-13  1.5837376173E-01
            xcart2     5.6662729078E+00  5.6662729078E+00  5.4622222109E+00
                       1.6998818723E+01  1.6998818723E+01  1.6525130306E+01
                       1.1332545816E+01  1.1332545816E+01  5.3138502128E+00
                       1.1332545816E+01  1.1332545816E+01  1.7363074079E+01
                       1.7197095938E+01  1.1332545816E+01  1.0999340431E+01
                       1.1332545816E+01  1.7197095938E+01  1.0999340431E+01
                       1.1332545816E+01  5.4679956930E+00  1.0999340431E+01
                       5.4679956930E+00  1.1332545816E+01  1.0999340431E+01
                      -7.1928052380E-13 -7.1742090023E-13 -1.5837377210E-01
             xred1     2.5312900389E-01  2.5312900389E-01  2.4687099611E-01
                       7.5312900389E-01  7.5312900389E-01  7.4687099611E-01
                       2.1525724204E-01  2.1525724204E-01  7.8474275796E-01
                       7.5983483540E-01  7.5983483540E-01  2.4016516460E-01
                       2.4412488036E-01  7.6162114092E-01  7.5587511964E-01
                       7.6162114092E-01  2.4412488036E-01  7.5587511964E-01
                       2.4412488036E-01  7.6162114092E-01  2.3837885908E-01
                       7.6162114092E-01  2.4412488036E-01  2.3837885908E-01
                       7.1578721986E-03  7.1578721986E-03 -7.1578721986E-03
             xred2     2.4687099287E-01  2.4687099287E-01  2.5312900713E-01
                       7.4687099287E-01  7.4687099287E-01  7.5312900713E-01
                       2.4016516124E-01  2.4016516124E-01  7.5983483876E-01
                       7.8474276067E-01  7.8474276067E-01  2.1525723933E-01
                       2.3837885916E-01  7.5587512329E-01  7.6162114084E-01
                       7.5587512329E-01  2.3837885916E-01  7.6162114084E-01
                       2.3837885916E-01  7.5587512329E-01  2.4412487671E-01
                       7.5587512329E-01  2.3837885916E-01  2.4412487671E-01
                      -7.1578725385E-03 -7.1578725385E-03  7.1578725385E-03
            znucl       55.00000   53.00000   40.00000   17.00000

- Timing analysis has been suppressed with timopt=0

 Suggested references for the acknowledgment of ABINIT usage.

 Calculation completed.
.Delivered   0 WARNINGs and  70 COMMENTs to log file.