.Version 9.2.2 of ABINIT

 ABINIT is a project of the Universite Catholique de Louvain,
 Corning Inc. and other collaborators, see ~abinit/doc/developers/contributors.txt .
 acknowledgments of the ABINIT effort.

.Starting date : Thu 24 Nov 2022.
- ( at 08h16 )

- input  file    -> Cs2TiI6.in
- output file    -> Cs2TiI6.out
- root for input  files -> Cs2TiI6i
- root for output files -> Cs2TiI6o

- inpspheads : Reading pseudopotential header in XML form from
-   ../../../Psps_for_tests/ATOMICDATA/Cs.GGA_PBE-JTH.xml
- inpspheads : Reading pseudopotential header in XML form from
-   ../../../Psps_for_tests/ATOMICDATA/I.GGA_PBE-JTH.xml
- inpspheads : Reading pseudopotential header in XML form from
-   ../../../Psps_for_tests/ATOMICDATA/Zr.GGA_PBE-JTH.xml
- inpspheads : Reading pseudopotential header in XML form from
-   ../../../Psps_for_tests/ATOMICDATA/Br.GGA_PBE-JTH.xml

 DATASET    1 : space group Fm m 2 (# 42); Bravais oF (face-center ortho.)
     intxc =       0    ionmov =       0      iscf =      17    lmnmax =      18
     lnmax =       6     mgfft =      60  mpssoang =       3    mqgrid =    3594
     natom =       9  nloc_mem =       2    nspden =       1   nspinor =       1
    nsppol =       1      nsym =       4    n1xccc =       1    ntypat =       4
    occopt =       1   xclevel =       2
-    mband =          42        mffmem =           1         mkmem =          47
       mpw =        8015          nfft =      216000          nkpt =         280
Pmy_natom=         2
 PAW method is used; the additional fine FFT grid is defined by:
   mgfftf=        90    nfftf =    729000
  Rough estimation (10% accuracy) of disk space for files :

[...]

 DATASET   10 : space group Fm m 2 (# 42); Bravais oF (face-center ortho.)
     intxc =       0    ionmov =       0      iscf =      17    lmnmax =      18
     lnmax =       6     mgfft =      54  mpssoang =       3    mqgrid =    3267
     natom =       9  nloc_mem =       2    nspden =       1   nspinor =       1
    nsppol =       1      nsym =       4    n1xccc =       1    ntypat =       4
    occopt =       1   xclevel =       2
-    mband =          42        mffmem =           1         mkmem =          47
       mpw =        6032          nfft =      157464          nkpt =         280
Pmy_natom=         2
 PAW method is used; the additional fine FFT grid is defined by:
   mgfftf=        90    nfftf =    729000
  Rough estimation (10% accuracy) of disk space for files :

------------- Echo of variables that govern the present computation ------------
-
- outvars: echo of selected default values
-   iomode0 =  0 , fftalg0 =112 , wfoptalg0 = 10
-
- outvars: echo of global parameters not present in the input file
-  max_nthreads =    0
-
 -outvars: echo values of preprocessed input variables --------
            acell1     1.5570243124E+01  1.5410398910E+01  1.5401625640E+01 Bohr
            acell2     1.5408674110E+01  1.5263431872E+01  1.5241385507E+01 Bohr
            acell3     1.5256407371E+01  1.5108803235E+01  1.5080175014E+01 Bohr
            acell4     1.5101642955E+01  1.4952486365E+01  1.4922944765E+01 Bohr
            acell5     1.4948867235E+01  1.4794561260E+01  1.4765486318E+01 Bohr
            acell6     1.4797769172E+01  1.4633432955E+01  1.4609679328E+01 Bohr
            acell7     1.4648115156E+01  1.4469817423E+01  1.4455063618E+01 Bohr
            acell8     1.4499150243E+01  1.4306089846E+01  1.4299997361E+01 Bohr
            acell9     1.4350047814E+01  1.4141443726E+01  1.4146043848E+01 Bohr
            acell10    1.4200658024E+01  1.3976705047E+01  1.3992519247E+01 Bohr
              amu      1.32905430E+02  1.26904470E+02  9.12240000E+01
                       7.99040000E+01
           diemac      1.20000000E+01
             ecut      1.60000000E+01 Hartree
-          fftalg         112
           istwfk        2    0    0    0    0    0    3    0    0    0
                         0    0    0    0    0    0    0    0    0    0
                         0    0    0    0    0    0    0    0    0    0
                         0    0    0    0    0    0    0    0    0    0
                         0    0    7    0    0    0    0    0    0    0
                       outvar_i_n : Printing only first  50 k-points.
              ixc     -101130
           jdtset        1    2    3    4    5    6    7    8    9   10
              kpt      0.00000000E+00  0.00000000E+00  0.00000000E+00
                       8.33333333E-02  0.00000000E+00  0.00000000E+00
                       1.66666667E-01  0.00000000E+00  0.00000000E+00
                       2.50000000E-01  0.00000000E+00  0.00000000E+00
                       3.33333333E-01  0.00000000E+00  0.00000000E+00
                       4.16666667E-01  0.00000000E+00  0.00000000E+00
                       5.00000000E-01  0.00000000E+00  0.00000000E+00
                       8.33333333E-02  8.33333333E-02  0.00000000E+00
                       1.66666667E-01  8.33333333E-02  0.00000000E+00
                       2.50000000E-01  8.33333333E-02  0.00000000E+00
                       3.33333333E-01  8.33333333E-02  0.00000000E+00
                       4.16666667E-01  8.33333333E-02  0.00000000E+00
                       5.00000000E-01  8.33333333E-02  0.00000000E+00
                      -4.16666667E-01  8.33333333E-02  0.00000000E+00
                      -3.33333333E-01  8.33333333E-02  0.00000000E+00
                      -2.50000000E-01  8.33333333E-02  0.00000000E+00
                      -1.66666667E-01  8.33333333E-02  0.00000000E+00
                      -8.33333333E-02  8.33333333E-02  0.00000000E+00
                       1.66666667E-01  1.66666667E-01  0.00000000E+00
                       2.50000000E-01  1.66666667E-01  0.00000000E+00
                       3.33333333E-01  1.66666667E-01  0.00000000E+00
                       4.16666667E-01  1.66666667E-01  0.00000000E+00
                       5.00000000E-01  1.66666667E-01  0.00000000E+00
                      -4.16666667E-01  1.66666667E-01  0.00000000E+00
                      -3.33333333E-01  1.66666667E-01  0.00000000E+00
                      -2.50000000E-01  1.66666667E-01  0.00000000E+00
                      -1.66666667E-01  1.66666667E-01  0.00000000E+00
                       2.50000000E-01  2.50000000E-01  0.00000000E+00
                       3.33333333E-01  2.50000000E-01  0.00000000E+00
                       4.16666667E-01  2.50000000E-01  0.00000000E+00
                       5.00000000E-01  2.50000000E-01  0.00000000E+00
                      -4.16666667E-01  2.50000000E-01  0.00000000E+00
                      -3.33333333E-01  2.50000000E-01  0.00000000E+00
                      -2.50000000E-01  2.50000000E-01  0.00000000E+00
                       3.33333333E-01  3.33333333E-01  0.00000000E+00
                       4.16666667E-01  3.33333333E-01  0.00000000E+00
                       5.00000000E-01  3.33333333E-01  0.00000000E+00
                      -4.16666667E-01  3.33333333E-01  0.00000000E+00
                      -3.33333333E-01  3.33333333E-01  0.00000000E+00
                       4.16666667E-01  4.16666667E-01  0.00000000E+00
                       5.00000000E-01  4.16666667E-01  0.00000000E+00
                      -4.16666667E-01  4.16666667E-01  0.00000000E+00
                       5.00000000E-01  5.00000000E-01  0.00000000E+00
                       8.33333333E-02  0.00000000E+00  8.33333333E-02
                       1.66666667E-01  0.00000000E+00  8.33333333E-02
                       2.50000000E-01  0.00000000E+00  8.33333333E-02
                       3.33333333E-01  0.00000000E+00  8.33333333E-02
                       4.16666667E-01  0.00000000E+00  8.33333333E-02
                       5.00000000E-01  0.00000000E+00  8.33333333E-02
                      -4.16666667E-01  0.00000000E+00  8.33333333E-02
                       outvar_i_n : Printing only first  50 k-points.
         kptrlatt       12    0    0      0   12    0      0    0   12
          kptrlen1     1.84819508E+02
          kptrlen2     1.82896626E+02
          kptrlen3     1.80962100E+02
          kptrlen4     1.79075337E+02
          kptrlen5     1.77185836E+02
          kptrlen6     1.75316152E+02
          kptrlen7     1.73460763E+02
          kptrlen8     1.71599968E+02
          kptrlen9     1.69697325E+02
          kptrlen10    1.67720461E+02
P           mkmem          47
            natom           9
            nband          42
           ndtset          10
            ngfft1         60      60      60
            ngfft2         60      60      60
            ngfft3         60      60      60
            ngfft4         60      60      60
            ngfft5         54      54      54
            ngfft6         54      54      54
            ngfft7         54      54      54
            ngfft8         54      54      54
            ngfft9         54      54      54
            ngfft10        54      54      54
          ngfftdg          90      90      90
             nkpt         280
            nstep        2500
             nsym           4
           ntypat           4
              occ      2.000000  2.000000  2.000000  2.000000  2.000000  2.000000
                       2.000000  2.000000  2.000000  2.000000  2.000000  2.000000
                       2.000000  2.000000  2.000000  2.000000  2.000000  2.000000
                       2.000000  2.000000  2.000000  2.000000  2.000000  2.000000
                       2.000000  2.000000  2.000000  2.000000  2.000000  2.000000
                       2.000000  2.000000  2.000000  2.000000  2.000000  2.000000
                       0.000000  0.000000  0.000000  0.000000  0.000000  0.000000
        pawecutdg      4.00000000E+01 Hartree
            prtwf           0
            rprim1     0.0000000000E+00  7.0671244456E-01  7.0750089802E-01
                       6.9928861641E-01  0.0000000000E+00  7.1483944418E-01
                       6.9968695414E-01  7.1444955470E-01  0.0000000000E+00
            rprim2     0.0000000000E+00  7.0610461956E-01  7.0810752449E-01
                       6.9928225905E-01  0.0000000000E+00  7.1484566319E-01
                       7.0029375715E-01  7.1385478474E-01  0.0000000000E+00
            rprim3     0.0000000000E+00  7.0579277639E-01  7.0841834872E-01
                       6.9877740204E-01  0.0000000000E+00  7.1533917997E-01
                       7.0010396188E-01  7.1404092499E-01  0.0000000000E+00
            rprim4     0.0000000000E+00  7.0573723847E-01  7.0847367646E-01
                       6.9857077606E-01  0.0000000000E+00  7.1554096377E-01
                       6.9995367324E-01  7.1418824921E-01  0.0000000000E+00
            rprim5     0.0000000000E+00  7.0574571076E-01  7.0846523679E-01
                       6.9824951277E-01  0.0000000000E+00  7.1585446699E-01
                       6.9962444642E-01  7.1451076547E-01  0.0000000000E+00
            rprim6     0.0000000000E+00  7.0598434705E-01  7.0822743643E-01
                       6.9791462682E-01  0.0000000000E+00  7.1618096433E-01
                       6.9904935425E-01  7.1507342303E-01  0.0000000000E+00
[...]
                      -5.2524089020E-13  8.4582661716E-13  7.1647197653E-02
           xangst7     2.6706232316E+00  2.7378242737E+00  2.7493261089E+00
                       8.0118696949E+00  8.2134728212E+00  8.2358760053E+00
                       5.3412464634E+00  5.4756485475E+00  2.6867615886E+00
                       5.3412464632E+00  5.4756485475E+00  8.1942148653E+00
                       8.0755201933E+00  5.4756485475E+00  5.5037500338E+00
                       5.3412464634E+00  8.1072362963E+00  5.4720368406E+00
                       5.3412464632E+00  2.8440607987E+00  5.4720368404E+00
                       2.6069727333E+00  5.4756485475E+00  5.5037500339E+00
                      -2.2018034065E-12 -2.3133287424E-13  7.4646855233E-02
           xangst8     2.6387906708E+00  2.7115560898E+00  2.7179126193E+00
                       7.9163720124E+00  8.1346682694E+00  8.1455225617E+00
                       5.2775813416E+00  5.4231121796E+00  2.6840938265E+00
                       5.2775813416E+00  5.4231121796E+00  8.0916042977E+00
                       7.9549281592E+00  5.4231121796E+00  5.4411572667E+00
                       5.2775813416E+00  8.0147897019E+00  5.4106749875E+00
                       5.2775813416E+00  2.8314346573E+00  5.4106749874E+00
                       2.6002345240E+00  5.4231121797E+00  5.4411572668E+00
                       1.2903021954E-13  1.3279238575E-12  7.8081725835E-02
           xangst9     2.6070176799E+00  2.6856329735E+00  2.6863929342E+00
                       7.8210530398E+00  8.0568989206E+00  8.0542657820E+00
                       5.2140353598E+00  5.3712659469E+00  2.6801522477E+00
                       5.2140353599E+00  5.3712659472E+00  7.9884994279E+00
                       7.8357485593E+00  5.3712659469E+00  5.3770369202E+00
                       5.2140353598E+00  7.9251488851E+00  5.3489701882E+00
                       5.2140353599E+00  2.8173830090E+00  5.3489701880E+00
                       2.5923221605E+00  5.3712659472E+00  5.3770369204E+00
                       1.2627798375E-12  3.9577976085E-12  8.1658174186E-02
           xangst10    2.5753605806E+00  2.6597472464E+00  2.6546334616E+00
                       7.7260817419E+00  7.9792417392E+00  7.9624731342E+00
                       5.1507211613E+00  5.3194944928E+00  2.6753257714E+00
                       5.1507211613E+00  5.3194944928E+00  7.8861928791E+00
                       7.7182873230E+00  5.3194944928E+00  5.3121273898E+00
                       5.1507211613E+00  7.8369332485E+00  5.2869769522E+00
                       5.1507211613E+00  2.8020557370E+00  5.2869769523E+00
                       2.5831549996E+00  5.3194944928E+00  5.3121273898E+00
                       3.3152639377E-13 -8.2698932490E-14  8.5883450785E-02
            xcart1     5.3881582662E+00  5.5018422902E+00  5.5305690840E+00
                       1.6164474799E+01  1.6505526871E+01  1.6546530076E+01
                       1.0776316533E+01  1.1003684580E+01  5.0875643829E+00
                       1.0776316532E+01  1.1003684580E+01  1.6663719738E+01
                       1.6587670602E+01  1.1003684580E+01  1.1067180299E+01
                       1.0776316533E+01  1.6535787377E+01  1.1022611959E+01
                       1.0776316532E+01  5.4715817839E+00  1.1022611959E+01
                       4.9649624633E+00  1.1003684580E+01  1.1067180299E+01
                      -4.1083762305E-12  2.1815417583E-12  1.1972013931E-01
            xcart2     5.3367235603E+00  5.4400679852E+00  5.4755372481E+00
                       1.6010170681E+01  1.6320203955E+01  1.6386535327E+01
                       1.0673447121E+01  1.0880135970E+01  5.0882776879E+00
                       1.0673447120E+01  1.0880135970E+01  1.6468117977E+01
                       1.6385024831E+01  1.0880135970E+01  1.0961993339E+01
                       1.0673447121E+01  1.6300450516E+01  1.0911662136E+01
                       1.0673447120E+01  5.4598214242E+00  1.0911662136E+01
                       4.9618694100E+00  1.0880135970E+01  1.0961993339E+01
                      -3.1397313622E-12  7.0971695951E-13  1.2220544516E-01
            xcart3     5.2788451364E+00  5.3839310580E+00  5.4244282248E+00
                       1.5836535409E+01  1.6151793174E+01  1.6232347142E+01
                       1.0557690273E+01  1.0767862116E+01  5.0873771044E+00
                       1.0557690273E+01  1.0767862116E+01  1.6277137212E+01
                       1.6157523612E+01  1.0767862116E+01  1.0855738493E+01
                       1.0557690273E+01  1.6088820457E+01  1.0803094944E+01
                       1.0557690273E+01  5.4469037755E+00  1.0803094944E+01
                       4.9578569338E+00  1.0767862116E+01  1.0855738493E+01
                      -3.7885865193E-12  6.1751797667E-13  1.2439477847E-01
            xcart4     5.2226850020E+00  5.3288958975E+00  5.3676420790E+00
                       1.5668055006E+01  1.5986687693E+01  1.6066758584E+01
                       1.0445370004E+01  1.0657791795E+01  5.0863450904E+00
                       1.0445370004E+01  1.0657791795E+01  1.6077601899E+01
                       1.5938427665E+01  1.0657791795E+01  1.0745005339E+01
                       1.0445370004E+01  1.5883906267E+01  1.0688410970E+01
                       1.0445370004E+01  5.4316773233E+00  1.0688410970E+01
                       4.9523123431E+00  1.0657791795E+01  1.0745005339E+01
                       1.2253058351E-12  3.8731513912E-12  1.2775176766E-01
            xcart5     5.1651475957E+00  5.2750494659E+00  5.3116208728E+00
                       1.5495442787E+01  1.5825148398E+01  1.5902373638E+01
                       1.0330295191E+01  1.0550098932E+01  5.0844280303E+00
                       1.0330295191E+01  1.0550098932E+01  1.5881320804E+01
                       1.5715206111E+01  1.0550098932E+01  1.0633417317E+01
                       1.0330295191E+01  1.5685425968E+01  1.0573995419E+01
                       1.0330295191E+01  5.4147718957E+00  1.0573995418E+01
                       4.9453842722E+00  1.0550098932E+01  1.0633417317E+01
                       5.4666326641E-13  1.3092156648E-12  1.3145330572E-01
            xcart6     5.1064434500E+00  5.2234967033E+00  5.2549419446E+00
                       1.5319330350E+01  1.5670490110E+01  1.5735128070E+01
                       1.0212886900E+01  1.0446993407E+01  5.0809878473E+00
                       1.0212886900E+01  1.0446993407E+01  1.5683164808E+01
                       1.5488798918E+01  1.0446993407E+01  1.0518179468E+01
                       1.0212886900E+01  1.5498061251E+01  1.0457756908E+01
                       1.0212886900E+01  5.3959255620E+00  1.0457756908E+01
                       4.9369748823E+00  1.0446993407E+01  1.0518179468E+01
                      -9.9256143627E-13  1.5983806623E-12  1.3539358175E-01
            xcart7     5.0467465119E+00  5.1737380773E+00  5.1954733958E+00
                       1.5140239536E+01  1.5521214232E+01  1.5563550115E+01
                       1.0093493024E+01  1.0347476155E+01  5.0772435868E+00
                       1.0093493024E+01  1.0347476155E+01  1.5484821969E+01
                       1.5260521546E+01  1.0347476155E+01  1.0400580268E+01
                       1.0093493024E+01  1.5320456295E+01  1.0340651018E+01
                       1.0093493024E+01  5.3744960147E+00  1.0340651017E+01
                       4.9264645018E+00  1.0347476155E+01  1.0400580268E+01
                      -4.1608054368E-12 -4.3715577785E-13  1.4106211307E-01
            xcart8     4.9865916898E+00  5.1240984037E+00  5.1361105036E+00
                       1.4959775069E+01  1.5372295211E+01  1.5392806851E+01
                       9.9731833796E+00  1.0248196807E+01  5.0722022471E+00
                       9.9731833797E+00  1.0248196807E+01  1.5290916098E+01
                       1.5032635628E+01  1.0248196807E+01  1.0282297080E+01
                       9.9731833796E+00  1.5145757549E+01  1.0224693920E+01
                       9.9731833797E+00  5.3506360655E+00  1.0224693920E+01
                       4.9137311317E+00  1.0248196807E+01  1.0282297080E+01
                       2.4383177780E-13  2.5094124160E-12  1.4755307781E-01
            xcart9     4.9265494387E+00  5.0751108134E+00  5.0765469310E+00
                       1.4779648316E+01  1.5225332440E+01  1.5220356530E+01
                       9.8530988773E+00  1.0150221627E+01  5.0647537426E+00
                       9.8530988774E+00  1.0150221627E+01  1.5096076131E+01
                       1.4807418823E+01  1.0150221627E+01  1.0161127186E+01
                       9.8530988773E+00  1.4976360955E+01  1.0108088749E+01
                       9.8530988774E+00  5.3240822985E+00  1.0108088748E+01
                       4.8987789315E+00  1.0150221627E+01  1.0161127186E+01
                       2.3863080591E-12  7.4791535695E-12  1.5431158572E-01
            xcart10    4.8667261908E+00  5.0261938784E+00  5.0165302255E+00
                       1.4600178573E+01  1.5078581635E+01  1.5046893564E+01
                       9.7334523817E+00  1.0052387757E+01  5.0556330243E+00
                       9.7334523817E+00  1.0052387757E+01  1.4902744773E+01
                       1.4585449255E+01  1.0052387757E+01  1.0038465950E+01
                       9.7334523817E+00  1.4809657561E+01  9.9909385106E+00
                       9.7334523817E+00  5.2951179521E+00  9.9909385107E+00
                       4.8814555080E+00  1.0052387757E+01  1.0038465950E+01
                       6.2649409004E-13 -1.5627833389E-13  1.6229620133E-01
             xred1     2.5102526634E-01  2.5102526634E-01  2.4897473366E-01
                       7.5102526634E-01  7.5102526634E-01  7.4897473366E-01
                       2.3091786484E-01  2.3091786484E-01  7.6908213516E-01
                       7.5634435118E-01  7.5634435118E-01  2.4365564882E-01
                       2.3268931993E-01  7.7196023422E-01  7.6731068007E-01
                       7.5167689563E-01  2.4892686167E-01  7.5107313833E-01
                       2.4892686167E-01  7.5167689563E-01  2.4832310437E-01
                       7.7196023422E-01  2.3268931993E-01  2.2803976578E-01
                       5.4339398712E-03  5.4339398712E-03 -5.4339398712E-03
             xred2     2.5091825735E-01  2.5091825735E-01  2.4908174265E-01
                       7.5091825735E-01  7.5091825735E-01  7.4908174265E-01
                       2.3317196332E-01  2.3317196332E-01  7.6682803668E-01
                       7.5465680852E-01  7.5465680852E-01  2.4534319148E-01
                       2.3477674831E-01  7.6989700010E-01  7.6522325169E-01
                       7.4912265522E-01  2.5093820597E-01  7.4906179403E-01
                       2.5093820597E-01  7.4912265522E-01  2.5087734478E-01
                       7.6989700010E-01  2.3477674831E-01  2.3010299990E-01
                       5.6001038710E-03  5.6001038710E-03 -5.6001038710E-03
             xred3     2.5094693375E-01  2.5094693375E-01  2.4905306625E-01
                       7.5094693375E-01  7.5094693375E-01  7.4905306625E-01
                       2.3535414836E-01  2.3535414836E-01  7.6464585164E-01
                       7.5301902877E-01  7.5301902877E-01  2.4698097123E-01
                       2.3701061717E-01  7.6741387719E-01  7.6298938283E-01
                       7.4685272662E-01  2.5270093649E-01  7.4729906351E-01
                       2.5270093649E-01  7.4685272662E-01  2.5314727338E-01
                       7.6741387719E-01  2.3701061717E-01  2.3258612281E-01
                       5.7547979140E-03  5.7547979140E-03 -5.7547979140E-03
             xred4     2.5084510841E-01  2.5084510841E-01  2.4915489159E-01
                       7.5084510841E-01  7.5084510841E-01  7.4915489159E-01
                       2.3769930387E-01  2.3769930387E-01  7.6230069613E-01
                       7.5135184723E-01  7.5135184723E-01  2.4864815277E-01
                       2.3920229006E-01  7.6508674018E-01  7.6079770994E-01
                       7.4467780882E-01  2.5432159130E-01  7.4567840870E-01
                       2.5432159130E-01  7.4467780882E-01  2.5532219118E-01
                       7.6508674018E-01  2.3920229006E-01  2.3491325982E-01
                       5.9702017267E-03  5.9702017267E-03 -5.9702017267E-03
             xred5     2.5076691858E-01  2.5076691858E-01  2.4923308142E-01
                       7.5076691858E-01  7.5076691858E-01  7.4923308142E-01
                       2.4004091791E-01  2.4004091791E-01  7.5995908209E-01
                       7.4977299328E-01  7.4977299328E-01  2.5022700672E-01
                       2.4137739947E-01  7.6265107263E-01  7.5862260053E-01
                       7.4258701494E-01  2.5583072296E-01  7.4416927704E-01
                       2.5583072296E-01  7.4258701494E-01  2.5741298506E-01
                       7.6265107263E-01  2.4137739947E-01  2.3734892737E-01
                       6.2060416591E-03  6.2060416591E-03 -6.2060416591E-03
             xred6     2.5070842644E-01  2.5070842644E-01  2.4929157356E-01
                       7.5070842644E-01  7.5070842644E-01  7.4929157356E-01
                       2.4240923713E-01  2.4240923713E-01  7.5759076287E-01
                       7.4822930721E-01  7.4822930721E-01  2.5177069279E-01
                       2.4351582692E-01  7.6010942767E-01  7.5648417308E-01
                       7.4067736375E-01  2.5718248173E-01  7.4281751827E-01
                       2.5718248173E-01  7.4067736375E-01  2.5932263625E-01
                       7.6010942767E-01  2.4351582692E-01  2.3989057233E-01
                       6.4595027289E-03  6.4595027289E-03 -6.4595027289E-03
             xred7     2.5055145408E-01  2.5055145408E-01  2.4944854592E-01
                       7.5055145408E-01  7.5055145408E-01  7.4944854592E-01
                       2.4484982724E-01  2.4484982724E-01  7.5515017276E-01
                       7.4675479308E-01  7.4675479308E-01  2.5324520692E-01
                       2.4560908841E-01  7.5752587577E-01  7.5439091159E-01
                       7.3897658026E-01  2.5837821351E-01  7.4162178649E-01
                       2.5837821351E-01  7.3897658026E-01  2.6102341974E-01
                       7.5752587577E-01  2.4560908841E-01  2.4247412423E-01
                       6.8027136034E-03  6.8027136034E-03 -6.8027136034E-03
             xred8     2.5037840303E-01  2.5037840303E-01  2.4962159697E-01
                       7.5037840303E-01  7.5037840303E-01  7.4962159697E-01
                       2.4726296243E-01  2.4726296243E-01  7.5273703757E-01
                       7.4541136739E-01  7.4541136739E-01  2.5458863261E-01
                       2.4759517737E-01  7.5490082446E-01  7.5240482263E-01
                       7.3738736317E-01  2.5949248723E-01  7.4050751277E-01
                       2.5949248723E-01  7.3738736317E-01  2.6261263683E-01
                       7.5490082446E-01  2.4759517737E-01  2.4509917554E-01
                       7.1930119024E-03  7.1930119024E-03 -7.1930119024E-03
             xred9     2.5022881599E-01  2.5022881599E-01  2.4977118401E-01
                       7.5022881599E-01  7.5022881599E-01  7.4977118401E-01
                       2.4964751622E-01  2.4964751622E-01  7.5035248378E-01
                       7.4410289274E-01  7.4410289274E-01  2.5589710726E-01
                       2.4944437666E-01  7.5226283078E-01  7.5055562334E-01
                       7.3597494098E-01  2.6050361575E-01  7.3949638425E-01
                       2.6050361575E-01  7.3597494098E-01  2.6402505902E-01
                       7.5226283078E-01  2.4944437666E-01  2.4773716922E-01
                       7.6061949026E-03  7.6061949026E-03 -7.6061949026E-03
             xred10    2.5006722370E-01  2.5006722370E-01  2.4993277630E-01
                       7.5006722370E-01  7.5006722370E-01  7.4993277630E-01
                       2.5201644515E-01  2.5201644515E-01  7.4798355485E-01
                       7.4288160207E-01  7.4288160207E-01  2.5711839793E-01
                       2.5116053792E-01  7.4964727042E-01  7.4883946208E-01
                       7.3465859669E-01  2.6141085498E-01  7.3858914502E-01
                       2.6141085498E-01  7.3465859669E-01  2.6534140331E-01
                       7.4964727042E-01  2.5116053792E-01  2.5035272958E-01
                       8.0902453806E-03  8.0902453806E-03 -8.0902453806E-03
            znucl       55.00000   53.00000   40.00000   35.00000

- Timing analysis has been suppressed with timopt=0

 Suggested references for the acknowledgment of ABINIT usage.

 Calculation completed.
.Delivered   0 WARNINGs and   5 COMMENTs to log file.