.Version 9.2.2 of ABINIT

 ABINIT is a project of the Universite Catholique de Louvain,
 Corning Inc. and other collaborators, see ~abinit/doc/developers/contributors.txt .
 acknowledgments of the ABINIT effort.

.Starting date : Sat 22 Oct 2022.
- ( at 02h08 )

- input  file    -> Cs2TiI6.in
- output file    -> Cs2TiI6.out
- root for input  files -> Cs2TiI6i
- root for output files -> Cs2TiI6o

- inpspheads : Reading pseudopotential header in XML form from
-   ../../../Psps_for_tests/ATOMICDATA/Cs.GGA_PBE-JTH.xml
- inpspheads : Reading pseudopotential header in XML form from
-   ../../../Psps_for_tests/ATOMICDATA/I.GGA_PBE-JTH.xml
- inpspheads : Reading pseudopotential header in XML form from
-   ../../../Psps_for_tests/ATOMICDATA/Zr.GGA_PBE-JTH.xml
- inpspheads : Reading pseudopotential header in XML form from
-   ../../../Psps_for_tests/ATOMICDATA/Br.GGA_PBE-JTH.xml

 DATASET    1 : space group R3 m (#160); Bravais hR (rhombohedral)
     intxc =       0    ionmov =       0      iscf =      17    lmnmax =      18
     lnmax =       6     mgfft =      60  mpssoang =       3    mqgrid =    3646
     natom =       9  nloc_mem =       2    nspden =       1   nspinor =       1
    nsppol =       1      nsym =       6    n1xccc =       1    ntypat =       4
    occopt =       1   xclevel =       2
-    mband =          42        mffmem =           1         mkmem =          32
       mpw =        8278          nfft =      216000          nkpt =         189
Pmy_natom=         2
 PAW method is used; the additional fine FFT grid is defined by:
   mgfftf=        90    nfftf =    729000
  Rough estimation (10% accuracy) of disk space for files :

[...]

 DATASET    3 : space group Fm m 2 (# 42); Bravais oF (face-center ortho.)
     intxc =       0    ionmov =       0      iscf =      17    lmnmax =      18
     lnmax =       6     mgfft =      60  mpssoang =       3    mqgrid =    3630
     natom =       9  nloc_mem =       2    nspden =       1   nspinor =       1
    nsppol =       1      nsym =       4    n1xccc =       1    ntypat =       4
    occopt =       1   xclevel =       2
-    mband =          42        mffmem =           1         mkmem =          47
       mpw =        8264          nfft =      216000          nkpt =         280
Pmy_natom=         2
 PAW method is used; the additional fine FFT grid is defined by:
   mgfftf=        90    nfftf =    729000
  Rough estimation (10% accuracy) of disk space for files :

[...]

 DATASET    5 : space group R3 m (#160); Bravais hR (rhombohedral)
     intxc =       0    ionmov =       0      iscf =      17    lmnmax =      18
     lnmax =       6     mgfft =      60  mpssoang =       3    mqgrid =    3646
     natom =       9  nloc_mem =       2    nspden =       1   nspinor =       1
    nsppol =       1      nsym =       6    n1xccc =       1    ntypat =       4
    occopt =       1   xclevel =       2
-    mband =          42        mffmem =           1         mkmem =          32
       mpw =        8278          nfft =      216000          nkpt =         189
Pmy_natom=         2
 PAW method is used; the additional fine FFT grid is defined by:
   mgfftf=        90    nfftf =    729000
  Rough estimation (10% accuracy) of disk space for files :

 DATASET    6 : space group Fm m 2 (# 42); Bravais oF (face-center ortho.)
     intxc =       0    ionmov =       0      iscf =      17    lmnmax =      18
     lnmax =       6     mgfft =      60  mpssoang =       3    mqgrid =    3630
     natom =       9  nloc_mem =       2    nspden =       1   nspinor =       1
    nsppol =       1      nsym =       4    n1xccc =       1    ntypat =       4
    occopt =       1   xclevel =       2
-    mband =          42        mffmem =           1         mkmem =          47
       mpw =        8264          nfft =      216000          nkpt =         280
Pmy_natom=         2
 PAW method is used; the additional fine FFT grid is defined by:
   mgfftf=        90    nfftf =    729000
  Rough estimation (10% accuracy) of disk space for files :

------------- Echo of variables that govern the present computation ------------
-
- outvars: echo of selected default values
-   iomode0 =  0 , fftalg0 =112 , wfoptalg0 = 10
-
- outvars: echo of global parameters not present in the input file
-  max_nthreads =    0
-
 -outvars: echo values of preprocessed input variables --------
            acell1     1.5552140105E+01  1.5708755845E+01  1.5708755845E+01 Bohr
            acell2     1.5552140462E+01  1.5708755818E+01  1.5708755818E+01 Bohr
            acell3     1.5558035765E+01  1.5560876630E+01  1.5732211664E+01 Bohr
            acell4     1.5732211373E+01  1.5558035595E+01  1.5560876377E+01 Bohr
            acell5     1.5708872988E+01  1.5708872988E+01  1.5551989182E+01 Bohr
            acell6     1.5560876404E+01  1.5558035545E+01  1.5732211402E+01 Bohr
              amu      1.32905430E+02  1.26904470E+02  9.12240000E+01
                       7.99040000E+01
           diemac      1.20000000E+01
             ecut      1.60000000E+01 Hartree
-          fftalg         112
           istwfk1       2    0    0    0    0    0    3    0    0    0
                         0    0    0    0    0    0    0    0    0    0
                         0    0    0    0    0    0    0    0    0    0
                         0    0    0    0    0    0    0    0    0    0
                         0    0    0    0    0    0    0    0    0    0
           istwfk2       2    0    0    0    0    0    3    0    0    0
                         0    0    0    0    0    0    0    0    0    0
                         0    0    0    0    0    0    0    0    0    0
                         0    0    0    0    0    0    0    0    0    0
                         0    0    0    0    0    0    0    0    0    0
           istwfk3       2    0    0    0    0    0    3    0    0    0
                         0    0    0    0    0    0    0    0    0    0
                         0    0    0    0    0    0    0    0    0    0
                         0    0    0    0    0    0    0    0    0    0
                         0    0    7    0    0    0    0    0    0    0
           istwfk4       2    0    0    0    0    0    3    0    0    0
                         0    0    0    0    0    0    0    0    0    0
                         0    0    0    0    0    0    0    0    0    0
                         0    0    0    0    0    0    0    0    0    0
                         0    0    7    0    0    0    0    0    0    0
           istwfk5       2    0    0    0    0    0    3    0    0    0
                         0    0    0    0    0    0    0    0    0    0
                         0    0    0    0    0    0    0    0    0    0
                         0    0    0    0    0    0    0    0    0    0
                         0    0    7    0    0    0    0    0    0    0
           istwfk6       2    0    0    0    0    0    3    0    0    0
                         0    0    0    0    0    0    0    0    0    0
                         0    0    0    0    0    0    0    0    0    0
                         0    0    0    0    0    0    0    0    0    0
                         0    0    7    0    0    0    0    0    0    0
                       outvar_i_n : Printing only first  50 k-points.
              ixc     -101130
           jdtset        1    2    3    4    5    6
              kpt1     0.00000000E+00  0.00000000E+00  0.00000000E+00
                       8.33333333E-02  0.00000000E+00  0.00000000E+00
                       1.66666667E-01  0.00000000E+00  0.00000000E+00
                       2.50000000E-01  0.00000000E+00  0.00000000E+00
                       3.33333333E-01  0.00000000E+00  0.00000000E+00
                       4.16666667E-01  0.00000000E+00  0.00000000E+00
                       5.00000000E-01  0.00000000E+00  0.00000000E+00
                       0.00000000E+00  8.33333333E-02  0.00000000E+00
                       8.33333333E-02  8.33333333E-02  0.00000000E+00
                       1.66666667E-01  8.33333333E-02  0.00000000E+00
                       2.50000000E-01  8.33333333E-02  0.00000000E+00
                       3.33333333E-01  8.33333333E-02  0.00000000E+00
                       4.16666667E-01  8.33333333E-02  0.00000000E+00
                       5.00000000E-01  8.33333333E-02  0.00000000E+00
                      -4.16666667E-01  8.33333333E-02  0.00000000E+00
                      -3.33333333E-01  8.33333333E-02  0.00000000E+00
                      -2.50000000E-01  8.33333333E-02  0.00000000E+00
                      -1.66666667E-01  8.33333333E-02  0.00000000E+00
                      -8.33333333E-02  8.33333333E-02  0.00000000E+00
                       0.00000000E+00  1.66666667E-01  0.00000000E+00
                       8.33333333E-02  1.66666667E-01  0.00000000E+00
                       1.66666667E-01  1.66666667E-01  0.00000000E+00
                       2.50000000E-01  1.66666667E-01  0.00000000E+00
                       3.33333333E-01  1.66666667E-01  0.00000000E+00
                       4.16666667E-01  1.66666667E-01  0.00000000E+00
                       5.00000000E-01  1.66666667E-01  0.00000000E+00
                      -4.16666667E-01  1.66666667E-01  0.00000000E+00
                      -3.33333333E-01  1.66666667E-01  0.00000000E+00
                      -2.50000000E-01  1.66666667E-01  0.00000000E+00
                      -1.66666667E-01  1.66666667E-01  0.00000000E+00
                      -8.33333333E-02  1.66666667E-01  0.00000000E+00
                       0.00000000E+00  2.50000000E-01  0.00000000E+00
                       8.33333333E-02  2.50000000E-01  0.00000000E+00
                       1.66666667E-01  2.50000000E-01  0.00000000E+00
                       2.50000000E-01  2.50000000E-01  0.00000000E+00
                       3.33333333E-01  2.50000000E-01  0.00000000E+00
                       4.16666667E-01  2.50000000E-01  0.00000000E+00
                       5.00000000E-01  2.50000000E-01  0.00000000E+00
                      -4.16666667E-01  2.50000000E-01  0.00000000E+00
                      -3.33333333E-01  2.50000000E-01  0.00000000E+00
                      -2.50000000E-01  2.50000000E-01  0.00000000E+00
                      -1.66666667E-01  2.50000000E-01  0.00000000E+00
                      -8.33333333E-02  2.50000000E-01  0.00000000E+00
                       0.00000000E+00  3.33333333E-01  0.00000000E+00
                       8.33333333E-02  3.33333333E-01  0.00000000E+00
                       1.66666667E-01  3.33333333E-01  0.00000000E+00
                       2.50000000E-01  3.33333333E-01  0.00000000E+00
                       3.33333333E-01  3.33333333E-01  0.00000000E+00
                       4.16666667E-01  3.33333333E-01  0.00000000E+00
                       5.00000000E-01  3.33333333E-01  0.00000000E+00
              kpt2     0.00000000E+00  0.00000000E+00  0.00000000E+00
                       8.33333333E-02  0.00000000E+00  0.00000000E+00
                       1.66666667E-01  0.00000000E+00  0.00000000E+00
                       2.50000000E-01  0.00000000E+00  0.00000000E+00
[...]
                         0.00347    0.00347    0.00347    0.00347    0.00347    0.00347
                         0.00347    0.00347    0.00347    0.00347    0.00347    0.00347
                         0.00347    0.00347    0.00347    0.00347    0.00347    0.00347
                         0.00347    0.00347    0.00347    0.00347    0.00347    0.00347
                         0.00347    0.00347
              wtk2       0.00058    0.00116    0.00116    0.00116    0.00116    0.00116
                         0.00058    0.00347    0.00347    0.00347    0.00347    0.00347
                         0.00347    0.00347    0.00347    0.00347    0.00347    0.00347
                         0.00347    0.00347    0.00347    0.00347    0.00347    0.00347
                         0.00347    0.00347    0.00347    0.00347    0.00347    0.00347
                         0.00347    0.00347    0.00347    0.00347    0.00347    0.00347
                         0.00347    0.00347    0.00347    0.00347    0.00347    0.00347
                         0.00347    0.00347    0.00347    0.00347    0.00347    0.00347
                         0.00347    0.00347
              wtk3       0.00058    0.00463    0.00463    0.00463    0.00463    0.00463
                         0.00231    0.00116    0.00463    0.00463    0.00463    0.00463
                         0.00463    0.00463    0.00463    0.00463    0.00463    0.00231
                         0.00116    0.00463    0.00463    0.00463    0.00463    0.00463
                         0.00463    0.00463    0.00231    0.00116    0.00463    0.00463
                         0.00463    0.00463    0.00463    0.00231    0.00116    0.00463
                         0.00463    0.00463    0.00231    0.00116    0.00463    0.00231
                         0.00058    0.00116    0.00463    0.00463    0.00463    0.00463
                         0.00463    0.00463
              wtk4       0.00058    0.00463    0.00463    0.00463    0.00463    0.00463
                         0.00231    0.00116    0.00463    0.00463    0.00463    0.00463
                         0.00463    0.00463    0.00463    0.00463    0.00463    0.00231
                         0.00116    0.00463    0.00463    0.00463    0.00463    0.00463
                         0.00463    0.00463    0.00231    0.00116    0.00463    0.00463
                         0.00463    0.00463    0.00463    0.00231    0.00116    0.00463
                         0.00463    0.00463    0.00231    0.00116    0.00463    0.00231
                         0.00058    0.00116    0.00463    0.00463    0.00463    0.00463
                         0.00463    0.00463
              wtk5       0.00058    0.00347    0.00347    0.00347    0.00347    0.00347
                         0.00174    0.00347    0.00694    0.00694    0.00694    0.00694
                         0.00694    0.00694    0.00694    0.00694    0.00694    0.00347
                         0.00347    0.00694    0.00694    0.00694    0.00694    0.00694
                         0.00694    0.00694    0.00347    0.00347    0.00694    0.00694
                         0.00694    0.00694    0.00694    0.00347    0.00347    0.00694
                         0.00694    0.00694    0.00347    0.00347    0.00694    0.00347
                         0.00174    0.00116    0.00347    0.00347    0.00347    0.00347
                         0.00347    0.00347
              wtk6       0.00058    0.00463    0.00463    0.00463    0.00463    0.00463
                         0.00231    0.00116    0.00463    0.00463    0.00463    0.00463
                         0.00463    0.00463    0.00463    0.00463    0.00463    0.00231
                         0.00116    0.00463    0.00463    0.00463    0.00463    0.00463
                         0.00463    0.00463    0.00231    0.00116    0.00463    0.00463
                         0.00463    0.00463    0.00463    0.00231    0.00116    0.00463
                         0.00463    0.00463    0.00231    0.00116    0.00463    0.00231
                         0.00058    0.00116    0.00463    0.00463    0.00463    0.00463
                         0.00463    0.00463
                       outvars : Printing only first  50 k-points.
           xangst1     2.9461419600E+00  2.9318355885E+00  2.9318355885E+00
                       8.8384499108E+00  8.7954827348E+00  8.7954827348E+00
                       5.8603850552E+00  5.8955700419E+00  2.6861197060E+00
                       5.9201090209E+00  5.8358460761E+00  8.8521947870E+00
                       9.0698353911E+00  5.8955700419E+00  5.8955700419E+00
                       5.9201090209E+00  8.8521947870E+00  5.8358460761E+00
                       5.8603850552E+00  2.6861197060E+00  5.8955700419E+00
                       2.9037603100E+00  5.8358460761E+00  5.8358460761E+00
                      -6.0349269521E-02  6.0349269516E-02  6.0349269516E-02
           xangst2     2.9762571442E+00  2.9017203943E+00  2.9017203943E+00
                       8.8685646057E+00  8.7653680097E+00  8.7653680097E+00
                       5.8945975164E+00  5.8613575605E+00  2.8450088726E+00
                       5.9543212966E+00  5.8016337803E+00  9.0110840720E+00
                       8.9109462044E+00  5.8613575605E+00  5.8613575605E+00
                       5.9543212966E+00  9.0110840720E+00  5.8016337803E+00
                       5.8945975164E+00  2.8450088726E+00  5.8613575605E+00
                       2.7448710050E+00  5.8016337803E+00  5.8016337803E+00
                       6.0349211409E-02 -6.0349211409E-02 -6.0349211409E-02
           xangst3     2.9439028005E+00  2.9304130809E+00  2.8783718235E+00
                       8.8317084014E+00  8.8161160107E+00  8.6351154706E+00
                       5.8878056010E+00  5.8597719371E+00  2.6284081369E+00
                       5.8878056010E+00  5.8597719370E+00  8.8850791573E+00
                       8.8747466528E+00  5.8780409281E+00  5.7567436471E+00
                       5.8878056010E+00  9.0792220358E+00  5.7567436471E+00
                       5.8878056010E+00  2.8467529016E+00  5.7567436471E+00
                       2.9008645491E+00  5.8780409281E+00  5.7567436471E+00
                      -1.9406718570E-14 -6.2506320235E-02  5.2331347093E-13
           xangst4     2.8783717993E+00  2.9439027306E+00  2.9552897905E+00
                       8.6351153980E+00  8.8317081919E+00  8.8409926420E+00
                       5.7567435987E+00  5.8878054612E+00  2.6921838225E+00
                       5.7567435986E+00  5.8878054614E+00  8.9246528515E+00
                       8.8850790462E+00  5.8878054612E+00  5.9116338175E+00
                       5.7567435987E+00  8.8747463856E+00  5.8933648680E+00
                       5.7567435986E+00  2.9008645370E+00  5.8933648678E+00
                       2.6284081511E+00  5.8878054614E+00  5.9116338177E+00
                      -2.0731324034E-13  1.2878848959E-12  6.2506334867E-02
           xangst5     2.9022944148E+00  2.9022944148E+00  2.9757269669E+00
                       8.7653754960E+00  8.7653754960E+00  8.8686886490E+00
                       5.8014708302E+00  5.8014708302E+00  2.7450480784E+00
                       5.8613209687E+00  5.8613209687E+00  8.9111091050E+00
                       9.0109946850E+00  5.8014708302E+00  5.9545719331E+00
                       5.8014708302E+00  9.0109946850E+00  5.9545719331E+00
                       5.8613209687E+00  2.8449336583E+00  5.8947217947E+00
                       2.8449336583E+00  5.8613209687E+00  5.8947217947E+00
                      -6.0420133097E-02 -6.0420133097E-02  6.0420133101E-02
           xangst6     2.9552897817E+00  2.9439027504E+00  2.8783717893E+00
                       8.8409926156E+00  8.8317082511E+00  8.6351153680E+00
                       5.9116338004E+00  5.8878055008E+00  2.6284081490E+00
                       5.9116338003E+00  5.8878055007E+00  8.8850790084E+00
                       8.9246528149E+00  5.8878055008E+00  5.7567435787E+00
                       5.8933648507E+00  8.8747464636E+00  5.7567435786E+00
                       5.8933648507E+00  2.9008645379E+00  5.7567435787E+00
                       2.6921838218E+00  5.8878055007E+00  5.7567435786E+00
                       6.2506335520E-02  6.3873578470E-13  6.7767406160E-13
            xcart1     5.5674014531E+00  5.5403663289E+00  5.5403663289E+00
                       1.6702249771E+01  1.6621053575E+01  1.6621053575E+01
                       1.1074522788E+01  1.1141012776E+01  5.0760306045E+00
                       1.1187384726E+01  1.1028150838E+01  1.6728223822E+01
                       1.7139504960E+01  1.1141012776E+01  1.1141012776E+01
                       1.1187384726E+01  1.6728223822E+01  1.1028150838E+01
                       1.1074522788E+01  5.0760306045E+00  1.1141012776E+01
                       5.4873117415E+00  1.1028150838E+01  1.1028150838E+01
                      -1.1404359171E-01  1.1404359171E-01  1.1404359171E-01
            xcart2     5.6243109036E+00  5.4834568594E+00  5.4834568594E+00
                       1.6759158297E+01  1.6564144992E+01  1.6564144992E+01
                       1.1139174970E+01  1.1076360556E+01  5.3762876148E+00
                       1.1252036558E+01  1.0963498968E+01  1.7028481056E+01
                       1.6839247911E+01  1.1076360556E+01  1.1076360556E+01
                       1.1252036558E+01  1.7028481056E+01  1.0963498968E+01
                       1.1139174970E+01  5.3762876148E+00  1.1076360556E+01
                       5.1870544695E+00  1.0963498968E+01  1.0963498968E+01
                       1.1404348190E-01 -1.1404348190E-01 -1.1404348190E-01
            xcart3     5.5631700547E+00  5.5376781791E+00  5.4393344551E+00
                       1.6689510164E+01  1.6660044816E+01  1.6318003365E+01
                       1.1126340109E+01  1.1073364162E+01  4.9669715442E+00
                       1.1126340109E+01  1.1073364162E+01  1.6790366276E+01
                       1.6770840673E+01  1.1107887552E+01  1.0878668910E+01
                       1.1126340109E+01  1.7157243147E+01  1.0878668910E+01
                       1.1126340109E+01  5.3795833519E+00  1.0878668910E+01
                       5.4818395464E+00  1.1107887552E+01  1.0878668910E+01
                      -3.6673383235E-14 -1.1811982682E-01  9.8891914171E-13
            xcart4     5.4393344093E+00  5.5631699228E+00  5.5846883473E+00
                       1.6318003228E+01  1.6689509768E+01  1.6707054836E+01
                       1.0878668819E+01  1.1126339845E+01  5.0874901238E+00
                       1.0878668819E+01  1.1126339846E+01  1.6865149720E+01
                       1.6790366066E+01  1.1126339845E+01  1.1171368913E+01
                       1.0878668819E+01  1.6770840168E+01  1.1136845602E+01
                       1.0878668819E+01  5.4818395236E+00  1.1136845601E+01
                       4.9669715711E+00  1.1126339846E+01  1.1171368913E+01
                      -3.9176524797E-13  2.4337497440E-12  1.1811985447E-01
            xcart5     5.4845416009E+00  5.4845416009E+00  5.6233090137E+00
                       1.6564159139E+01  1.6564159139E+01  1.6759392704E+01
                       1.0963191037E+01  1.0963191037E+01  5.1873890897E+00
                       1.1076291408E+01  1.1076291408E+01  1.6839555749E+01
                       1.7028312139E+01  1.0963191037E+01  1.1252510192E+01
                       1.0963191037E+01  1.7028312139E+01  1.1252510192E+01
                       1.1076291408E+01  5.3761454805E+00  1.1139409822E+01
                       5.3761454805E+00  1.1076291408E+01  1.1139409822E+01
                      -1.1417750447E-01 -1.1417750447E-01  1.1417750447E-01
            xcart6     5.5846883307E+00  5.5631699601E+00  5.4393343905E+00
                       1.6707054786E+01  1.6689509880E+01  1.6318003171E+01
                       1.1171368881E+01  1.1126339920E+01  4.9669715670E+00
                       1.1171368881E+01  1.1126339920E+01  1.6790365995E+01
                       1.6865149651E+01  1.1126339920E+01  1.0878668781E+01
                       1.1136845569E+01  1.6770840315E+01  1.0878668781E+01
                       1.1136845569E+01  5.4818395253E+00  1.0878668781E+01
                       5.0874901227E+00  1.1126339920E+01  1.0878668781E+01
                       1.1811985570E-01  1.2070357044E-12  1.2806183838E-12
             xred1     2.5195204358E-01  2.4934931881E-01  2.4934931881E-01
                       7.5584990502E-01  7.4805003166E-01  7.4805003166E-01
                       2.3500648239E-01  2.2432271221E-01  7.7033540270E-01
                       7.5718122472E-01  7.5638024414E-01  2.4321926557E-01
                       2.3500648239E-01  7.7033540270E-01  7.7033540270E-01
                       7.5718122472E-01  2.4321926557E-01  7.5638024414E-01
                       2.3500648239E-01  7.7033540270E-01  2.2432271221E-01
                       7.5718122472E-01  2.4321926557E-01  2.4321926557E-01
                       1.5634930093E-02 -5.2116433644E-03 -5.2116433644E-03
             xred2     2.4414997020E-01  2.5195000993E-01  2.5195000993E-01
                       7.4804793695E-01  7.5065068768E-01  7.5065068768E-01
                       2.4281878490E-01  2.4361975466E-01  7.5678073022E-01
                       7.6499355088E-01  7.7567727231E-01  2.2966458841E-01
                       2.4281878490E-01  7.5678073022E-01  7.5678073022E-01
                       7.6499355088E-01  2.2966458841E-01  7.7567727231E-01
                       2.4281878490E-01  7.5678073022E-01  2.4361975466E-01
                       7.6499355088E-01  2.2966458841E-01  2.2966458841E-01
                      -1.5634914481E-02  5.2116381603E-03  5.2116381603E-03
             xred3     2.4894333912E-01  2.5105666088E-01  2.4894333912E-01
                       7.4894333912E-01  7.5105666088E-01  7.4894333912E-01
                       2.2608660966E-01  2.3049236937E-01  7.6950763063E-01
                       7.6950763063E-01  7.7391339034E-01  2.2608660966E-01
                       2.4569423705E-01  7.5430576295E-01  7.5300396402E-01
                       7.7129462224E-01  2.2870537776E-01  7.7129462224E-01
                       2.4183627134E-01  7.5816372866E-01  2.4183627134E-01
                       7.5300396402E-01  2.4699603598E-01  2.4569423705E-01
                      -5.3100131777E-03  5.3100131777E-03 -5.3100131777E-03
             xred4     2.5105665925E-01  2.5105665925E-01  2.4894334075E-01
                       7.5105665925E-01  7.5105665925E-01  7.4894334075E-01
                       2.2870538068E-01  2.2870538068E-01  7.7129461932E-01
                       7.5816372969E-01  7.5816372969E-01  2.4183627031E-01
                       2.3049237028E-01  7.7391338494E-01  7.6950762972E-01
                       7.5430575938E-01  2.4699604205E-01  7.5300395795E-01
                       2.4699604205E-01  7.5430575938E-01  2.4569424062E-01
                       7.7391338494E-01  2.3049237028E-01  2.2608661506E-01
                       5.3100144914E-03  5.3100144914E-03 -5.3100144914E-03
             xred5     2.5190018738E-01  2.5190018738E-01  2.4429943787E-01
                       7.5064919345E-01  7.5064919345E-01  7.4805241966E-01
                       2.2967151419E-01  2.2967151419E-01  7.6496433122E-01
                       7.5678693641E-01  7.5678693641E-01  2.4280290939E-01
                       2.2967151419E-01  7.7569264040E-01  7.6496433122E-01
                       7.7569264040E-01  2.2967151419E-01  7.6496433122E-01
                       2.4362321779E-01  7.5678693641E-01  2.4280290939E-01
                       7.5678693641E-01  2.4362321779E-01  2.4280290939E-01
                       5.2178597858E-03  5.2178597858E-03 -1.5653579357E-02
             xred6     2.4894334075E-01  2.5105665925E-01  2.5105665925E-01
                       7.4894334075E-01  7.5105665925E-01  7.5105665925E-01
                       2.2608661563E-01  2.3049237092E-01  7.7391338437E-01
                       7.6950762908E-01  7.7391338437E-01  2.3049237092E-01
                       2.4183627116E-01  7.5816372884E-01  7.5816372884E-01
                       7.5300395949E-01  2.4699604051E-01  7.5430576099E-01
                       2.4569423901E-01  7.5430576099E-01  2.4699604051E-01
                       7.7129461869E-01  2.2870538131E-01  2.2870538131E-01
                      -5.3100145627E-03  5.3100145627E-03  5.3100145627E-03
            znucl       55.00000   53.00000   40.00000   35.00000

- Timing analysis has been suppressed with timopt=0

 Suggested references for the acknowledgment of ABINIT usage.

 Calculation completed.
.Delivered   0 WARNINGs and   0 COMMENTs to log file.