.Version 9.2.2 of ABINIT

 ABINIT is a project of the Universite Catholique de Louvain,
 Corning Inc. and other collaborators, see ~abinit/doc/developers/contributors.txt .
 acknowledgments of the ABINIT effort.

.Starting date : Thu 17 Nov 2022.
- ( at 09h31 )

- input  file    -> Cs2TiI6.in
- output file    -> Cs2TiI6.out
- root for input  files -> Cs2TiI6i
- root for output files -> Cs2TiI6o

- inpspheads : Reading pseudopotential header in XML form from
-   ../../../Psps_for_tests/ATOMICDATA/Cs.GGA_PBE-JTH.xml
- inpspheads : Reading pseudopotential header in XML form from
-   ../../../Psps_for_tests/ATOMICDATA/I.GGA_PBE-JTH.xml
- inpspheads : Reading pseudopotential header in XML form from
-   ../../../Psps_for_tests/ATOMICDATA/Hf.GGA_PBE-JTH.xml
- inpspheads : Reading pseudopotential header in XML form from
-   ../../../Psps_for_tests/ATOMICDATA/Cl.GGA_PBE-JTH.xml

 DATASET    1 : space group I4 m m (#107); Bravais tI (body-center tetrag.)
     intxc =       0    ionmov =       0      iscf =      17    lmnmax =      18
     lnmax =       6     mgfft =      54  mpssoang =       3    mqgrid =    3263
     natom =       9  nloc_mem =       2    nspden =       1   nspinor =       1
    nsppol =       1      nsym =       8    n1xccc =       1    ntypat =       4
    occopt =       1   xclevel =       2
-    mband =          42        mffmem =           1         mkmem =          21
       mpw =        6040          nfft =      157464          nkpt =         163
Pmy_natom=         2
 PAW method is used; the additional fine FFT grid is defined by:
   mgfftf=        90    nfftf =    729000
  Rough estimation (10% accuracy) of disk space for files :

[...]

 DATASET   10 : space group I4 m m (#107); Bravais tI (body-center tetrag.)
     intxc =       0    ionmov =       0      iscf =      17    lmnmax =      18
     lnmax =       6     mgfft =      54  mpssoang =       3    mqgrid =    3234
     natom =       9  nloc_mem =       2    nspden =       1   nspinor =       1
    nsppol =       1      nsym =       8    n1xccc =       1    ntypat =       4
    occopt =       1   xclevel =       2
-    mband =          42        mffmem =           1         mkmem =          21
       mpw =        5858          nfft =      157464          nkpt =         163
Pmy_natom=         2
 PAW method is used; the additional fine FFT grid is defined by:
   mgfftf=        90    nfftf =    729000
  Rough estimation (10% accuracy) of disk space for files :

------------- Echo of variables that govern the present computation ------------
-
- outvars: echo of selected default values
-   iomode0 =  0 , fftalg0 =112 , wfoptalg0 = 10
-
- outvars: echo of global parameters not present in the input file
-  max_nthreads =    0
-
 -outvars: echo values of preprocessed input variables --------
            acell1     1.3954825348E+01  1.4226742997E+01  1.3954825348E+01 Bohr
            acell2     1.3940967236E+01  1.4212246155E+01  1.3940967236E+01 Bohr
            acell3     1.3926955036E+01  1.4198105505E+01  1.3926955036E+01 Bohr
            acell4     1.3912442074E+01  1.4185123068E+01  1.3912442074E+01 Bohr
            acell5     1.3898852027E+01  1.4170005982E+01  1.3898852027E+01 Bohr
            acell6     1.3884295429E+01  1.4157124954E+01  1.3884295429E+01 Bohr
            acell7     1.3870707901E+01  1.4142001692E+01  1.3870707901E+01 Bohr
            acell8     1.3856824850E+01  1.4127562380E+01  1.3856824850E+01 Bohr
            acell9     1.3841898465E+01  1.4115538196E+01  1.3841898465E+01 Bohr
            acell10    1.3827364478E+01  1.4102607531E+01  1.3827364478E+01 Bohr
              amu      1.32905430E+02  1.26904470E+02  1.78490000E+02
                       3.54527000E+01
           diemac      1.20000000E+01
             ecut      1.60000000E+01 Hartree
-          fftalg         112
           istwfk        2    0    0    0    0    0    3    0    0    0
                         0    0    0    0    0    0    0    0    0    0
                         0    0    0    0    0    0    0    0    0    0
                         0    0    0    0    0    0    0    0    0    0
                         0    0    7    0    0    0    0    0    0    0
                       outvar_i_n : Printing only first  50 k-points.
              ixc     -101130
           jdtset        1    2    3    4    5    6    7    8    9   10
              kpt      0.00000000E+00  0.00000000E+00  0.00000000E+00
                       8.33333333E-02  0.00000000E+00  0.00000000E+00
                       1.66666667E-01  0.00000000E+00  0.00000000E+00
                       2.50000000E-01  0.00000000E+00  0.00000000E+00
                       3.33333333E-01  0.00000000E+00  0.00000000E+00
                       4.16666667E-01  0.00000000E+00  0.00000000E+00
                       5.00000000E-01  0.00000000E+00  0.00000000E+00
                       8.33333333E-02  8.33333333E-02  0.00000000E+00
                       1.66666667E-01  8.33333333E-02  0.00000000E+00
                       2.50000000E-01  8.33333333E-02  0.00000000E+00
                       3.33333333E-01  8.33333333E-02  0.00000000E+00
                       4.16666667E-01  8.33333333E-02  0.00000000E+00
                       5.00000000E-01  8.33333333E-02  0.00000000E+00
                      -4.16666667E-01  8.33333333E-02  0.00000000E+00
                      -3.33333333E-01  8.33333333E-02  0.00000000E+00
                      -2.50000000E-01  8.33333333E-02  0.00000000E+00
                      -1.66666667E-01  8.33333333E-02  0.00000000E+00
                      -8.33333333E-02  8.33333333E-02  0.00000000E+00
                       1.66666667E-01  1.66666667E-01  0.00000000E+00
                       2.50000000E-01  1.66666667E-01  0.00000000E+00
                       3.33333333E-01  1.66666667E-01  0.00000000E+00
                       4.16666667E-01  1.66666667E-01  0.00000000E+00
                       5.00000000E-01  1.66666667E-01  0.00000000E+00
                      -4.16666667E-01  1.66666667E-01  0.00000000E+00
                      -3.33333333E-01  1.66666667E-01  0.00000000E+00
                      -2.50000000E-01  1.66666667E-01  0.00000000E+00
                      -1.66666667E-01  1.66666667E-01  0.00000000E+00
                       2.50000000E-01  2.50000000E-01  0.00000000E+00
                       3.33333333E-01  2.50000000E-01  0.00000000E+00
                       4.16666667E-01  2.50000000E-01  0.00000000E+00
                       5.00000000E-01  2.50000000E-01  0.00000000E+00
                      -4.16666667E-01  2.50000000E-01  0.00000000E+00
                      -3.33333333E-01  2.50000000E-01  0.00000000E+00
                      -2.50000000E-01  2.50000000E-01  0.00000000E+00
                       3.33333333E-01  3.33333333E-01  0.00000000E+00
                       4.16666667E-01  3.33333333E-01  0.00000000E+00
                       5.00000000E-01  3.33333333E-01  0.00000000E+00
                      -4.16666667E-01  3.33333333E-01  0.00000000E+00
                      -3.33333333E-01  3.33333333E-01  0.00000000E+00
                       4.16666667E-01  4.16666667E-01  0.00000000E+00
                       5.00000000E-01  4.16666667E-01  0.00000000E+00
                      -4.16666667E-01  4.16666667E-01  0.00000000E+00
                       5.00000000E-01  5.00000000E-01  0.00000000E+00
                       8.33333333E-02  0.00000000E+00  8.33333333E-02
                       1.66666667E-01  0.00000000E+00  8.33333333E-02
                       2.50000000E-01  0.00000000E+00  8.33333333E-02
                       3.33333333E-01  0.00000000E+00  8.33333333E-02
                       4.16666667E-01  0.00000000E+00  8.33333333E-02
                       5.00000000E-01  0.00000000E+00  8.33333333E-02
                      -4.16666667E-01  0.00000000E+00  8.33333333E-02
                       outvar_i_n : Printing only first  50 k-points.
         kptrlatt       12    0    0      0   12    0      0    0   12
          kptrlen1     1.67457904E+02
          kptrlen2     1.67291607E+02
          kptrlen3     1.67123460E+02
          kptrlen4     1.66949305E+02
          kptrlen5     1.66786224E+02
          kptrlen6     1.66611545E+02
          kptrlen7     1.66448495E+02
          kptrlen8     1.66281898E+02
          kptrlen9     1.66102782E+02
          kptrlen10    1.65928374E+02
P           mkmem          21
            natom           9
            nband          42
           ndtset          10
            ngfft          54      54      54
          ngfftdg          90      90      90
             nkpt         163
            nstep        2500
             nsym           8
           ntypat           4
              occ      2.000000  2.000000  2.000000  2.000000  2.000000  2.000000
                       2.000000  2.000000  2.000000  2.000000  2.000000  2.000000
                       2.000000  2.000000  2.000000  2.000000  2.000000  2.000000
                       2.000000  2.000000  2.000000  2.000000  2.000000  2.000000
                       2.000000  2.000000  2.000000  2.000000  2.000000  2.000000
                       2.000000  2.000000  2.000000  2.000000  2.000000  2.000000
                       0.000000  0.000000  0.000000  0.000000  0.000000  0.000000
        pawecutdg      4.00000000E+01 Hartree
            prtwf           0
            rprim1     0.0000000000E+00  6.9305453748E-01  7.2088515596E-01
                       7.0710678119E-01  0.0000000000E+00  7.0710678119E-01
                       7.2088515596E-01  6.9305453748E-01  0.0000000000E+00
            rprim2     0.0000000000E+00  6.9307398879E-01  7.2086645508E-01
                       7.0710678119E-01  0.0000000000E+00  7.0710678119E-01
                       7.2086645508E-01  6.9307398879E-01  0.0000000000E+00
            rprim3     0.0000000000E+00  6.9306637292E-01  7.2087377725E-01
                       7.0710678119E-01  0.0000000000E+00  7.0710678119E-01
                       7.2087377725E-01  6.9306637292E-01  0.0000000000E+00
            rprim4     0.0000000000E+00  6.9297051191E-01  7.2096592819E-01
                       7.0710678119E-01  0.0000000000E+00  7.0710678119E-01
                       7.2096592819E-01  6.9297051191E-01  0.0000000000E+00
            rprim5     0.0000000000E+00  6.9303723401E-01  7.2090179101E-01
                       7.0710678119E-01  0.0000000000E+00  7.0710678119E-01
                       7.2090179101E-01  6.9303723401E-01  0.0000000000E+00
            rprim6     0.0000000000E+00  6.9293340924E-01  7.2100158832E-01
                       7.0710678119E-01  0.0000000000E+00  7.0710678119E-01
                       7.2100158832E-01  6.9293340924E-01  0.0000000000E+00
            rprim7     0.0000000000E+00  6.9300070099E-01  7.2093691016E-01
                       7.0710678119E-01  0.0000000000E+00  7.0710678119E-01
                       7.2093691016E-01  6.9300070099E-01  0.0000000000E+00
            rprim8     0.0000000000E+00  6.9301581576E-01  7.2092238078E-01
                       7.0710678119E-01  0.0000000000E+00  7.0710678119E-01
                       7.2092238078E-01  6.9301581576E-01  0.0000000000E+00
[...]
                      -4.7838631357E-13  8.0426103001E-02 -4.7838631357E-13
           xangst7     2.6458609853E+00  2.6019040736E+00  2.6458609853E+00
                       7.9375829560E+00  7.6885725233E+00  7.9375829560E+00
                       5.2917219707E+00  7.3977929870E+00  5.2917219707E+00
                       5.2917219707E+00  5.1012046205E+00  2.4492240813E+00
                       5.2917219707E+00  5.1012046205E+00  8.1342198600E+00
                       5.2917219707E+00  2.5197975954E+00  5.2917219707E+00
                       8.1342198600E+00  5.1012046205E+00  5.2917219707E+00
                       2.4492240813E+00  5.1012046205E+00  5.2917219707E+00
                      -5.6423339575E-13  8.0461935715E-02 -5.6423339575E-13
           xangst8     2.6431594999E+00  2.5992729207E+00  2.6431594999E+00
                       7.9294784997E+00  7.6809610077E+00  7.9294784997E+00
                       5.2863189999E+00  7.3891227734E+00  5.2863189999E+00
                       5.2863189999E+00  5.0959844412E+00  2.4489158030E+00
                       5.2863189998E+00  5.0959844412E+00  8.1237221967E+00
                       5.2863189998E+00  2.5197211067E+00  5.2863189998E+00
                       8.1237221967E+00  5.0959844412E+00  5.2863189998E+00
                       2.4489158030E+00  5.0959844412E+00  5.2863189999E+00
                       1.3860353328E-12  8.0489123026E-02  1.3860353328E-12
           xangst9     2.6409098665E+00  2.5955031539E+00  2.6409098665E+00
                       7.9227295994E+00  7.6704738133E+00  7.9227295994E+00
                       5.2818197330E+00  7.3771654812E+00  5.2818197330E+00
                       5.2818197330E+00  5.0891367466E+00  2.4486289381E+00
                       5.2818197330E+00  5.0891367466E+00  8.1150105278E+00
                       5.2818197330E+00  2.5195178768E+00  5.2818197330E+00
                       8.1150105278E+00  5.0891367466E+00  5.2818197330E+00
                       2.4486289381E+00  5.0891367466E+00  5.2818197330E+00
                       2.5321990898E-13  8.0557963710E-02  2.5321990898E-13
           xangst10    2.6384906374E+00  2.5920209505E+00  2.6384906374E+00
                       7.9154719122E+00  7.6609265054E+00  7.9154719122E+00
                       5.2769812748E+00  7.3664390941E+00  5.2769812748E+00
                       5.2769812749E+00  5.0828926715E+00  2.4483314398E+00
                       5.2769812748E+00  5.0828926715E+00  8.1056311098E+00
                       5.2769812748E+00  2.5195617007E+00  5.2769812748E+00
                       8.1056311098E+00  5.0828926715E+00  5.2769812748E+00
                       2.4483314398E+00  5.0828926715E+00  5.2769812749E+00
                       1.1613087402E-12  8.0725501912E-02  1.1613087402E-12
            xcart1     5.0299132237E+00  4.9493558909E+00  5.0299132237E+00
                       1.5089739671E+01  1.4620810918E+01  1.5089739671E+01
                       1.0059826447E+01  1.4083153805E+01  1.0059826447E+01
                       1.0059826447E+01  9.7010543947E+00  4.6317357941E+00
                       1.0059826447E+01  9.7010543947E+00  1.5487917101E+01
                       1.0059826447E+01  4.7628755066E+00  1.0059826447E+01
                       1.5487917101E+01  9.7010543947E+00  1.0059826447E+01
                       4.6317357941E+00  9.7010543947E+00  1.0059826447E+01
                      -3.0101413936E-13  1.5122651758E-01 -3.0101413936E-13
            xcart2     5.0247878160E+00  4.9444433161E+00  5.0247878160E+00
                       1.5074363448E+01  1.4606565086E+01  1.5074363448E+01
                       1.0049575632E+01  1.4066663110E+01  1.0049575632E+01
                       1.0049575632E+01  9.6912989024E+00  4.6311296520E+00
                       1.0049575632E+01  9.6912989024E+00  1.5468021612E+01
                       1.0049575632E+01  4.7627502576E+00  1.0049575632E+01
                       1.5468021612E+01  9.6912989024E+00  1.0049575632E+01
                       4.6311296520E+00  9.6912989024E+00  1.0049575632E+01
                      -2.6650906064E-12  1.5135677850E-01 -2.6650906064E-12
            xcart3     5.0197883413E+00  4.9390397088E+00  5.0197883413E+00
                       1.5059365024E+01  1.4591343921E+01  1.5059365024E+01
                       1.0039576682E+01  1.4049476256E+01  1.0039576682E+01
                       1.0039576682E+01  9.6810246447E+00  4.6305800673E+00
                       1.0039576683E+01  9.6810246447E+00  1.5448573298E+01
                       1.0039576683E+01  4.7628460562E+00  1.0039576683E+01
                       1.5448573298E+01  9.6810246447E+00  1.0039576683E+01
                       4.6305800673E+00  9.6810246447E+00  1.0039576682E+01
                      -1.9191850014E-12  1.5162917947E-01 -1.9191850014E-12
            xcart4     5.0151983567E+00  4.9322091920E+00  5.0151983567E+00
                       1.5045595070E+01  1.4573121298E+01  1.5045595070E+01
                       1.0030396713E+01  1.4029545275E+01  1.0030396713E+01
                       1.0030396713E+01  9.6695253654E+00  4.6301320472E+00
                       1.0030396713E+01  9.6695253654E+00  1.5430661379E+01
                       1.0030396713E+01  4.7625045012E+00  1.0030396713E+01
                       1.5430661379E+01  9.6695253654E+00  1.0030396713E+01
                       4.6301320472E+00  9.6695253654E+00  1.0030396713E+01
                      -9.9583617591E-13  1.5181511930E-01 -9.9583617591E-13
            xcart5     5.0098536597E+00  4.9278642691E+00  5.0098536597E+00
                       1.5029560979E+01  1.4560286234E+01  1.5029560979E+01
                       1.0019707319E+01  1.4014779067E+01  1.0019707319E+01
                       1.0019707319E+01  9.6606073457E+00  4.6295462953E+00
                       1.0019707319E+01  9.6606073457E+00  1.5409868343E+01
                       1.0019707319E+01  4.7621896486E+00  1.0019707319E+01
                       1.5409868343E+01  9.6606073457E+00  1.0019707319E+01
                       4.6295462953E+00  9.6606073457E+00  1.0019707319E+01
                      -1.0071834618E-12  1.5182711621E-01 -1.0071834618E-12
            xcart6     5.0052995285E+00  4.9212493294E+00  5.0052995285E+00
                       1.5015898586E+01  1.4542141496E+01  1.5015898586E+01
                       1.0010599057E+01  1.3994439768E+01  1.0010599057E+01
                       1.0010599057E+01  9.6488449242E+00  4.6290228746E+00
                       1.0010599057E+01  9.6488449242E+00  1.5392175240E+01
                       1.0010599057E+01  4.7619437327E+00  1.0010599057E+01
                       1.5392175240E+01  9.6488449242E+00  1.0010599057E+01
                       4.6290228746E+00  9.6488449242E+00  1.0010599057E+01
                      -9.0401911837E-13  1.5198330861E-01 -9.0401911837E-13
            xcart7     4.9999526480E+00  4.9168861232E+00  4.9999526480E+00
                       1.4999857944E+01  1.4529296422E+01  1.4999857944E+01
                       9.9999052959E+00  1.3979802733E+01  9.9999052959E+00
                       9.9999052959E+00  9.6398796806E+00  4.6283627518E+00
                       9.9999052960E+00  9.6398796806E+00  1.5371447840E+01
                       9.9999052960E+00  4.7617273657E+00  9.9999052960E+00
                       1.5371447840E+01  9.6398796806E+00  9.9999052960E+00
                       4.6283627518E+00  9.6398796806E+00  9.9999052959E+00
                      -1.0662465930E-12  1.5205102262E-01 -1.0662465930E-12
            xcart8     4.9948475804E+00  4.9119139647E+00  4.9948475804E+00
                       1.4984542741E+01  1.4514912742E+01  1.4984542741E+01
                       9.9896951608E+00  1.3963418404E+01  9.9896951608E+00
                       9.9896951608E+00  9.6300149712E+00  4.6277801901E+00
                       9.9896951607E+00  9.6300149712E+00  1.5351610131E+01
                       9.9896951607E+00  4.7615828229E+00  9.9896951607E+00
                       1.5351610131E+01  9.6300149712E+00  9.9896951607E+00
                       4.6277801901E+00  9.6300149712E+00  9.9896951608E+00
                       2.6192271895E-12  1.5210239920E-01  2.6192271895E-12
            xcart9     4.9905963893E+00  4.9047901379E+00  4.9905963893E+00
                       1.4971789168E+01  1.4495094817E+01  1.4971789168E+01
                       9.9811927786E+00  1.3940822396E+01  9.9811927786E+00
                       9.9811927786E+00  9.6170747038E+00  4.6272380941E+00
                       9.9811927786E+00  9.6170747038E+00  1.5335147463E+01
                       9.9811927786E+00  4.7611987741E+00  9.9811927786E+00
                       1.5335147463E+01  9.6170747038E+00  9.9811927786E+00
                       4.6272380941E+00  9.6170747038E+00  9.9811927786E+00
                       4.7851627937E-13  1.5223248923E-01  4.7851627937E-13
            xcart10    4.9860247089E+00  4.8982097272E+00  4.9860247089E+00
                       1.4958074127E+01  1.4477053019E+01  1.4958074127E+01
                       9.9720494178E+00  1.3920552463E+01  9.9720494178E+00
                       9.9720494178E+00  9.6052751119E+00  4.6266759038E+00
                       9.9720494177E+00  9.6052751119E+00  1.5317422932E+01
                       9.9720494177E+00  4.7612815892E+00  9.9720494177E+00
                       1.5317422932E+01  9.6052751119E+00  9.9720494177E+00
                       4.6266759038E+00  9.6052751119E+00  9.9720494178E+00
                       2.1945554747E-12  1.5254909055E-01  2.1945554747E-12
             xred1     2.5587441998E-01  2.4412558002E-01  2.5587441998E-01
                       7.5587441998E-01  7.4412558002E-01  7.5587441998E-01
                       7.2807833802E-01  2.7192166198E-01  7.2807833802E-01
                       2.3173977165E-01  2.2867928412E-01  7.7132071588E-01
                       7.7132071588E-01  7.6826022835E-01  2.3173977165E-01
                       2.4623365839E-01  7.5376634161E-01  2.4623365839E-01
                       2.3173977165E-01  7.6826022835E-01  7.7132071588E-01
                       7.7132071588E-01  2.2867928412E-01  2.3173977165E-01
                       7.8181885330E-03 -7.8181885330E-03  7.8181885330E-03
             xred2     2.5586736712E-01  2.4413263288E-01  2.5586736712E-01
                       7.5586736712E-01  7.4413263288E-01  7.5586736712E-01
                       7.2792826696E-01  2.7207173304E-01  7.2792826696E-01
                       2.3192406161E-01  2.2890431778E-01  7.7109568222E-01
                       7.7109568222E-01  7.6807593839E-01  2.3192406161E-01
                       2.4646502968E-01  7.5353497032E-01  2.4646502968E-01
                       2.3192406161E-01  7.6807593839E-01  7.7109568222E-01
                       7.7109568222E-01  2.2890431778E-01  2.3192406161E-01
                       7.8324814210E-03 -7.8324814210E-03  7.8324814210E-03
             xred3     2.5584770227E-01  2.4415229773E-01  2.5584770227E-01
                       7.5584770227E-01  7.4415229773E-01  7.5584770227E-01
                       7.2777835979E-01  2.7222164021E-01  7.2777835979E-01
                       2.3210405060E-01  2.2912855051E-01  7.7087144949E-01
                       7.7087144949E-01  7.6789594940E-01  2.3210405060E-01
                       2.4672067681E-01  7.5327932319E-01  2.4672067681E-01
                       2.3210405060E-01  7.6789594940E-01  7.7087144949E-01
                       7.7087144949E-01  2.2912855051E-01  2.3210405060E-01
                       7.8545586694E-03 -7.8545586694E-03  7.8545586694E-03
             xred4     2.5579577626E-01  2.4420422374E-01  2.5579577626E-01
                       7.5579577626E-01  7.4420422374E-01  7.5579577626E-01
                       7.2760466651E-01  2.7239533349E-01  7.2760466651E-01
                       2.3228898074E-01  2.2932108111E-01  7.7067891889E-01
                       7.7067891889E-01  7.6771101926E-01  2.3228898074E-01
                       2.4699449849E-01  7.5300550151E-01  2.4699449849E-01
                       2.3228898074E-01  7.6771101926E-01  7.7067891889E-01
                       7.7067891889E-01  2.2932108111E-01  2.3228898074E-01
                       7.8734832155E-03 -7.8734832155E-03  7.8734832155E-03
             xred5     2.5579570160E-01  2.4420429840E-01  2.5579570160E-01
                       7.5579570160E-01  7.4420429840E-01  7.5579570160E-01
                       7.2747950194E-01  2.7252049806E-01  7.2747950194E-01
                       2.3248507973E-01  2.2955898481E-01  7.7044101519E-01
                       7.7044101519E-01  7.6751492027E-01  2.3248507973E-01
                       2.4719585926E-01  7.5280414074E-01  2.4719585926E-01
                       2.3248507973E-01  7.6751492027E-01  7.7044101519E-01
                       7.7044101519E-01  2.2955898481E-01  2.3248507973E-01
                       7.8810457417E-03 -7.8810457417E-03  7.8810457417E-03
             xred6     2.5575847043E-01  2.4424152957E-01  2.5575847043E-01
                       7.5575847043E-01  7.4424152957E-01  7.5575847043E-01
                       7.2729428443E-01  2.7270571557E-01  7.2729428443E-01
                       2.3265879839E-01  2.2975337577E-01  7.7024662423E-01
                       7.7024662423E-01  7.6734120161E-01  2.3265879839E-01
                       2.4747932158E-01  7.5252067842E-01  2.4747932158E-01
                       2.3265879839E-01  7.6734120161E-01  7.7024662423E-01
                       7.7024662423E-01  2.2975337577E-01  2.3265879839E-01
                       7.8986078410E-03 -7.8986078410E-03  7.8986078410E-03
             xred7     2.5575719151E-01  2.4424280849E-01  2.5575719151E-01
                       7.5575719151E-01  7.4424280849E-01  7.5575719151E-01
                       7.2717467830E-01  2.7282532170E-01  7.2717467830E-01
                       2.3284917908E-01  2.2999147939E-01  7.7000852061E-01
                       7.7000852061E-01  7.6715082092E-01  2.3284917908E-01
                       2.4768643960E-01  7.5231356040E-01  2.4768643960E-01
                       2.3284917908E-01  7.6715082092E-01  7.7000852061E-01
                       7.7000852061E-01  2.2999147939E-01  2.3284917908E-01
                       7.9090996899E-03 -7.9090996899E-03  7.9090996899E-03
             xred8     2.5574896335E-01  2.4425103665E-01  2.5574896335E-01
                       7.5574896335E-01  7.4425103665E-01  7.5574896335E-01
                       7.2703426960E-01  2.7296573040E-01  7.2703426960E-01
                       2.3303435216E-01  2.3022104409E-01  7.6977895591E-01
                       7.6977895591E-01  7.6696564784E-01  2.3303435216E-01
                       2.4792166142E-01  7.5207833858E-01  2.4792166142E-01
                       2.3303435216E-01  7.6696564784E-01  7.6977895591E-01
                       7.6977895591E-01  2.3022104409E-01  2.3303435216E-01
                       7.9195261149E-03 -7.9195261149E-03  7.9195261149E-03
             xred9     2.5571607484E-01  2.4428392516E-01  2.5571607484E-01
                       7.5571607484E-01  7.4428392516E-01  7.5571607484E-01
                       7.2681853515E-01  2.7318146485E-01  7.2681853515E-01
                       2.3319353374E-01  2.3040217038E-01  7.6959782962E-01
                       7.6959782962E-01  7.6680646626E-01  2.3319353374E-01
                       2.4822979736E-01  7.5177020264E-01  2.4822979736E-01
                       2.3319353374E-01  7.6680646626E-01  7.6959782962E-01
                       7.6959782962E-01  2.3040217038E-01  2.3319353374E-01
                       7.9367910788E-03 -7.9367910788E-03  7.9367910788E-03
             xred10    2.5567856044E-01  2.4432143956E-01  2.5567856044E-01
                       7.5567856044E-01  7.4432143956E-01  7.5567856044E-01
                       7.2663013884E-01  2.7336986116E-01  7.2663013884E-01
                       2.3336189684E-01  2.3060250105E-01  7.6939749895E-01
                       7.6939749895E-01  7.6663810316E-01  2.3336189684E-01
                       2.4853113492E-01  7.5146886508E-01  2.4853113492E-01
                       2.3336189684E-01  7.6663810316E-01  7.6939749895E-01
                       7.6939749895E-01  2.3060250105E-01  2.3336189684E-01
                       7.9628137710E-03 -7.9628137710E-03  7.9628137710E-03
            znucl       55.00000   53.00000   72.00000   17.00000

- Timing analysis has been suppressed with timopt=0

 Suggested references for the acknowledgment of ABINIT usage.

 Calculation completed.
.Delivered   0 WARNINGs and  20 COMMENTs to log file.