.Version 9.2.2 of ABINIT

 ABINIT is a project of the Universite Catholique de Louvain,
 Corning Inc. and other collaborators, see ~abinit/doc/developers/contributors.txt .
 acknowledgments of the ABINIT effort.

.Starting date : Fri 25 Nov 2022.
- ( at 11h30 )

- input  file    -> Cs2TiI6.in
- output file    -> Cs2TiI6.out
- root for input  files -> Cs2TiI6i
- root for output files -> Cs2TiI6o

- inpspheads : Reading pseudopotential header in XML form from
-   ../../../Psps_for_tests/ATOMICDATA/Cs.GGA_PBE-JTH.xml
- inpspheads : Reading pseudopotential header in XML form from
-   ../../../Psps_for_tests/ATOMICDATA/I.GGA_PBE-JTH.xml
- inpspheads : Reading pseudopotential header in XML form from
-   ../../../Psps_for_tests/ATOMICDATA/Zr.GGA_PBE-JTH.xml
- inpspheads : Reading pseudopotential header in XML form from
-   ../../../Psps_for_tests/ATOMICDATA/Br.GGA_PBE-JTH.xml

 DATASET    1 : space group I4/m m m (#139); Bravais tI (body-center tetrag.)
     intxc =       0    ionmov =       0      iscf =      17    lmnmax =      18
     lnmax =       6     mgfft =      60  mpssoang =       3    mqgrid =    3630
     natom =       9  nloc_mem =       2    nspden =       1   nspinor =       1
    nsppol =       1      nsym =      16    n1xccc =       1    ntypat =       4
    occopt =       1   xclevel =       2
-    mband =          42        mffmem =           1         mkmem =          28
       mpw =        8276          nfft =      216000          nkpt =         163
Pmy_natom=         2
 PAW method is used; the additional fine FFT grid is defined by:
   mgfftf=        90    nfftf =    729000
  Rough estimation (10% accuracy) of disk space for files :

[...]

 DATASET    9 : space group I4/m m m (#139); Bravais tI (body-center tetrag.)
     intxc =       0    ionmov =       0      iscf =      17    lmnmax =      18
     lnmax =       6     mgfft =      54  mpssoang =       3    mqgrid =    3335
     natom =       9  nloc_mem =       2    nspden =       1   nspinor =       1
    nsppol =       1      nsym =      16    n1xccc =       1    ntypat =       4
    occopt =       1   xclevel =       2
-    mband =          42        mffmem =           1         mkmem =          28
       mpw =        6424          nfft =      157464          nkpt =         163
Pmy_natom=         2
 PAW method is used; the additional fine FFT grid is defined by:
   mgfftf=        90    nfftf =    729000
  Rough estimation (10% accuracy) of disk space for files :

------------- Echo of variables that govern the present computation ------------
-
- outvars: echo of selected default values
-   iomode0 =  0 , fftalg0 =112 , wfoptalg0 = 10
-
- outvars: echo of global parameters not present in the input file
-  max_nthreads =    0
-
 -outvars: echo values of preprocessed input variables --------
            acell1     1.5528347870E+01  1.5528347870E+01  1.5806767879E+01 Bohr
            acell2     1.5368855168E+01  1.5368855168E+01  1.5653147700E+01 Bohr
            acell3     1.5207924617E+01  1.5207924617E+01  1.5502872825E+01 Bohr
            acell4     1.5047985349E+01  1.5047985349E+01  1.5350361965E+01 Bohr
            acell5     1.4885509691E+01  1.4885509691E+01  1.5203832486E+01 Bohr
            acell6     1.4723726215E+01  1.4723726215E+01  1.5055804606E+01 Bohr
            acell7     1.4561807255E+01  1.4561807255E+01  1.4908217945E+01 Bohr
            acell8     1.4399083650E+01  1.4399083650E+01  1.4762709398E+01 Bohr
            acell9     1.4236834420E+01  1.4236834420E+01  1.4616222448E+01 Bohr
              amu      1.32905430E+02  1.26904470E+02  9.12240000E+01
                       7.99040000E+01
           diemac      1.20000000E+01
             ecut      1.60000000E+01 Hartree
-          fftalg         112
           istwfk        2    0    0    0    0    0    3    0    0    0
                         0    0    0    0    0    0    0    0    0    0
                         0    0    0    0    0    0    0    0    0    0
                         0    0    0    0    0    0    0    0    0    0
                         0    0    7    0    0    0    0    0    0    0
                       outvar_i_n : Printing only first  50 k-points.
              ixc     -101130
           jdtset        1    2    3    4    5    6    7    8    9
              kpt      0.00000000E+00  0.00000000E+00  0.00000000E+00
                       8.33333333E-02  0.00000000E+00  0.00000000E+00
                       1.66666667E-01  0.00000000E+00  0.00000000E+00
                       2.50000000E-01  0.00000000E+00  0.00000000E+00
                       3.33333333E-01  0.00000000E+00  0.00000000E+00
                       4.16666667E-01  0.00000000E+00  0.00000000E+00
                       5.00000000E-01  0.00000000E+00  0.00000000E+00
                       8.33333333E-02  8.33333333E-02  0.00000000E+00
                       1.66666667E-01  8.33333333E-02  0.00000000E+00
                       2.50000000E-01  8.33333333E-02  0.00000000E+00
                       3.33333333E-01  8.33333333E-02  0.00000000E+00
                       4.16666667E-01  8.33333333E-02  0.00000000E+00
                       5.00000000E-01  8.33333333E-02  0.00000000E+00
                      -4.16666667E-01  8.33333333E-02  0.00000000E+00
                      -3.33333333E-01  8.33333333E-02  0.00000000E+00
                      -2.50000000E-01  8.33333333E-02  0.00000000E+00
                      -1.66666667E-01  8.33333333E-02  0.00000000E+00
                      -8.33333333E-02  8.33333333E-02  0.00000000E+00
                       1.66666667E-01  1.66666667E-01  0.00000000E+00
                       2.50000000E-01  1.66666667E-01  0.00000000E+00
                       3.33333333E-01  1.66666667E-01  0.00000000E+00
                       4.16666667E-01  1.66666667E-01  0.00000000E+00
                       5.00000000E-01  1.66666667E-01  0.00000000E+00
                      -4.16666667E-01  1.66666667E-01  0.00000000E+00
                      -3.33333333E-01  1.66666667E-01  0.00000000E+00
                      -2.50000000E-01  1.66666667E-01  0.00000000E+00
                      -1.66666667E-01  1.66666667E-01  0.00000000E+00
                       2.50000000E-01  2.50000000E-01  0.00000000E+00
                       3.33333333E-01  2.50000000E-01  0.00000000E+00
                       4.16666667E-01  2.50000000E-01  0.00000000E+00
                       5.00000000E-01  2.50000000E-01  0.00000000E+00
                      -4.16666667E-01  2.50000000E-01  0.00000000E+00
                      -3.33333333E-01  2.50000000E-01  0.00000000E+00
                      -2.50000000E-01  2.50000000E-01  0.00000000E+00
                       3.33333333E-01  3.33333333E-01  0.00000000E+00
                       4.16666667E-01  3.33333333E-01  0.00000000E+00
                       5.00000000E-01  3.33333333E-01  0.00000000E+00
                      -4.16666667E-01  3.33333333E-01  0.00000000E+00
                      -3.33333333E-01  3.33333333E-01  0.00000000E+00
                       4.16666667E-01  4.16666667E-01  0.00000000E+00
                       5.00000000E-01  4.16666667E-01  0.00000000E+00
                      -4.16666667E-01  4.16666667E-01  0.00000000E+00
                       5.00000000E-01  5.00000000E-01  0.00000000E+00
                       8.33333333E-02  0.00000000E+00  8.33333333E-02
                       1.66666667E-01  0.00000000E+00  8.33333333E-02
                       2.50000000E-01  0.00000000E+00  8.33333333E-02
                       3.33333333E-01  0.00000000E+00  8.33333333E-02
                       4.16666667E-01  0.00000000E+00  8.33333333E-02
                       5.00000000E-01  0.00000000E+00  8.33333333E-02
                      -4.16666667E-01  0.00000000E+00  8.33333333E-02
                       outvar_i_n : Printing only first  50 k-points.
         kptrlatt       12    0    0      0   12    0      0    0   12
          kptrlen1     1.86340174E+02
          kptrlen2     1.84426262E+02
          kptrlen3     1.82495095E+02
          kptrlen4     1.80575824E+02
          kptrlen5     1.78626116E+02
          kptrlen6     1.76684715E+02
          kptrlen7     1.74741687E+02
          kptrlen8     1.72789004E+02
          kptrlen9     1.70842013E+02
P           mkmem          28
            natom           9
            nband          42
           ndtset           9
            ngfft1         60      60      60
            ngfft2         60      60      60
            ngfft3         60      60      60
            ngfft4         60      60      60
            ngfft5         60      60      60
            ngfft6         60      60      60
            ngfft7         54      54      54
            ngfft8         54      54      54
            ngfft9         54      54      54
          ngfftdg          90      90      90
             nkpt         163
            nstep        2500
             nsym          16
           ntypat           4
              occ      2.000000  2.000000  2.000000  2.000000  2.000000  2.000000
                       2.000000  2.000000  2.000000  2.000000  2.000000  2.000000
                       2.000000  2.000000  2.000000  2.000000  2.000000  2.000000
                       2.000000  2.000000  2.000000  2.000000  2.000000  2.000000
                       2.000000  2.000000  2.000000  2.000000  2.000000  2.000000
                       2.000000  2.000000  2.000000  2.000000  2.000000  2.000000
                       0.000000  0.000000  0.000000  0.000000  0.000000  0.000000
        pawecutdg      4.00000000E+01 Hartree
            prtwf           0
            rprim1     0.0000000000E+00  7.1978505694E-01  6.9419699784E-01
                       7.1978505694E-01  0.0000000000E+00  6.9419699784E-01
                       7.0710678119E-01  7.0710678119E-01  0.0000000000E+00
            rprim2     0.0000000000E+00  7.2018681707E-01  6.9378018747E-01
                       7.2018681707E-01  0.0000000000E+00  6.9378018747E-01
                       7.0710678119E-01  7.0710678119E-01  0.0000000000E+00
            rprim3     0.0000000000E+00  7.2082067598E-01  6.9312160050E-01
                       7.2082067598E-01  0.0000000000E+00  6.9312160050E-01
                       7.0710678119E-01  7.0710678119E-01  0.0000000000E+00
            rprim4     0.0000000000E+00  7.2131549753E-01  6.9260663657E-01
                       7.2131549753E-01  0.0000000000E+00  6.9260663657E-01
                       7.0710678119E-01  7.0710678119E-01  0.0000000000E+00
            rprim5     0.0000000000E+00  7.2222807777E-01  6.9165497445E-01
                       7.2222807777E-01  0.0000000000E+00  6.9165497445E-01
                       7.0710678119E-01  7.0710678119E-01  0.0000000000E+00
            rprim6     0.0000000000E+00  7.2305484208E-01  6.9079063061E-01
                       7.2305484208E-01  0.0000000000E+00  6.9079063061E-01
                       7.0710678119E-01  7.0710678119E-01  0.0000000000E+00
            rprim7     0.0000000000E+00  7.2392813743E-01  6.8987538863E-01
                       7.2392813743E-01  0.0000000000E+00  6.8987538863E-01
[...]
                       0.0000000000E+00  0.0000000000E+00  0.0000000000E+00
           xangst4     2.8719360044E+00  2.8719360044E+00  2.7576309441E+00
                       8.6158080132E+00  8.6158080132E+00  8.2728928322E+00
                       5.7438720089E+00  5.7438720089E+00  2.6140348108E+00
                       5.7438720088E+00  5.7438720088E+00  8.4164889655E+00
                       8.6118847135E+00  5.7438720089E+00  5.5152618881E+00
                       5.7438720089E+00  8.6118847135E+00  5.5152618881E+00
                       5.7438720088E+00  2.8758593041E+00  5.5152618881E+00
                       2.8758593041E+00  5.7438720088E+00  5.5152618881E+00
                       1.1070871301E-21  2.2339182295E-21 -3.9598193612E-21
           xangst5     2.8445214531E+00  2.8445214531E+00  2.7241081779E+00
                       8.5335643592E+00  8.5335643592E+00  8.1723245336E+00
                       5.6890429062E+00  5.6890429062E+00  2.6105947143E+00
                       5.6890429061E+00  5.6890429061E+00  8.2858379971E+00
                       8.5101859507E+00  5.6890429062E+00  5.4482163557E+00
                       5.6890429062E+00  8.5101859507E+00  5.4482163557E+00
                       5.6890429061E+00  2.8678998616E+00  5.4482163557E+00
                       2.8678998616E+00  5.6890429061E+00  5.4482163557E+00
                       3.1794138849E-22 -3.0725210513E-22 -5.5884783060E-23
           xangst6     2.8168265623E+00  2.8168265623E+00  2.6911339003E+00
                       8.4504796869E+00  8.4504796869E+00  8.0734017009E+00
                       5.6336531246E+00  5.6336531246E+00  2.6061718534E+00
                       5.6336531246E+00  5.6336531246E+00  8.1583637478E+00
                       8.4086948747E+00  5.6336531246E+00  5.3822678006E+00
                       5.6336531246E+00  8.4086948747E+00  5.3822678006E+00
                       5.6336531246E+00  2.8586113745E+00  5.3822678006E+00
                       2.8586113745E+00  5.6336531246E+00  5.3822678006E+00
                       4.3502369704E-21 -3.3095015168E-21 -1.0994993173E-22
           xangst7     2.7892142201E+00  2.7892142201E+00  2.6580127841E+00
                       8.3676426604E+00  8.3676426604E+00  7.9740383522E+00
                       5.5784284404E+00  5.5784284404E+00  2.6009456252E+00
                       5.5784284402E+00  5.5784284402E+00  8.0311055111E+00
                       8.3086669595E+00  5.5784284404E+00  5.3160255681E+00
                       5.5784284404E+00  8.3086669595E+00  5.3160255681E+00
                       5.5784284402E+00  2.8481899211E+00  5.3160255681E+00
                       2.8481899211E+00  5.5784284402E+00  5.3160255681E+00
                       1.4794838460E-21 -1.2104395941E-21  2.4471591819E-22
           xangst8     2.7619906774E+00  2.7619906774E+00  2.6241643212E+00
                       8.2859720323E+00  8.2859720323E+00  7.8724929637E+00
                       5.5239813549E+00  5.5239813549E+00  2.5944005232E+00
                       5.5239813548E+00  5.5239813548E+00  7.9022567617E+00
                       8.2115248477E+00  5.5239813549E+00  5.2483286424E+00
                       5.5239813549E+00  8.2115248477E+00  5.2483286424E+00
                       5.5239813548E+00  2.8364378620E+00  5.2483286424E+00
                       2.8364378620E+00  5.5239813548E+00  5.2483286424E+00
                      -1.8827181295E-21  4.1840538999E-21 -1.0248482570E-20
           xangst9     2.7345840830E+00  2.7345840830E+00  2.5906788220E+00
                       8.2037522491E+00  8.2037522491E+00  7.7720364659E+00
                       5.4691681660E+00  5.4691681660E+00  2.5865860731E+00
                       5.4691681661E+00  5.4691681661E+00  7.7761292148E+00
                       8.1150453721E+00  5.4691681660E+00  5.1813576439E+00
                       5.4691681660E+00  8.1150453721E+00  5.1813576439E+00
                       5.4691681661E+00  2.8232909600E+00  5.1813576439E+00
                       2.8232909600E+00  5.4691681661E+00  5.1813576439E+00
                       1.3471744478E-21 -1.5067858449E-21 -9.6180574341E-22
            xcart1     5.5885363779E+00  5.5885363779E+00  5.3898662364E+00
                       1.6765609134E+01  1.6765609134E+01  1.6169598709E+01
                       1.1177072756E+01  1.1177072756E+01  4.9510040144E+00
                       1.1177072756E+01  1.1177072756E+01  1.6608460931E+01
                       1.6884962008E+01  1.1177072756E+01  1.0779732473E+01
                       1.1177072756E+01  1.6884962008E+01  1.0779732473E+01
                       1.1177072756E+01  5.4691835032E+00  1.0779732473E+01
                       5.4691835032E+00  1.1177072756E+01  1.0779732473E+01
                       0.0000000000E+00  0.0000000000E+00  0.0000000000E+00
            xcart2     5.5342234428E+00  5.5342234428E+00  5.3313036098E+00
                       1.6602670328E+01  1.6602670328E+01  1.5993910829E+01
                       1.1068446886E+01  1.1068446886E+01  4.9481845010E+00
                       1.1068446885E+01  1.1068446885E+01  1.6377029938E+01
                       1.6677803068E+01  1.1068446886E+01  1.0662607220E+01
                       1.1068446886E+01  1.6677803068E+01  1.0662607220E+01
                       1.1068446885E+01  5.4590907033E+00  1.0662607220E+01
                       5.4590907033E+00  1.1068446885E+01  1.0662607220E+01
                       4.5203862234E-21 -1.7668444595E-21 -1.0772522715E-21
            xcart3     5.4810932513E+00  5.4810932513E+00  5.2704705254E+00
                       1.6443279754E+01  1.6443279754E+01  1.5811411576E+01
                       1.0962186503E+01  1.0962186503E+01  4.9446131569E+00
                       1.0962186503E+01  1.0962186503E+01  1.6137268945E+01
                       1.6476462259E+01  1.0962186503E+01  1.0540941051E+01
                       1.0962186503E+01  1.6476462259E+01  1.0540941051E+01
                       1.0962186503E+01  5.4479107461E+00  1.0540941051E+01
                       5.4479107461E+00  1.0962186503E+01  1.0540941051E+01
                       0.0000000000E+00  0.0000000000E+00  0.0000000000E+00
            xcart4     5.4271725195E+00  5.4271725195E+00  5.2111672599E+00
                       1.6281517559E+01  1.6281517559E+01  1.5633501780E+01
                       1.0854345039E+01  1.0854345039E+01  4.9398098942E+00
                       1.0854345039E+01  1.0854345039E+01  1.5904859145E+01
                       1.6274103596E+01  1.0854345039E+01  1.0422334520E+01
                       1.0854345039E+01  1.6274103596E+01  1.0422334520E+01
                       1.0854345039E+01  5.4345864815E+00  1.0422334520E+01
                       5.4345864815E+00  1.0854345039E+01  1.0422334520E+01
                       2.0920914812E-21  4.2214936571E-21 -7.4829741284E-21
            xcart5     5.3753665254E+00  5.3753665254E+00  5.1478184125E+00
                       1.6126099576E+01  1.6126099576E+01  1.5443455238E+01
                       1.0750733051E+01  1.0750733051E+01  4.9333090540E+00
                       1.0750733051E+01  1.0750733051E+01  1.5657964596E+01
                       1.6081920787E+01  1.0750733051E+01  1.0295636825E+01
                       1.0750733051E+01  1.6081920787E+01  1.0295636825E+01
                       1.0750733051E+01  5.4195453150E+00  1.0295636825E+01
                       5.4195453150E+00  1.0750733051E+01  1.0295636825E+01
                       6.0082215056E-22 -5.8062233246E-22 -1.0560693498E-22
            xcart6     5.3230307666E+00  5.3230307666E+00  5.0855060585E+00
                       1.5969092300E+01  1.5969092300E+01  1.5256518175E+01
                       1.0646061533E+01  1.0646061533E+01  4.9249510581E+00
                       1.0646061533E+01  1.0646061533E+01  1.5417073176E+01
                       1.5890130448E+01  1.0646061533E+01  1.0171012117E+01
                       1.0646061533E+01  1.5890130448E+01  1.0171012117E+01
                       1.0646061533E+01  5.4019926182E+00  1.0171012117E+01
                       5.4019926182E+00  1.0646061533E+01  1.0171012117E+01
                       8.2207564872E-21 -6.2540515030E-21 -2.0777525929E-22
            xcart7     5.2708510020E+00  5.2708510020E+00  5.0229162196E+00
                       1.5812553006E+01  1.5812553006E+01  1.5068748659E+01
                       1.0541702004E+01  1.0541702004E+01  4.9150749182E+00
                       1.0541702004E+01  1.0541702004E+01  1.5176589960E+01
                       1.5701105083E+01  1.0541702004E+01  1.0045832439E+01
                       1.0541702004E+01  1.5701105083E+01  1.0045832439E+01
                       1.0541702004E+01  5.3822989254E+00  1.0045832439E+01
                       5.3822989254E+00  1.0541702004E+01  1.0045832439E+01
                       2.7958192869E-21 -2.2873993332E-21  4.6244606574E-22
            xcart8     5.2194059619E+00  5.2194059619E+00  4.9589518948E+00
                       1.5658217886E+01  1.5658217886E+01  1.4876855684E+01
                       1.0438811924E+01  1.0438811924E+01  4.9027064678E+00
                       1.0438811924E+01  1.0438811924E+01  1.4933101111E+01
                       1.5517533096E+01  1.0438811924E+01  9.9179037896E+00
                       1.0438811924E+01  1.5517533096E+01  9.9179037896E+00
                       1.0438811924E+01  5.3600907522E+00  9.9179037896E+00
                       5.3600907522E+00  1.0438811924E+01  9.9179037896E+00
                      -3.5578216501E-21  7.9067159960E-21 -1.9366825336E-20
            xcart9     5.1676150043E+00  5.1676150043E+00  4.8956734718E+00
                       1.5502845013E+01  1.5502845013E+01  1.4687020415E+01
                       1.0335230008E+01  1.0335230008E+01  4.8879392972E+00
                       1.0335230009E+01  1.0335230009E+01  1.4694754590E+01
                       1.5335213309E+01  1.0335230008E+01  9.7913469436E+00
                       1.0335230008E+01  1.5335213309E+01  9.7913469436E+00
                       1.0335230009E+01  5.3352467078E+00  9.7913469436E+00
                       5.3352467078E+00  1.0335230009E+01  9.7913469436E+00
                       2.5457907595E-21 -2.8474125878E-21 -1.8175494481E-21
             xred1     2.5000000000E-01  2.5000000000E-01  2.5000000000E-01
                       7.5000000000E-01  7.5000000000E-01  7.5000000000E-01
                       2.2964410420E-01  2.2964410420E-01  7.7035589580E-01
                       7.7035589580E-01  7.7035589580E-01  2.2964410420E-01
                       2.4466081696E-01  7.5533918305E-01  7.5533918304E-01
                       7.5533918305E-01  2.4466081696E-01  7.5533918304E-01
                       2.4466081696E-01  7.5533918305E-01  2.4466081696E-01
                       7.5533918305E-01  2.4466081696E-01  2.4466081696E-01
                       0.0000000000E+00  0.0000000000E+00  0.0000000000E+00
             xred2     2.5000000000E-01  2.5000000000E-01  2.5000000000E-01
                       7.5000000000E-01  7.5000000000E-01  7.5000000000E-01
                       2.3203445457E-01  2.3203445457E-01  7.6796554543E-01
                       7.6796554543E-01  7.6796554543E-01  2.3203445457E-01
                       2.4660599449E-01  7.5339400551E-01  7.5339400551E-01
                       7.5339400551E-01  2.4660599449E-01  7.5339400551E-01
                       2.4660599449E-01  7.5339400551E-01  2.4660599449E-01
                       7.5339400551E-01  2.4660599449E-01  2.4660599449E-01
                      -3.3453136458E-22  2.3350051450E-22  1.7490242316E-22
             xred3     2.5000000000E-01  2.5000000000E-01  2.5000000000E-01
                       7.5000000000E-01  7.5000000000E-01  7.5000000000E-01
                       2.3454325060E-01  2.3454325060E-01  7.6545674940E-01
                       7.6545674940E-01  7.6545674940E-01  2.3454325060E-01
                       2.4848650152E-01  7.5151349848E-01  7.5151349848E-01
                       7.5151349848E-01  2.4848650152E-01  7.5151349848E-01
                       2.4848650152E-01  7.5151349848E-01  2.4848650152E-01
                       7.5151349848E-01  2.4848650152E-01  2.4848650152E-01
                       0.0000000000E+00  0.0000000000E+00  0.0000000000E+00
             xred4     2.5000000000E-01  2.5000000000E-01  2.5000000000E-01
                       7.5000000000E-01  7.5000000000E-01  7.5000000000E-01
                       2.3698192976E-01  2.3698192976E-01  7.6301807024E-01
                       7.6301807024E-01  7.6301807024E-01  2.3698192976E-01
                       2.5034152047E-01  7.4965847953E-01  7.4965847953E-01
                       7.4965847953E-01  2.5034152047E-01  7.4965847953E-01
                       2.5034152047E-01  7.4965847953E-01  2.5034152047E-01
                       7.4965847953E-01  2.5034152047E-01  2.5034152047E-01
                      -2.6089757708E-22 -4.5707727915E-22  6.4981958405E-22
             xred5     2.5000000000E-01  2.5000000000E-01  2.5000000000E-01
                       7.5000000000E-01  7.5000000000E-01  7.5000000000E-01
                       2.3958251140E-01  2.3958251140E-01  7.6041748860E-01
                       7.6041748860E-01  7.6041748860E-01  2.3958251140E-01
                       2.5205468731E-01  7.4794531269E-01  7.4794531269E-01
                       7.4794531269E-01  2.5205468731E-01  7.4794531269E-01
                       2.5205468731E-01  7.4794531269E-01  2.5205468731E-01
                       7.4794531269E-01  2.5205468731E-01  2.5205468731E-01
                      -6.0075882114E-23  4.9818436482E-23  6.0681851769E-24
             xred6     2.5000000000E-01  2.5000000000E-01  2.5000000000E-01
                       7.5000000000E-01  7.5000000000E-01  7.5000000000E-01
                       2.4210722598E-01  2.4210722598E-01  7.5789277402E-01
                       7.5789277402E-01  7.5789277402E-01  2.4210722598E-01
                       2.5370850062E-01  7.4629149938E-01  7.4629149938E-01
                       7.4629149938E-01  2.5370850062E-01  7.4629149938E-01
                       2.5370850062E-01  7.4629149938E-01  2.5370850062E-01
                       7.4629149938E-01  2.5370850062E-01  2.5370850062E-01
                      -6.9003394346E-22  6.6960576415E-22  1.0258181541E-22
             xred7     2.5000000000E-01  2.5000000000E-01  2.5000000000E-01
                       7.5000000000E-01  7.5000000000E-01  7.5000000000E-01
                       2.4463253533E-01  2.4463253533E-01  7.5536746467E-01
                       7.5536746467E-01  7.5536746467E-01  2.4463253533E-01
                       2.5528604979E-01  7.4471395021E-01  7.4471395021E-01
                       7.4471395021E-01  2.5528604979E-01  7.4471395021E-01
                       2.5528604979E-01  7.4471395021E-01  2.5528604979E-01
                       7.4471395021E-01  2.5528604979E-01  2.5528604979E-01
                      -2.1808365860E-22  2.6411728185E-22  1.0978879521E-24
             xred8     2.5000000000E-01  2.5000000000E-01  2.5000000000E-01
                       7.5000000000E-01  7.5000000000E-01  7.5000000000E-01
                       2.4716444986E-01  2.4716444986E-01  7.5283555014E-01
                       7.5283555014E-01  7.5283555014E-01  2.4716444986E-01
                       2.5673854416E-01  7.4326145584E-01  7.4326145584E-01
                       7.4326145584E-01  2.5673854416E-01  7.4326145584E-01
                       2.5673854416E-01  7.4326145584E-01  2.5673854416E-01
                       7.4326145584E-01  2.5673854416E-01  2.5673854416E-01
                      -4.2722639981E-22 -1.5254871722E-21  1.1846608716E-21
             xred9     2.5000000000E-01  2.5000000000E-01  2.5000000000E-01
                       7.5000000000E-01  7.5000000000E-01  7.5000000000E-01
                       2.4960505053E-01  2.4960505053E-01  7.5039494947E-01
                       7.5039494947E-01  7.5039494947E-01  2.4960505053E-01
                       2.5810972293E-01  7.4189027707E-01  7.4189027707E-01
                       7.4189027707E-01  2.5810972293E-01  7.4189027707E-01
                       2.5810972293E-01  7.4189027707E-01  2.5810972293E-01
                       7.4189027707E-01  2.5810972293E-01  2.5810972293E-01
                      -3.5372762807E-22  1.6809949554E-22  7.8222140009E-23
            znucl       55.00000   53.00000   40.00000   35.00000

- Timing analysis has been suppressed with timopt=0

 Suggested references for the acknowledgment of ABINIT usage.

 Calculation completed.
.Delivered   0 WARNINGs and   1 COMMENTs to log file.