.Version 9.2.2 of ABINIT

 ABINIT is a project of the Universite Catholique de Louvain,
 Corning Inc. and other collaborators, see ~abinit/doc/developers/contributors.txt .
 acknowledgments of the ABINIT effort.

.Starting date : Thu 27 Oct 2022.
- ( at 01h36 )

- input  file    -> Cs2TiI6.in
- output file    -> Cs2TiI6.out
- root for input  files -> Cs2TiI6i
- root for output files -> Cs2TiI6o

- inpspheads : Reading pseudopotential header in XML form from
-   ../../../Psps_for_tests/ATOMICDATA/Cs.GGA_PBE-JTH.xml
- inpspheads : Reading pseudopotential header in XML form from
-   ../../../Psps_for_tests/ATOMICDATA/Br.GGA_PBE-JTH.xml
- inpspheads : Reading pseudopotential header in XML form from
-   ../../../Psps_for_tests/ATOMICDATA/Zr.GGA_PBE-JTH.xml

 DATASET    1 : space group Fm -3 m (#225); Bravais cF (face-center cubic)
     intxc =       0    ionmov =       2      iscf =      17    lmnmax =      18
     lnmax =       6     mgfft =      64  mpssoang =       3    mqgrid =    3973
     natom =       9  nloc_mem =       2    nspden =       1   nspinor =       1
    nsppol =       1      nsym =      48    n1xccc =       1    ntypat =       3
    occopt =       1   xclevel =       2
-    mband =          42        mffmem =           1         mkmem =           3
       mpw =       10822          nfft =      262144          nkpt =          10
Pmy_natom=         3
 PAW method is used; the additional fine FFT grid is defined by:
   mgfftf=       100    nfftf =   1000000
  Rough estimation (10% accuracy) of disk space for files :

[...]

 DATASET   10 : space group Fm -3 m (#225); Bravais cF (face-center cubic)
     intxc =       0    ionmov =       2      iscf =      17    lmnmax =      18
     lnmax =       6     mgfft =      60  mpssoang =       3    mqgrid =    3612
     natom =       9  nloc_mem =       2    nspden =       1   nspinor =       1
    nsppol =       1      nsym =      48    n1xccc =       1    ntypat =       3
    occopt =       1   xclevel =       2
-    mband =          42        mffmem =           1         mkmem =           3
       mpw =        8123          nfft =      216000          nkpt =          10
Pmy_natom=         3
 PAW method is used; the additional fine FFT grid is defined by:
   mgfftf=        90    nfftf =    729000
  Rough estimation (10% accuracy) of disk space for files :

------------- Echo of variables that govern the present computation ------------
-
- outvars: echo of selected default values
-   iomode0 =  0 , fftalg0 =112 , wfoptalg0 = 10
-
- outvars: echo of global parameters not present in the input file
-  max_nthreads =    0
-
 -outvars: echo values of preprocessed input variables --------
            acell1     1.4860963470E+01  1.4860963470E+01  1.4860963470E+01 Bohr
            acell2     1.4710852728E+01  1.4710852728E+01  1.4710852728E+01 Bohr
            acell3     1.4560741986E+01  1.4560741986E+01  1.4560741986E+01 Bohr
            acell4     1.4410631244E+01  1.4410631244E+01  1.4410631244E+01 Bohr
            acell5     1.4260520501E+01  1.4260520501E+01  1.4260520501E+01 Bohr
            acell6     1.4110409759E+01  1.4110409759E+01  1.4110409759E+01 Bohr
            acell7     1.3960299017E+01  1.3960299017E+01  1.3960299017E+01 Bohr
            acell8     1.3810188275E+01  1.3810188275E+01  1.3810188275E+01 Bohr
            acell9     1.3660077533E+01  1.3660077533E+01  1.3660077533E+01 Bohr
            acell10    1.3509966791E+01  1.3509966791E+01  1.3509966791E+01 Bohr
              amu      1.32905430E+02  7.99040000E+01  9.12240000E+01
           diemac      1.20000000E+01
          dilatmx      1.15000000E+00
             ecut      1.60000000E+01 Hartree
           ecutsm      5.00000000E-01 Hartree
-          fftalg         112
          getxred1          0
          getxred2         -1
          getxred3         -1
          getxred4         -1
          getxred5         -1
          getxred6         -1
          getxred7         -1
          getxred8         -1
          getxred9         -1
          getxred10        -1
           ionmov           2
              ixc     -101130
           jdtset        1    2    3    4    5    6    7    8    9   10
              kpt     -1.25000000E-01 -2.50000000E-01  0.00000000E+00
                      -1.25000000E-01  5.00000000E-01  0.00000000E+00
                      -2.50000000E-01 -3.75000000E-01  0.00000000E+00
                      -1.25000000E-01 -3.75000000E-01  1.25000000E-01
                      -1.25000000E-01  2.50000000E-01  0.00000000E+00
                      -2.50000000E-01  3.75000000E-01  0.00000000E+00
                      -3.75000000E-01  5.00000000E-01  0.00000000E+00
                      -2.50000000E-01  5.00000000E-01  1.25000000E-01
                      -1.25000000E-01  0.00000000E+00  0.00000000E+00
                      -3.75000000E-01  0.00000000E+00  0.00000000E+00
         kptrlatt        4   -4    4     -4    4    4     -4   -4    4
          kptrlen1     8.40663044E+01
          kptrlen2     8.32171498E+01
          kptrlen3     8.23679952E+01
          kptrlen4     8.15188406E+01
          kptrlen5     8.06696860E+01
          kptrlen6     7.98205314E+01
          kptrlen7     7.89713768E+01
          kptrlen8     7.81222222E+01
          kptrlen9     7.72730676E+01
          kptrlen10    7.64239131E+01
P           mkmem           3
            natom           9
            nband          42
           ndtset          10
            ngfft1         64      64      64
            ngfft2         64      64      64
            ngfft3         64      64      64
            ngfft4         60      60      60
            ngfft5         60      60      60
            ngfft6         60      60      60
            ngfft7         60      60      60
            ngfft8         60      60      60
            ngfft9         60      60      60
            ngfft10        60      60      60
          ngfftdg1        100     100     100
          ngfftdg2        100     100     100
          ngfftdg3         96      96      96
          ngfftdg4         96      96      96
          ngfftdg5         96      96      96
          ngfftdg6         96      96      96
          ngfftdg7         96      96      96
          ngfftdg8         96      96      96
          ngfftdg9         90      90      90
          ngfftdg10        90      90      90
             nkpt          10
            nstep        2500
             nsym          48
            ntime        1000
           ntypat           3
              occ      2.000000  2.000000  2.000000  2.000000  2.000000  2.000000
                       2.000000  2.000000  2.000000  2.000000  2.000000  2.000000
                       2.000000  2.000000  2.000000  2.000000  2.000000  2.000000
                       2.000000  2.000000  2.000000  2.000000  2.000000  2.000000
                       2.000000  2.000000  2.000000  2.000000  2.000000  2.000000
                       2.000000  2.000000  2.000000  2.000000  2.000000  2.000000
                       0.000000  0.000000  0.000000  0.000000  0.000000  0.000000
          optcell           3
        optforces           1
        pawecutdg      4.00000000E+01 Hartree
            prtwf           0
            rprim      0.0000000000E+00  7.0710678119E-01  7.0710678119E-01
                       7.0710678119E-01  0.0000000000E+00  7.0710678119E-01
                       7.0710678119E-01  7.0710678119E-01  0.0000000000E+00
           shiftk      5.00000000E-01  5.00000000E-01  5.00000000E-01
          spgroup         225
           symrel      1  0  0   0  1  0   0  0  1      -1  0  0   0 -1  0   0  0 -1
                       0 -1  1   0 -1  0   1 -1  0       0  1 -1   0  1  0  -1  1  0
                      -1  0  0  -1  0  1  -1  1  0       1  0  0   1  0 -1   1 -1  0
                       0  1 -1   1  0 -1   0  0 -1       0 -1  1  -1  0  1   0  0  1
                      -1  0  0  -1  1  0  -1  0  1       1  0  0   1 -1  0   1  0 -1
                       0 -1  1   1 -1  0   0 -1  0       0  1 -1  -1  1  0   0  1  0
                       1  0  0   0  0  1   0  1  0      -1  0  0   0  0 -1   0 -1  0
                       0  1 -1   0  0 -1   1  0 -1       0 -1  1   0  0  1  -1  0  1
                      -1  0  1  -1  1  0  -1  0  0       1  0 -1   1 -1  0   1  0  0
                       0 -1  0   1 -1  0   0 -1  1       0  1  0  -1  1  0   0  1 -1
                       1  0 -1   0  0 -1   0  1 -1      -1  0  1   0  0  1   0 -1  1
                       0  1  0   0  0  1   1  0  0       0 -1  0   0  0 -1  -1  0  0
                       1  0 -1   0  1 -1   0  0 -1      -1  0  1   0 -1  1   0  0  1
                       0 -1  0   0 -1  1   1 -1  0       0  1  0   0  1 -1  -1  1  0
                      -1  0  1  -1  0  0  -1  1  0       1  0 -1   1  0  0   1 -1  0
                       0  1  0   1  0  0   0  0  1       0 -1  0  -1  0  0   0  0 -1
                       0  0 -1   0  1 -1   1  0 -1       0  0  1   0 -1  1  -1  0  1
                       1 -1  0   0 -1  1   0 -1  0      -1  1  0   0  1 -1   0  1  0
                       0  0  1   1  0  0   0  1  0       0  0 -1  -1  0  0   0 -1  0
                      -1  1  0  -1  0  0  -1  0  1       1 -1  0   1  0  0   1  0 -1
                       0  0  1   0  1  0   1  0  0       0  0 -1   0 -1  0  -1  0  0
                       1 -1  0   0 -1  0   0 -1  1      -1  1  0   0  1  0   0  1 -1
                       0  0 -1   1  0 -1   0  1 -1       0  0  1  -1  0  1   0 -1  1
                      -1  1  0  -1  0  1  -1  0  0       1 -1  0   1  0 -1   1  0  0
           toldff      1.00000000E-08
           tolmxf      1.00000000E-05
            typat      1  1  2  2  2  2  2  2  3
           useylm           1
              wtk        0.09375    0.09375    0.09375    0.18750    0.09375    0.09375
                         0.09375    0.18750    0.03125    0.03125
           xangst1     2.7803732672E+00  2.7803732672E+00  2.7803732672E+00
                       8.3411198017E+00  8.3411198017E+00  8.3411198017E+00
                       5.5607465345E+00  5.5607465345E+00  2.6215503791E+00
                       5.5607465345E+00  5.5607465345E+00  8.4999426899E+00
                       8.4999426899E+00  5.5607465345E+00  5.5607465345E+00
                       5.5607465345E+00  8.4999426899E+00  5.5607465345E+00
                       5.5607465345E+00  2.6215503791E+00  5.5607465345E+00
                       2.6215503791E+00  5.5607465345E+00  5.5607465345E+00
                       5.2162468992E-20  4.0618652631E-20 -5.6324452544E-20
           xangst2     2.7522886888E+00  2.7522886888E+00  2.7522886888E+00
                       8.2568660664E+00  8.2568660664E+00  8.2568660664E+00
                       5.5045773776E+00  5.5045773776E+00  2.5950700723E+00
                       5.5045773776E+00  5.5045773776E+00  8.4140846829E+00
                       8.4140846829E+00  5.5045773776E+00  5.5045773776E+00
                       5.5045773776E+00  8.4140846829E+00  5.5045773776E+00
                       5.5045773776E+00  2.5950700723E+00  5.5045773776E+00
[...]
                       4.6483728675E-20  3.9498776789E-20 -5.9408811445E-20
           xangst7     2.6118657965E+00  2.6118657965E+00  2.6118657965E+00
                       7.8355973895E+00  7.8355973895E+00  7.8355973895E+00
                       5.2237315930E+00  5.2237315930E+00  2.6161860161E+00
                       5.2237315930E+00  5.2237315930E+00  7.8312771699E+00
                       7.8312771699E+00  5.2237315930E+00  5.2237315930E+00
                       5.2237315930E+00  7.8312771699E+00  5.2237315930E+00
                       5.2237315930E+00  2.6161860161E+00  5.2237315930E+00
                       2.6161860161E+00  5.2237315930E+00  5.2237315930E+00
                       4.9001107235E-20  3.8156916108E-20 -5.2910849359E-20
           xangst8     2.5837812180E+00  2.5837812180E+00  2.5837812180E+00
                       7.7513436541E+00  7.7513436541E+00  7.7513436541E+00
                       5.1675624361E+00  5.1675624361E+00  2.6082247699E+00
                       5.1675624361E+00  5.1675624361E+00  7.7269001023E+00
                       7.7269001023E+00  5.1675624361E+00  5.1675624361E+00
                       5.1675624361E+00  7.7269001023E+00  5.1675624361E+00
                       5.1675624361E+00  2.6082247699E+00  5.1675624361E+00
                       2.6082247699E+00  5.1675624361E+00  5.1675624361E+00
                       4.8474213609E-20  3.7746626687E-20 -5.2341915495E-20
           xangst9     2.5556966396E+00  2.5556966396E+00  2.5556966396E+00
                       7.6670899188E+00  7.6670899188E+00  7.6670899188E+00
                       5.1113932792E+00  5.1113932792E+00  2.5987961580E+00
                       5.1113932792E+00  5.1113932792E+00  7.6239904004E+00
                       7.6239904004E+00  5.1113932792E+00  5.1113932792E+00
                       5.1113932792E+00  7.6239904004E+00  5.1113932792E+00
                       5.1113932792E+00  2.5987961580E+00  5.1113932792E+00
                       2.5987961580E+00  5.1113932792E+00  5.1113932792E+00
                       7.4962979560E-20 -4.2977831643E-19 -1.2535746566E-19
           xangst10    2.5276120611E+00  2.5276120611E+00  2.5276120611E+00
                       7.5828361834E+00  7.5828361834E+00  7.5828361834E+00
                       5.0552241223E+00  5.0552241223E+00  2.5885093875E+00
                       5.0552241223E+00  5.0552241223E+00  7.5219388570E+00
                       7.5219388570E+00  5.0552241223E+00  5.0552241223E+00
                       5.0552241223E+00  7.5219388570E+00  5.0552241223E+00
                       5.0552241223E+00  2.5885093875E+00  5.0552241223E+00
                       2.5885093875E+00  5.0552241223E+00  5.0552241223E+00
                       4.6431498881E-20  4.5493296262E-20 -5.0878860990E-20
            xcart1     5.2541440223E+00  5.2541440223E+00  5.2541440223E+00
                       1.5762432067E+01  1.5762432067E+01  1.5762432067E+01
                       1.0508288045E+01  1.0508288045E+01  4.9990229512E+00
                       1.0508288045E+01  1.0508288045E+01  1.6017553138E+01
                       1.6017553138E+01  1.0508288045E+01  1.0508288045E+01
                       1.0508288045E+01  1.6017553138E+01  1.0508288045E+01
                       1.0508288045E+01  4.9990229512E+00  1.0508288045E+01
                       4.9990229512E+00  1.0508288045E+01  1.0508288045E+01
                       9.8572780810E-20  7.6758129359E-20 -1.0643778989E-19
            xcart2     5.2010718604E+00  5.2010718604E+00  5.2010718604E+00
                       1.5603215581E+01  1.5603215581E+01  1.5603215581E+01
                       1.0402143721E+01  1.0402143721E+01  4.9934259263E+00
                       1.0402143721E+01  1.0402143721E+01  1.5810861515E+01
                       1.5810861515E+01  1.0402143721E+01  1.0402143721E+01
                       1.0402143721E+01  1.5810861515E+01  1.0402143721E+01
                       1.0402143721E+01  4.9934259263E+00  1.0402143721E+01
                       4.9934259263E+00  1.0402143721E+01  1.0402143721E+01
                       1.9229488601E-18  2.5968075180E-18 -3.1600719575E-18
            xcart3     5.1479996986E+00  5.1479996986E+00  5.1479996986E+00
                       1.5443999096E+01  1.5443999096E+01  1.5443999096E+01
                       1.0295999397E+01  1.0295999397E+01  4.9861569000E+00
                       1.0295999397E+01  1.0295999397E+01  1.5605841894E+01
                       1.5605841894E+01  1.0295999397E+01  1.0295999397E+01
                       1.0295999397E+01  1.5605841894E+01  1.0295999397E+01
                       1.0295999397E+01  4.9861569000E+00  1.0295999397E+01
                       4.9861569000E+00  1.0295999397E+01  1.0295999397E+01
                       3.5299278348E-18  8.6049949722E-19 -1.7340308988E-18
            xcart4     5.0949275368E+00  5.0949275368E+00  5.0949275368E+00
                       1.5284782610E+01  1.5284782610E+01  1.5284782610E+01
                       1.0189855074E+01  1.0189855074E+01  4.9781274283E+00
                       1.0189855074E+01  1.0189855074E+01  1.5401582719E+01
                       1.5401582719E+01  1.0189855074E+01  1.0189855074E+01
                       1.0189855074E+01  1.5401582719E+01  1.0189855074E+01
                       1.0189855074E+01  4.9781274283E+00  1.0189855074E+01
                       4.9781274283E+00  1.0189855074E+01  1.0189855074E+01
                      -2.1732716007E-20  4.2339779776E-20 -3.9023951814E-20
            xcart5     5.0418553749E+00  5.0418553749E+00  5.0418553749E+00
                       1.5125566125E+01  1.5125566125E+01  1.5125566125E+01
                       1.0083710750E+01  1.0083710750E+01  4.9687422760E+00
                       1.0083710750E+01  1.0083710750E+01  1.5198679224E+01
                       1.5198679224E+01  1.0083710750E+01  1.0083710750E+01
                       1.0083710750E+01  1.5198679224E+01  1.0083710750E+01
                       1.0083710750E+01  4.9687422760E+00  1.0083710750E+01
                       4.9687422760E+00  1.0083710750E+01  1.0083710750E+01
                      -3.0295739606E-19 -1.1192053989E-19 -3.3463959556E-19
            xcart6     4.9887832131E+00  4.9887832131E+00  4.9887832131E+00
                       1.4966349639E+01  1.4966349639E+01  1.4966349639E+01
                       9.9775664262E+00  9.9775664262E+00  4.9570362286E+00
                       9.9775664262E+00  9.9775664262E+00  1.4998096624E+01
                       1.4998096624E+01  9.9775664262E+00  9.9775664262E+00
                       9.9775664262E+00  1.4998096624E+01  9.9775664262E+00
                       9.9775664262E+00  4.9570362286E+00  9.9775664262E+00
                       4.9570362286E+00  9.9775664262E+00  9.9775664262E+00
                       8.7841516830E-20  7.4641870716E-20 -1.1226638351E-19
            xcart7     4.9357110512E+00  4.9357110512E+00  4.9357110512E+00
                       1.4807133154E+01  1.4807133154E+01  1.4807133154E+01
                       9.8714221025E+00  9.8714221025E+00  4.9438750831E+00
                       9.8714221025E+00  9.8714221025E+00  1.4798969122E+01
                       1.4798969122E+01  9.8714221025E+00  9.8714221025E+00
                       9.8714221025E+00  1.4798969122E+01  9.8714221025E+00
                       9.8714221025E+00  4.9438750831E+00  9.8714221025E+00
                       4.9438750831E+00  9.8714221025E+00  9.8714221025E+00
                       9.2598672882E-20  7.2106121519E-20 -9.9987014747E-20
            xcart8     4.8826388894E+00  4.8826388894E+00  4.8826388894E+00
                       1.4647916668E+01  1.4647916668E+01  1.4647916668E+01
                       9.7652777788E+00  9.7652777788E+00  4.9288305081E+00
                       9.7652777788E+00  9.7652777788E+00  1.4601725049E+01
                       1.4601725049E+01  9.7652777788E+00  9.7652777788E+00
                       9.7652777788E+00  1.4601725049E+01  9.7652777788E+00
                       9.7652777788E+00  4.9288305081E+00  9.7652777788E+00
                       4.9288305081E+00  9.7652777788E+00  9.7652777788E+00
                       9.1602988228E-20  7.1330786879E-20 -9.8911885556E-20
            xcart9     4.8295667276E+00  4.8295667276E+00  4.8295667276E+00
                       1.4488700183E+01  1.4488700183E+01  1.4488700183E+01
                       9.6591334551E+00  9.6591334551E+00  4.9110130137E+00
                       9.6591334551E+00  9.6591334551E+00  1.4407253896E+01
                       1.4407253896E+01  9.6591334551E+00  9.6591334551E+00
                       9.6591334551E+00  1.4407253896E+01  9.6591334551E+00
                       9.6591334551E+00  4.9110130137E+00  9.6591334551E+00
                       4.9110130137E+00  9.6591334551E+00  9.6591334551E+00
                       1.4165950147E-19 -8.1216331590E-19 -2.3689127881E-19
            xcart10    4.7764945657E+00  4.7764945657E+00  4.7764945657E+00
                       1.4329483697E+01  1.4329483697E+01  1.4329483697E+01
                       9.5529891314E+00  9.5529891314E+00  4.8915738348E+00
                       9.5529891314E+00  9.5529891314E+00  1.4214404428E+01
                       1.4214404428E+01  9.5529891314E+00  9.5529891314E+00
                       9.5529891314E+00  1.4214404428E+01  9.5529891314E+00
                       9.5529891314E+00  4.8915738348E+00  9.5529891314E+00
                       4.8915738348E+00  9.5529891314E+00  9.5529891314E+00
                       8.7742816825E-20  8.5969870817E-20 -9.6147113224E-20
             xred1     2.5000000000E-01  2.5000000000E-01  2.5000000000E-01
                       7.5000000000E-01  7.5000000000E-01  7.5000000000E-01
                       2.3786095937E-01  2.3786095937E-01  7.6213904063E-01
                       7.6213904063E-01  7.6213904063E-01  2.3786095937E-01
                       2.3786095937E-01  7.6213904063E-01  7.6213904063E-01
                       7.6213904063E-01  2.3786095937E-01  7.6213904063E-01
                       2.3786095937E-01  7.6213904063E-01  2.3786095937E-01
                       7.6213904063E-01  2.3786095937E-01  2.3786095937E-01
                      -6.1024422246E-21 -4.0264949953E-21  1.3406974517E-20
             xred2     2.5000000000E-01  2.5000000000E-01  2.5000000000E-01
                       7.5000000000E-01  7.5000000000E-01  7.5000000000E-01
                       2.4001907973E-01  2.4001907973E-01  7.5998092027E-01
                       7.5998092027E-01  7.5998092027E-01  2.4001907973E-01
                       2.4001907973E-01  7.5998092027E-01  7.5998092027E-01
                       7.5998092027E-01  2.4001907973E-01  7.5998092027E-01
                       2.4001907973E-01  7.5998092027E-01  2.4001907973E-01
                       7.5998092027E-01  2.4001907973E-01  2.4001907973E-01
                      -1.1950485238E-19 -1.8428560104E-19  3.6914642508E-19
             xred3     2.5000000000E-01  2.5000000000E-01  2.5000000000E-01
                       7.5000000000E-01  7.5000000000E-01  7.5000000000E-01
                       2.4214050077E-01  2.4214050077E-01  7.5785949923E-01
                       7.5785949923E-01  7.5785949923E-01  2.4214050077E-01
                       2.4214050077E-01  7.5785949923E-01  7.5785949923E-01
                       7.5785949923E-01  2.4214050077E-01  7.5785949923E-01
                       2.4214050077E-01  7.5785949923E-01  2.4214050077E-01
                       7.5785949923E-01  2.4214050077E-01  2.4214050077E-01
                      -2.1384321553E-19  4.5425286203E-20  2.9741931767E-19
             xred4     2.5000000000E-01  2.5000000000E-01  2.5000000000E-01
                       7.5000000000E-01  7.5000000000E-01  7.5000000000E-01
                       2.4426880424E-01  2.4426880424E-01  7.5573119576E-01
                       7.5573119576E-01  7.5573119576E-01  2.4426880424E-01
                       2.4426880424E-01  7.5573119576E-01  7.5573119576E-01
                       7.5573119576E-01  2.4426880424E-01  7.5573119576E-01
                       2.4426880424E-01  7.5573119576E-01  2.4426880424E-01
                       7.5573119576E-01  2.4426880424E-01  2.4426880424E-01
                       1.2290922583E-21 -5.0587788960E-21  2.9259991999E-21
             xred5     2.5000000000E-01  2.5000000000E-01  2.5000000000E-01
                       7.5000000000E-01  7.5000000000E-01  7.5000000000E-01
                       2.4637469277E-01  2.4637469277E-01  7.5362530723E-01
                       7.5362530723E-01  7.5362530723E-01  2.4637469277E-01
                       2.4637469277E-01  7.5362530723E-01  7.5362530723E-01
                       7.5362530723E-01  2.4637469277E-01  7.5362530723E-01
                       2.4637469277E-01  7.5362530723E-01  2.4637469277E-01
                       7.5362530723E-01  2.4637469277E-01  2.4637469277E-01
                      -7.1205304749E-21 -2.6065625282E-20 -3.9786117624E-21
             xred6     2.5000000000E-01  2.5000000000E-01  2.5000000000E-01
                       7.5000000000E-01  7.5000000000E-01  7.5000000000E-01
                       2.4840908178E-01  2.4840908178E-01  7.5159091822E-01
                       7.5159091822E-01  7.5159091822E-01  2.4840908178E-01
                       2.4840908178E-01  7.5159091822E-01  7.5159091822E-01
                       7.5159091822E-01  2.4840908178E-01  7.5159091822E-01
                       2.4840908178E-01  7.5159091822E-01  2.4840908178E-01
                       7.5159091822E-01  2.4840908178E-01  2.4840908178E-01
                      -6.2874063808E-21 -4.9644739591E-21  1.3768375941E-20
             xred7     2.5000000000E-01  2.5000000000E-01  2.5000000000E-01
                       7.5000000000E-01  7.5000000000E-01  7.5000000000E-01
                       2.5041351853E-01  2.5041351853E-01  7.4958648147E-01
                       7.4958648147E-01  7.4958648147E-01  2.5041351853E-01
                       2.5041351853E-01  7.4958648147E-01  7.4958648147E-01
                       7.4958648147E-01  2.5041351853E-01  7.4958648147E-01
                       2.5041351853E-01  7.4958648147E-01  2.5041351853E-01
                       7.4958648147E-01  2.5041351853E-01  2.5041351853E-01
                      -6.1024422246E-21 -4.0264949953E-21  1.3406974517E-20
             xred8     2.5000000000E-01  2.5000000000E-01  2.5000000000E-01
                       7.5000000000E-01  7.5000000000E-01  7.5000000000E-01
                       2.5236509497E-01  2.5236509497E-01  7.4763490503E-01
                       7.4763490503E-01  7.4763490503E-01  2.5236509497E-01
                       2.5236509497E-01  7.4763490503E-01  7.4763490503E-01
                       7.4763490503E-01  2.5236509497E-01  7.4763490503E-01
                       2.5236509497E-01  7.4763490503E-01  2.5236509497E-01
                       7.4763490503E-01  2.5236509497E-01  2.5236509497E-01
                      -6.1024422246E-21 -4.0264949953E-21  1.3406974517E-20
             xred9     2.5000000000E-01  2.5000000000E-01  2.5000000000E-01
                       7.5000000000E-01  7.5000000000E-01  7.5000000000E-01
                       2.5421602448E-01  2.5421602448E-01  7.4578397552E-01
                       7.4578397552E-01  7.4578397552E-01  2.5421602448E-01
                       2.5421602448E-01  7.4578397552E-01  7.4578397552E-01
                       7.4578397552E-01  2.5421602448E-01  7.4578397552E-01
                       2.5421602448E-01  7.4578397552E-01  2.5421602448E-01
                       7.4578397552E-01  2.5421602448E-01  2.5421602448E-01
                      -6.1636693484E-20  3.7111586764E-20 -2.2445726505E-20
             xred10    2.5000000000E-01  2.5000000000E-01  2.5000000000E-01
                       7.5000000000E-01  7.5000000000E-01  7.5000000000E-01
                       2.5602320737E-01  2.5602320737E-01  7.4397679263E-01
                       7.4397679263E-01  7.4397679263E-01  2.5602320737E-01
                       2.5602320737E-01  7.4397679263E-01  7.4397679263E-01
                       7.4397679263E-01  2.5602320737E-01  7.4397679263E-01
                       2.5602320737E-01  7.4397679263E-01  2.5602320737E-01
                       7.4397679263E-01  2.5602320737E-01  2.5602320737E-01
                      -5.1251005253E-21 -4.9395098182E-21  1.4124364487E-20
            znucl       55.00000   35.00000   40.00000

- Timing analysis has been suppressed with timopt=0

 Suggested references for the acknowledgment of ABINIT usage.

 Calculation completed.
.Delivered   0 WARNINGs and  40 COMMENTs to log file.