.Version 9.2.2 of ABINIT

 ABINIT is a project of the Universite Catholique de Louvain,
 Corning Inc. and other collaborators, see ~abinit/doc/developers/contributors.txt .
 acknowledgments of the ABINIT effort.

.Starting date : Thu 15 Dec 2022.
- ( at 14h10 )

- The starting date is more than 2 years after the initial release
- of this version of ABINIT, namely Nov 2020.
- Note that the use beyond 3 years after the release will not be supported.
- Action: please, switch to a more recent version of ABINIT.

- input  file    -> Cs2TiI6.in
- output file    -> Cs2TiI6.out
- root for input  files -> Cs2TiI6i
- root for output files -> Cs2TiI6o

- inpspheads : Reading pseudopotential header in XML form from
-   ../../../Psps_for_tests/ATOMICDATA/Cs.GGA_PBE-JTH.xml
- inpspheads : Reading pseudopotential header in XML form from
-   ../../../Psps_for_tests/ATOMICDATA/I.GGA_PBE-JTH.xml
- inpspheads : Reading pseudopotential header in XML form from
-   ../../../Psps_for_tests/ATOMICDATA/Zr.GGA_PBE-JTH.xml
- inpspheads : Reading pseudopotential header in XML form from
-   ../../../Psps_for_tests/ATOMICDATA/Cl.GGA_PBE-JTH.xml

 DATASET    1 : space group I4 m m (#107); Bravais tI (body-center tetrag.)
     intxc =       0    ionmov =       0      iscf =      17    lmnmax =      18
     lnmax =       6     mgfft =      54  mpssoang =       3    mqgrid =    3198
     natom =       9  nloc_mem =       2    nspden =       1   nspinor =       1
    nsppol =       1      nsym =       8    n1xccc =       1    ntypat =       4
    occopt =       1   xclevel =       2
-    mband =          42        mffmem =           1         mkmem =          41
       mpw =        5660          nfft =      157464          nkpt =         163
Pmy_natom=         3
 PAW method is used; the additional fine FFT grid is defined by:
   mgfftf=        80    nfftf =    512000
  Rough estimation (10% accuracy) of disk space for files :

[...]

 DATASET   10 : space group I4 m m (#107); Bravais tI (body-center tetrag.)
     intxc =       0    ionmov =       0      iscf =      17    lmnmax =      18
     lnmax =       6     mgfft =      50  mpssoang =       3    mqgrid =    3169
     natom =       9  nloc_mem =       2    nspden =       1   nspinor =       1
    nsppol =       1      nsym =       8    n1xccc =       1    ntypat =       4
    occopt =       1   xclevel =       2
-    mband =          42        mffmem =           1         mkmem =          41
       mpw =        5521          nfft =      125000          nkpt =         163
Pmy_natom=         3
 PAW method is used; the additional fine FFT grid is defined by:
   mgfftf=        80    nfftf =    512000
  Rough estimation (10% accuracy) of disk space for files :

------------- Echo of variables that govern the present computation ------------
-
- outvars: echo of selected default values
-   iomode0 =  0 , fftalg0 =112 , wfoptalg0 = 10
-
- outvars: echo of global parameters not present in the input file
-  max_nthreads =    0
-
 -outvars: echo values of preprocessed input variables --------
            acell1     1.3674972193E+01  1.3674972193E+01  1.3946557491E+01 Bohr
            acell2     1.3661227073E+01  1.3661227073E+01  1.3932727896E+01 Bohr
            acell3     1.3647507417E+01  1.3647507417E+01  1.3918839260E+01 Bohr
            acell4     1.3633799378E+01  1.3633799378E+01  1.3904923682E+01 Bohr
            acell5     1.3620012417E+01  1.3620012417E+01  1.3891191170E+01 Bohr
            acell6     1.3606267608E+01  1.3606267608E+01  1.3877360906E+01 Bohr
            acell7     1.3592629100E+01  1.3592629100E+01  1.3863284041E+01 Bohr
            acell8     1.3578899383E+01  1.3578899383E+01  1.3849418766E+01 Bohr
            acell9     1.3565339857E+01  1.3565339857E+01  1.3835158704E+01 Bohr
            acell10    1.3551704680E+01  1.3551704680E+01  1.3821074147E+01 Bohr
              amu      1.32905430E+02  1.26904470E+02  9.12240000E+01
                       3.54527000E+01
           diemac      1.20000000E+01
             ecut      1.60000000E+01 Hartree
-          fftalg         112
           istwfk        2    0    0    0    0    0    3    0    0    0
                         0    0    0    0    0    0    0    0    0    0
                         0    0    0    0    0    0    0    0    0    0
                         0    0    0    0    0    0    0    0    0    0
                         0    0    7    0    0    0    0    0    0    0
                       outvar_i_n : Printing only first  50 k-points.
              ixc     -101130
           jdtset        1    2    3    4    5    6    7    8    9   10
              kpt      0.00000000E+00  0.00000000E+00  0.00000000E+00
                       8.33333333E-02  0.00000000E+00  0.00000000E+00
                       1.66666667E-01  0.00000000E+00  0.00000000E+00
                       2.50000000E-01  0.00000000E+00  0.00000000E+00
                       3.33333333E-01  0.00000000E+00  0.00000000E+00
                       4.16666667E-01  0.00000000E+00  0.00000000E+00
                       5.00000000E-01  0.00000000E+00  0.00000000E+00
                       8.33333333E-02  8.33333333E-02  0.00000000E+00
                       1.66666667E-01  8.33333333E-02  0.00000000E+00
                       2.50000000E-01  8.33333333E-02  0.00000000E+00
                       3.33333333E-01  8.33333333E-02  0.00000000E+00
                       4.16666667E-01  8.33333333E-02  0.00000000E+00
                       5.00000000E-01  8.33333333E-02  0.00000000E+00
                      -4.16666667E-01  8.33333333E-02  0.00000000E+00
                      -3.33333333E-01  8.33333333E-02  0.00000000E+00
                      -2.50000000E-01  8.33333333E-02  0.00000000E+00
                      -1.66666667E-01  8.33333333E-02  0.00000000E+00
                      -8.33333333E-02  8.33333333E-02  0.00000000E+00
                       1.66666667E-01  1.66666667E-01  0.00000000E+00
                       2.50000000E-01  1.66666667E-01  0.00000000E+00
                       3.33333333E-01  1.66666667E-01  0.00000000E+00
                       4.16666667E-01  1.66666667E-01  0.00000000E+00
                       5.00000000E-01  1.66666667E-01  0.00000000E+00
                      -4.16666667E-01  1.66666667E-01  0.00000000E+00
                      -3.33333333E-01  1.66666667E-01  0.00000000E+00
                      -2.50000000E-01  1.66666667E-01  0.00000000E+00
                      -1.66666667E-01  1.66666667E-01  0.00000000E+00
                       2.50000000E-01  2.50000000E-01  0.00000000E+00
                       3.33333333E-01  2.50000000E-01  0.00000000E+00
                       4.16666667E-01  2.50000000E-01  0.00000000E+00
                       5.00000000E-01  2.50000000E-01  0.00000000E+00
                      -4.16666667E-01  2.50000000E-01  0.00000000E+00
                      -3.33333333E-01  2.50000000E-01  0.00000000E+00
                      -2.50000000E-01  2.50000000E-01  0.00000000E+00
                       3.33333333E-01  3.33333333E-01  0.00000000E+00
                       4.16666667E-01  3.33333333E-01  0.00000000E+00
                       5.00000000E-01  3.33333333E-01  0.00000000E+00
                      -4.16666667E-01  3.33333333E-01  0.00000000E+00
                      -3.33333333E-01  3.33333333E-01  0.00000000E+00
                       4.16666667E-01  4.16666667E-01  0.00000000E+00
                       5.00000000E-01  4.16666667E-01  0.00000000E+00
                      -4.16666667E-01  4.16666667E-01  0.00000000E+00
                       5.00000000E-01  5.00000000E-01  0.00000000E+00
                       8.33333333E-02  0.00000000E+00  8.33333333E-02
                       1.66666667E-01  0.00000000E+00  8.33333333E-02
                       2.50000000E-01  0.00000000E+00  8.33333333E-02
                       3.33333333E-01  0.00000000E+00  8.33333333E-02
                       4.16666667E-01  0.00000000E+00  8.33333333E-02
                       5.00000000E-01  0.00000000E+00  8.33333333E-02
                      -4.16666667E-01  0.00000000E+00  8.33333333E-02
                       outvar_i_n : Printing only first  50 k-points.
         kptrlatt       12    0    0      0   12    0      0    0   12
          kptrlen1     1.64099666E+02
          kptrlen2     1.63934725E+02
          kptrlen3     1.63770089E+02
          kptrlen4     1.63605593E+02
          kptrlen5     1.63440149E+02
          kptrlen6     1.63275211E+02
          kptrlen7     1.63111549E+02
          kptrlen8     1.62946793E+02
          kptrlen9     1.62784078E+02
          kptrlen10    1.62620456E+02
P           mkmem          41
            natom           9
            nband          42
           ndtset          10
            ngfft1         54      54      54
            ngfft2         54      54      54
            ngfft3         54      54      54
            ngfft4         54      54      54
            ngfft5         54      54      54
            ngfft6         50      50      50
            ngfft7         50      50      50
            ngfft8         50      50      50
            ngfft9         50      50      50
            ngfft10        50      50      50
          ngfftdg          80      80      80
             nkpt         163
            nstep        2500
             nsym           8
           ntypat           4
              occ      2.000000  2.000000  2.000000  2.000000  2.000000  2.000000
                       2.000000  2.000000  2.000000  2.000000  2.000000  2.000000
                       2.000000  2.000000  2.000000  2.000000  2.000000  2.000000
                       2.000000  2.000000  2.000000  2.000000  2.000000  2.000000
                       2.000000  2.000000  2.000000  2.000000  2.000000  2.000000
                       2.000000  2.000000  2.000000  2.000000  2.000000  2.000000
                       0.000000  0.000000  0.000000  0.000000  0.000000  0.000000
        pawecutdg      4.00000000E+01 Hartree
            prtwf           0
            rprim1     0.0000000000E+00  7.2114993994E-01  6.9277901536E-01
                       7.2114993994E-01  0.0000000000E+00  6.9277901536E-01
                       7.0710678119E-01  7.0710678119E-01  0.0000000000E+00
            rprim2     0.0000000000E+00  7.2115969691E-01  6.9276885868E-01
                       7.2115969691E-01  0.0000000000E+00  6.9276885868E-01
                       7.0710678119E-01  7.0710678119E-01  0.0000000000E+00
            rprim3     0.0000000000E+00  7.2116506891E-01  6.9276326648E-01
                       7.2116506891E-01  0.0000000000E+00  6.9276326648E-01
                       7.0710678119E-01  7.0710678119E-01  0.0000000000E+00
            rprim4     0.0000000000E+00  7.2116843988E-01  6.9275975729E-01
                       7.2116843988E-01  0.0000000000E+00  6.9275975729E-01
                       7.0710678119E-01  7.0710678119E-01  0.0000000000E+00
            rprim5     0.0000000000E+00  7.2118550075E-01  6.9274199635E-01
                       7.2118550075E-01  0.0000000000E+00  6.9274199635E-01
                       7.0710678119E-01  7.0710678119E-01  0.0000000000E+00
[...]
                      -3.7777323879E-14 -3.7777323879E-14 -8.7843654061E-02
           xangst7     2.5937150321E+00  2.5937150321E+00  2.4386875465E+00
                       7.7811450963E+00  7.7811450963E+00  7.4215097145E+00
                       5.1874300642E+00  5.1874300642E+00  2.7533262310E+00
                       5.1874300642E+00  5.1874300642E+00  7.4242097150E+00
                       7.9149373939E+00  5.1874300642E+00  4.9782328721E+00
                       5.1874300642E+00  7.9149373939E+00  4.9782328721E+00
                       5.1874300642E+00  2.4599227345E+00  4.9782328721E+00
                       2.4599227345E+00  5.1874300642E+00  4.9782328721E+00
                       8.9187479964E-13  8.9187479964E-13 -8.8087350816E-02
           xangst8     2.5911209447E+00  2.5911209447E+00  2.4364554987E+00
                       7.7733628340E+00  7.7733628340E+00  7.4141908992E+00
                       5.1822418893E+00  5.1822418893E+00  2.7516313167E+00
                       5.1822418894E+00  5.1822418894E+00  7.4141897494E+00
                       7.9050213641E+00  5.1822418893E+00  4.9734341386E+00
                       5.1822418893E+00  7.9050213641E+00  4.9734341386E+00
                       5.1822418894E+00  2.4594624145E+00  4.9734341386E+00
                       2.4594624145E+00  5.1822418894E+00  4.9734341386E+00
                      -1.9714965207E-12 -1.9714965207E-12 -8.8320813970E-02
           xangst9     2.5884529955E+00  2.5884529955E+00  2.4343624271E+00
                       7.7653589864E+00  7.7653589864E+00  7.4072948554E+00
                       5.1769059909E+00  5.1769059909E+00  2.7499966453E+00
                       5.1769059910E+00  5.1769059910E+00  7.4046691761E+00
                       7.8947979499E+00  5.1769059909E+00  4.9689229038E+00
                       5.1769059909E+00  7.8947979499E+00  4.9689229038E+00
                       5.1769059910E+00  2.4590140320E+00  4.9689229038E+00
                       2.4590140320E+00  5.1769059910E+00  4.9689229038E+00
                      -1.3789704676E-12 -1.3789704676E-12 -8.8555291829E-02
           xangst10    2.5858178819E+00  2.5858178819E+00  2.4322567206E+00
                       7.7574536458E+00  7.7574536458E+00  7.4002600179E+00
                       5.1716357639E+00  5.1716357639E+00  2.7482906224E+00
                       5.1716357639E+00  5.1716357639E+00  7.3948563823E+00
                       7.8847230748E+00  5.1716357638E+00  4.9643034307E+00
                       5.1716357638E+00  7.8847230748E+00  4.9643034307E+00
                       5.1716357639E+00  2.4585484530E+00  4.9643034307E+00
                       2.4585484530E+00  5.1716357639E+00  4.9643034307E+00
                      -7.6233713869E-13 -7.6233713869E-13 -8.8851087774E-02
            xcart1     4.9308526880E+00  4.9308526880E+00  4.6329095772E+00
                       1.4792558064E+01  1.4792558064E+01  1.4106643348E+01
                       9.8617053760E+00  9.8617053760E+00  5.2220098681E+00
                       9.8617053758E+00  9.8617053758E+00  1.4144447931E+01
                       1.5069763184E+01  9.8617053760E+00  9.4617832861E+00
                       9.8617053760E+00  1.5069763184E+01  9.4617832861E+00
                       9.8617053758E+00  4.6536475681E+00  9.4617832861E+00
                       4.6536475681E+00  9.8617053758E+00  9.4617832861E+00
                       4.1291130796E-12  4.1291130796E-12 -1.6327370147E-01
            xcart2     4.9259631878E+00  4.9259631878E+00  4.6287978657E+00
                       1.4777889563E+01  1.4777889563E+01  1.4092870553E+01
                       9.8519263756E+00  9.8519263756E+00  5.2187403101E+00
                       9.8519263755E+00  9.8519263755E+00  1.4125142242E+01
                       1.5050898255E+01  9.8519263757E+00  9.4527078696E+00
                       9.8519263757E+00  1.5050898255E+01  9.4527078696E+00
                       9.8519263755E+00  4.6529544962E+00  9.4527078696E+00
                       4.6529544962E+00  9.8519263755E+00  9.4527078696E+00
                       3.0575192418E-12  3.0575192418E-12 -1.6380094864E-01
            xcart3     4.9210528135E+00  4.9210528135E+00  4.6251230231E+00
                       1.4763158440E+01  1.4763158440E+01  1.4079614841E+01
                       9.8421056270E+00  9.8421056270E+00  5.2155738656E+00
                       9.8421056269E+00  9.8421056269E+00  1.4105818790E+01
                       1.5032175044E+01  9.8421056270E+00  9.4435759487E+00
                       9.8421056270E+00  1.5032175044E+01  9.4435759487E+00
                       9.8421056269E+00  4.6520362100E+00  9.4435759487E+00
                       4.6520362100E+00  9.8421056269E+00  9.4435759487E+00
                       1.8187578271E-12  1.8187578271E-12 -1.6449977387E-01
            xcart4     4.9161329136E+00  4.9161329136E+00  4.6210916836E+00
                       1.4748398741E+01  1.4748398741E+01  1.4066039232E+01
                       9.8322658274E+00  9.8322658274E+00  5.2124161371E+00
                       9.8322658272E+00  9.8322658272E+00  1.4086790781E+01
                       1.5013350614E+01  9.8322658274E+00  9.4345769648E+00
                       9.8322658274E+00  1.5013350614E+01  9.4345769648E+00
                       9.8322658272E+00  4.6511810405E+00  9.4345769648E+00
                       4.6511810405E+00  9.8322658272E+00  9.4345769648E+00
                       3.5167207729E-12  3.5167207729E-12 -1.6506530741E-01
            xcart5     4.9112777376E+00  4.9112777376E+00  4.6169319334E+00
                       1.4733833213E+01  1.4733833213E+01  1.4052086526E+01
                       9.8225554751E+00  9.8225554751E+00  5.2092846401E+00
                       9.8225554752E+00  9.8225554752E+00  1.4067226735E+01
                       1.4994779775E+01  9.8225554751E+00  9.4253243679E+00
                       9.8225554751E+00  1.4994779775E+01  9.4253243679E+00
                       9.8225554752E+00  4.6503311756E+00  9.4253243679E+00
                       4.6503311756E+00  9.8225554752E+00  9.4253243679E+00
                      -5.4152778203E-13 -5.4152778203E-13 -1.6559056863E-01
            xcart6     4.9063880008E+00  4.9063880008E+00  4.6125548464E+00
                       1.4719164002E+01  1.4719164002E+01  1.4038049282E+01
                       9.8127760017E+00  9.8127760017E+00  5.2061807791E+00
                       9.8127760017E+00  9.8127760017E+00  1.4048149061E+01
                       1.4976085174E+01  9.8127760017E+00  9.4162554919E+00
                       9.8127760017E+00  1.4976085174E+01  9.4162554919E+00
                       9.8127760017E+00  4.6494668290E+00  9.4162554919E+00
                       4.6494668290E+00  9.8127760017E+00  9.4162554919E+00
                      -7.1388796164E-14 -7.1388796164E-14 -1.6600044869E-01
            xcart7     4.9014110774E+00  4.9014110774E+00  4.6084515865E+00
                       1.4704233232E+01  1.4704233232E+01  1.4024620853E+01
                       9.8028221549E+00  9.8028221549E+00  5.2030325310E+00
                       9.8028221548E+00  9.8028221548E+00  1.4029723114E+01
                       1.4957064033E+01  9.8028221549E+00  9.4074967539E+00
                       9.8028221549E+00  1.4957064033E+01  9.4074967539E+00
                       9.8028221548E+00  4.6485802763E+00  9.4074967539E+00
                       4.6485802763E+00  9.8028221548E+00  9.4074967539E+00
                       1.6853991161E-12  1.6853991161E-12 -1.6646096881E-01
            xcart8     4.8965089626E+00  4.8965089626E+00  4.6042336275E+00
                       1.4689526888E+01  1.4689526888E+01  1.4010790296E+01
                       9.7930179251E+00  9.7930179251E+00  5.1998296073E+00
                       9.7930179253E+00  9.7930179253E+00  1.4010788124E+01
                       1.4938325453E+01  9.7930179251E+00  9.3984284618E+00
                       9.7930179251E+00  1.4938325453E+01  9.3984284618E+00
                       9.7930179253E+00  4.6477103976E+00  9.3984284618E+00
                       4.6477103976E+00  9.7930179253E+00  9.3984284618E+00
                      -3.7255884960E-12 -3.7255884960E-12 -1.6690215024E-01
            xcart9     4.8914672693E+00  4.8914672693E+00  4.6002782953E+00
                       1.4674401808E+01  1.4674401808E+01  1.3997758662E+01
                       9.7829345385E+00  9.7829345385E+00  5.1967405260E+00
                       9.7829345387E+00  9.7829345387E+00  1.3992796847E+01
                       1.4919006000E+01  9.7829345385E+00  9.3899034636E+00
                       9.7829345385E+00  1.4919006000E+01  9.3899034636E+00
                       9.7829345387E+00  4.6468630774E+00  9.3899034636E+00
                       4.6468630774E+00  9.7829345387E+00  9.3899034636E+00
                      -2.6058765291E-12 -2.6058765291E-12 -1.6734524917E-01
            xcart10    4.8864876264E+00  4.8864876264E+00  4.5962990868E+00
                       1.4659462879E+01  1.4659462879E+01  1.3984464746E+01
                       9.7729752527E+00  9.7729752527E+00  5.1935166100E+00
                       9.7729752528E+00  9.7729752528E+00  1.3974253355E+01
                       1.4899967245E+01  9.7729752527E+00  9.3811739246E+00
                       9.7729752527E+00  1.4899967245E+01  9.3811739246E+00
                       9.7729752528E+00  4.6459832606E+00  9.3811739246E+00
                       4.6459832606E+00  9.7729752528E+00  9.3811739246E+00
                      -1.4406084131E-12 -1.4406084131E-12 -1.6790422250E-01
             xred1     2.4451339299E-01  2.4451339299E-01  2.5548660701E-01
                       7.4451339299E-01  7.4451339299E-01  7.5548660701E-01
                       2.7560463458E-01  2.7560463458E-01  7.2439536542E-01
                       7.4650862443E-01  7.4650862443E-01  2.5349137557E-01
                       2.3531465938E-01  7.6342390715E-01  7.6468534062E-01
                       7.6342390715E-01  2.3531465938E-01  7.6468534062E-01
                       2.3531465938E-01  7.6342390715E-01  2.3657609285E-01
                       7.6342390715E-01  2.3531465938E-01  2.3657609285E-01
                      -8.6171780535E-03 -8.6171780535E-03  8.6171780535E-03
             xred2     2.4454576896E-01  2.4454576896E-01  2.5545423104E-01
                       7.4454576896E-01  7.4454576896E-01  7.5545423104E-01
                       2.7571324114E-01  2.7571324114E-01  7.2428675886E-01
                       7.4625072672E-01  7.4625072672E-01  2.5374927328E-01
                       2.3554398155E-01  7.6325518047E-01  7.6445601845E-01
                       7.6325518047E-01  2.3554398155E-01  7.6445601845E-01
                       2.3554398155E-01  7.6325518047E-01  2.3674481953E-01
                       7.6325518047E-01  2.3554398155E-01  2.3674481953E-01
                      -8.6538298072E-03 -8.6538298072E-03  8.6538298072E-03
             xred3     2.4459923983E-01  2.4459923983E-01  2.5540076017E-01
                       7.4459923983E-01  7.4459923983E-01  7.5540076017E-01
                       2.7582518269E-01  2.7582518269E-01  7.2417481731E-01
                       7.4598503348E-01  7.4598503348E-01  2.5401496652E-01
                       2.3575609681E-01  7.6308933359E-01  7.6424390319E-01
                       7.6308933359E-01  2.3575609681E-01  7.6424390319E-01
                       2.3575609681E-01  7.6308933359E-01  2.3691066641E-01
                       7.6308933359E-01  2.3575609681E-01  2.3691066641E-01
                      -8.6995566256E-03 -8.6995566256E-03  8.6995566256E-03
             xred4     2.4463299876E-01  2.4463299876E-01  2.5536700124E-01
                       7.4463299876E-01  7.4463299876E-01  7.5536700124E-01
                       2.7593674346E-01  2.7593674346E-01  7.2406325654E-01
                       7.4573155165E-01  7.4573155165E-01  2.5426844835E-01
                       2.3597740653E-01  7.6292459020E-01  7.6402259347E-01
                       7.6292459020E-01  2.3597740653E-01  7.6402259347E-01
                       2.3597740653E-01  7.6292459020E-01  2.3707540980E-01
                       7.6292459020E-01  2.3597740653E-01  2.3707540980E-01
                      -8.7382860819E-03 -8.7382860819E-03  8.7382860819E-03
             xred5     2.4466646987E-01  2.4466646987E-01  2.5533353013E-01
                       7.4466646987E-01  7.4466646987E-01  7.5533353013E-01
                       2.7605719595E-01  2.7605719595E-01  7.2394280405E-01
                       7.4546879955E-01  7.4546879955E-01  2.5453120045E-01
                       2.3619603580E-01  7.6276209212E-01  7.6380396420E-01
                       7.6276209212E-01  2.3619603580E-01  7.6380396420E-01
                       2.3619603580E-01  7.6276209212E-01  2.3723790788E-01
                       7.6276209212E-01  2.3619603580E-01  2.3723790788E-01
                      -8.7751910692E-03 -8.7751910692E-03  8.7751910692E-03
             xred6     2.4468503365E-01  2.4468503365E-01  2.5531496635E-01
                       7.4468503365E-01  7.4468503365E-01  7.5531496635E-01
                       2.7617547358E-01  2.7617547358E-01  7.2382452642E-01
                       7.4522080281E-01  7.4522080281E-01  2.5477919719E-01
                       2.3641873960E-01  7.6260105251E-01  7.6358126040E-01
                       7.6260105251E-01  2.3641873960E-01  7.6358126040E-01
                       2.3641873960E-01  7.6260105251E-01  2.3739894749E-01
                       7.6260105251E-01  2.3641873960E-01  2.3739894749E-01
                      -8.8059278915E-03 -8.8059278915E-03  8.8059278915E-03
             xred7     2.4470947028E-01  2.4470947028E-01  2.5529052972E-01
                       7.4470947028E-01  7.4470947028E-01  7.5529052972E-01
                       2.7628180759E-01  2.7628180759E-01  7.2371819241E-01
                       7.4498040113E-01  7.4498040113E-01  2.5501959887E-01
                       2.3664367129E-01  7.6243530528E-01  7.6335632871E-01
                       7.6243530528E-01  2.3664367129E-01  7.6335632871E-01
                       2.3664367129E-01  7.6243530528E-01  2.3756469472E-01
                       7.6243530528E-01  2.3664367129E-01  2.3756469472E-01
                      -8.8391024048E-03 -8.8391024048E-03  8.8391024048E-03
             xred8     2.4473533672E-01  2.4473533672E-01  2.5526466328E-01
                       7.4473533672E-01  7.4473533672E-01  7.5526466328E-01
                       2.7639389153E-01  2.7639389153E-01  7.2360610847E-01
                       7.4473522122E-01  7.4473522122E-01  2.5526477878E-01
                       2.3686509535E-01  7.6227080449E-01  7.6313490465E-01
                       7.6227080449E-01  2.3686509535E-01  7.6313490465E-01
                       2.3686509535E-01  7.6227080449E-01  2.3772919551E-01
                       7.6227080449E-01  2.3686509535E-01  2.3772919551E-01
                      -8.8715858582E-03 -8.8715858582E-03  8.8715858582E-03
             xred9     2.4476126130E-01  2.4476126130E-01  2.5523873870E-01
                       7.4476126130E-01  7.4476126130E-01  7.5523873870E-01
                       2.7649648220E-01  2.7649648220E-01  7.2350351780E-01
                       7.4449726421E-01  7.4449726421E-01  2.5550273579E-01
                       2.3709528954E-01  7.6209844079E-01  7.6290471046E-01
                       7.6209844079E-01  2.3709528954E-01  7.6290471046E-01
                       2.3709528954E-01  7.6209844079E-01  2.3790155921E-01
                       7.6209844079E-01  2.3709528954E-01  2.3790155921E-01
                      -8.9037296509E-03 -8.9037296509E-03  8.9037296509E-03
             xred10    2.4479218059E-01  2.4479218059E-01  2.5520781941E-01
                       7.4479218059E-01  7.4479218059E-01  7.5520781941E-01
                       2.7659911417E-01  2.7659911417E-01  7.2340088583E-01
                       7.4424833679E-01  7.4424833679E-01  2.5575166321E-01
                       2.3732306812E-01  7.6193219273E-01  7.6267693188E-01
                       7.6193219273E-01  2.3732306812E-01  7.6267693188E-01
                       2.3732306812E-01  7.6193219273E-01  2.3806780727E-01
                       7.6193219273E-01  2.3732306812E-01  2.3806780727E-01
                      -8.9423338168E-03 -8.9423338168E-03  8.9423338168E-03
            znucl       55.00000   53.00000   40.00000   17.00000

- Timing analysis has been suppressed with timopt=0

 Suggested references for the acknowledgment of ABINIT usage.

 Calculation completed.
.Delivered   0 WARNINGs and   0 COMMENTs to log file.