.Version 9.2.2 of ABINIT

 ABINIT is a project of the Universite Catholique de Louvain,
 Corning Inc. and other collaborators, see ~abinit/doc/developers/contributors.txt .
 acknowledgments of the ABINIT effort.

.Starting date : Mon  3 Oct 2022.
- ( at 23h00 )

- input  file    -> Cs2TiI6.in
- output file    -> Cs2TiI6.out
- root for input  files -> Cs2TiI6i
- root for output files -> Cs2TiI6o

- inpspheads : Reading pseudopotential header in XML form from
-   ../../../Psps_for_tests/ATOMICDATA/Cs.GGA_PBE-JTH.xml
- inpspheads : Reading pseudopotential header in XML form from
-   ../../../Psps_for_tests/ATOMICDATA/I.GGA_PBE-JTH.xml
- inpspheads : Reading pseudopotential header in XML form from
-   ../../../Psps_for_tests/ATOMICDATA/Hf.GGA_PBE-JTH.xml
- inpspheads : Reading pseudopotential header in XML form from
-   ../../../Psps_for_tests/ATOMICDATA/Br.GGA_PBE-JTH.xml

 DATASET    1 : space group I4 m m (#107); Bravais tI (body-center tetrag.)
     intxc =       0    ionmov =       0      iscf =      17    lmnmax =      18
     lnmax =       6     mgfft =      60  mpssoang =       3    mqgrid =    3540
     natom =       9  nloc_mem =       2    nspden =       1   nspinor =       1
    nsppol =       1      nsym =       8    n1xccc =       1    ntypat =       4
    occopt =       1   xclevel =       2
-    mband =          42        mffmem =           1         mkmem =          28
       mpw =        7676          nfft =      216000          nkpt =         163
Pmy_natom=         2
 PAW method is used; the additional fine FFT grid is defined by:
   mgfftf=        90    nfftf =    729000
  Rough estimation (10% accuracy) of disk space for files :

 DATASET    2 : space group I4 m m (#107); Bravais tI (body-center tetrag.)
     intxc =       0    ionmov =       0      iscf =      17    lmnmax =      18
     lnmax =       6     mgfft =      60  mpssoang =       3    mqgrid =    3540
     natom =       9  nloc_mem =       2    nspden =       1   nspinor =       1
    nsppol =       1      nsym =       8    n1xccc =       1    ntypat =       4
    occopt =       1   xclevel =       2
-    mband =          42        mffmem =           1         mkmem =          28
       mpw =        7676          nfft =      216000          nkpt =         163
Pmy_natom=         2
 PAW method is used; the additional fine FFT grid is defined by:
   mgfftf=        90    nfftf =    729000
  Rough estimation (10% accuracy) of disk space for files :

------------- Echo of variables that govern the present computation ------------
-
- outvars: echo of selected default values
-   iomode0 =  0 , fftalg0 =112 , wfoptalg0 = 10
-
- outvars: echo of global parameters not present in the input file
-  max_nthreads =    0
-
 -outvars: echo values of preprocessed input variables --------
            acell1     1.5221659112E+01  1.5229553761E+01  1.5221659112E+01 Bohr
            acell2     1.5221659101E+01  1.5221659101E+01  1.5229553780E+01 Bohr
              amu      1.32905430E+02  1.26904470E+02  1.78490000E+02
                       7.99040000E+01
           diemac      1.20000000E+01
             ecut      1.60000000E+01 Hartree
-          fftalg         112
           istwfk        2    0    0    0    0    0    3    0    0    0
                         0    0    0    0    0    0    0    0    0    0
                         0    0    0    0    0    0    0    0    0    0
                         0    0    0    0    0    0    0    0    0    0
                         0    0    7    0    0    0    0    0    0    0
                       outvar_i_n : Printing only first  50 k-points.
              ixc     -101130
           jdtset        1    2
              kpt      0.00000000E+00  0.00000000E+00  0.00000000E+00
                       8.33333333E-02  0.00000000E+00  0.00000000E+00
                       1.66666667E-01  0.00000000E+00  0.00000000E+00
                       2.50000000E-01  0.00000000E+00  0.00000000E+00
                       3.33333333E-01  0.00000000E+00  0.00000000E+00
                       4.16666667E-01  0.00000000E+00  0.00000000E+00
                       5.00000000E-01  0.00000000E+00  0.00000000E+00
                       8.33333333E-02  8.33333333E-02  0.00000000E+00
                       1.66666667E-01  8.33333333E-02  0.00000000E+00
                       2.50000000E-01  8.33333333E-02  0.00000000E+00
                       3.33333333E-01  8.33333333E-02  0.00000000E+00
                       4.16666667E-01  8.33333333E-02  0.00000000E+00
                       5.00000000E-01  8.33333333E-02  0.00000000E+00
                      -4.16666667E-01  8.33333333E-02  0.00000000E+00
                      -3.33333333E-01  8.33333333E-02  0.00000000E+00
                      -2.50000000E-01  8.33333333E-02  0.00000000E+00
                      -1.66666667E-01  8.33333333E-02  0.00000000E+00
                      -8.33333333E-02  8.33333333E-02  0.00000000E+00
                       1.66666667E-01  1.66666667E-01  0.00000000E+00
                       2.50000000E-01  1.66666667E-01  0.00000000E+00
                       3.33333333E-01  1.66666667E-01  0.00000000E+00
                       4.16666667E-01  1.66666667E-01  0.00000000E+00
                       5.00000000E-01  1.66666667E-01  0.00000000E+00
                      -4.16666667E-01  1.66666667E-01  0.00000000E+00
                      -3.33333333E-01  1.66666667E-01  0.00000000E+00
                      -2.50000000E-01  1.66666667E-01  0.00000000E+00
                      -1.66666667E-01  1.66666667E-01  0.00000000E+00
                       2.50000000E-01  2.50000000E-01  0.00000000E+00
                       3.33333333E-01  2.50000000E-01  0.00000000E+00
                       4.16666667E-01  2.50000000E-01  0.00000000E+00
                       5.00000000E-01  2.50000000E-01  0.00000000E+00
                      -4.16666667E-01  2.50000000E-01  0.00000000E+00
                      -3.33333333E-01  2.50000000E-01  0.00000000E+00
                      -2.50000000E-01  2.50000000E-01  0.00000000E+00
                       3.33333333E-01  3.33333333E-01  0.00000000E+00
                       4.16666667E-01  3.33333333E-01  0.00000000E+00
                       5.00000000E-01  3.33333333E-01  0.00000000E+00
                      -4.16666667E-01  3.33333333E-01  0.00000000E+00
                      -3.33333333E-01  3.33333333E-01  0.00000000E+00
                       4.16666667E-01  4.16666667E-01  0.00000000E+00
                       5.00000000E-01  4.16666667E-01  0.00000000E+00
                      -4.16666667E-01  4.16666667E-01  0.00000000E+00
                       5.00000000E-01  5.00000000E-01  0.00000000E+00
                       8.33333333E-02  0.00000000E+00  8.33333333E-02
                       1.66666667E-01  0.00000000E+00  8.33333333E-02
                       2.50000000E-01  0.00000000E+00  8.33333333E-02
                       3.33333333E-01  0.00000000E+00  8.33333333E-02
                       4.16666667E-01  0.00000000E+00  8.33333333E-02
                       5.00000000E-01  0.00000000E+00  8.33333333E-02
                      -4.16666667E-01  0.00000000E+00  8.33333333E-02
                       outvar_i_n : Printing only first  50 k-points.
         kptrlatt       12    0    0      0   12    0      0    0   12
          kptrlen1     1.82659909E+02
          kptrlen2     1.82659909E+02
P           mkmem          28
            natom           9
            nband          42
           ndtset           2
            ngfft          60      60      60
          ngfftdg          90      90      90
             nkpt         163
            nstep        2500
             nsym           8
           ntypat           4
              occ      2.000000  2.000000  2.000000  2.000000  2.000000  2.000000
                       2.000000  2.000000  2.000000  2.000000  2.000000  2.000000
                       2.000000  2.000000  2.000000  2.000000  2.000000  2.000000
                       2.000000  2.000000  2.000000  2.000000  2.000000  2.000000
                       2.000000  2.000000  2.000000  2.000000  2.000000  2.000000
                       2.000000  2.000000  2.000000  2.000000  2.000000  2.000000
                       0.000000  0.000000  0.000000  0.000000  0.000000  0.000000
        pawecutdg      4.00000000E+01 Hartree
            prtwf           0
            rprim1     0.0000000000E+00  7.0673985296E-01  7.0747351911E-01
                       7.0710678119E-01  0.0000000000E+00  7.0710678119E-01
                       7.0747351911E-01  7.0673985296E-01  0.0000000000E+00
            rprim2     0.0000000000E+00  7.0747352050E-01  7.0673985156E-01
                       7.0747352050E-01  0.0000000000E+00  7.0673985156E-01
                       7.0710678119E-01  7.0710678119E-01  0.0000000000E+00
          spgroup         107
           symrel1     1  0  0   0  1  0   0  0  1       0  0  1   0  1  0   1  0  0
                       0 -1  1   0 -1  0   1 -1  0       1 -1  0   0 -1  0   0 -1  1
                       0 -1  1  -1  0  1   0  0  1       0  0  1  -1  0  1   0 -1  1
                       1  0  0   1  0 -1   1 -1  0       1 -1  0   1  0 -1   1  0  0
           symrel2     1  0  0   0  1  0   0  0  1       1  0 -1   0  1 -1   0  0 -1
                       0  1 -1   1  0 -1   0  0 -1       0  1  0   1  0  0   0  0  1
                       1  0  0   1  0 -1   1 -1  0       0  1  0   0  1 -1  -1  1  0
                       0  1 -1   0  1  0  -1  1  0       1  0 -1   1  0  0   1 -1  0
           toldfe      1.00000000E-08 Hartree
            typat1     1  1  2  4  4  4  4  4  3
            typat2     1  1  4  2  4  4  4  4  3
           useylm           1
              wtk1       0.00058    0.00463    0.00463    0.00463    0.00463    0.00463
                         0.00231    0.00231    0.00926    0.00926    0.00926    0.00926
                         0.00926    0.00926    0.00926    0.00926    0.00926    0.00463
                         0.00231    0.00926    0.00926    0.00926    0.00926    0.00926
                         0.00926    0.00926    0.00463    0.00231    0.00926    0.00926
                         0.00926    0.00926    0.00926    0.00463    0.00231    0.00926
                         0.00926    0.00926    0.00463    0.00231    0.00926    0.00463
                         0.00116    0.00116    0.00463    0.00463    0.00463    0.00463
                         0.00463    0.00463
              wtk2       0.00058    0.00463    0.00463    0.00463    0.00463    0.00463
                         0.00231    0.00116    0.00463    0.00463    0.00463    0.00463
                         0.00463    0.00463    0.00463    0.00463    0.00463    0.00231
                         0.00116    0.00463    0.00463    0.00463    0.00463    0.00463
                         0.00463    0.00463    0.00231    0.00116    0.00463    0.00463
                         0.00463    0.00463    0.00463    0.00231    0.00116    0.00463
                         0.00463    0.00463    0.00231    0.00116    0.00463    0.00231
                         0.00058    0.00231    0.00926    0.00926    0.00926    0.00926
[...]
 kpt#   1, nband= 42, wtk=  0.00058, kpt=  0.0000  0.0000  0.0000 (reduced coord)
  -2.37253   -1.21651   -1.21651   -1.21645   -0.82537   -0.82519   -0.58959   -0.57638
  -0.57452   -0.57429   -0.57429   -0.48142   -0.34287   -0.34287   -0.34264   -0.34061
  -0.34061   -0.34053   -0.22477   -0.17283   -0.17235   -0.17216   -0.17054   -0.17054
  -0.16630   -0.16630   -0.15703   -0.12479   -0.12117   -0.12117   -0.10927   -0.10927
  -0.10097   -0.09725   -0.08484   -0.08484    0.02065    0.02065    0.02433    0.07240
   0.10389    0.10643
 prteigrs : prtvol=0 or 1, do not print more k-points.

--- !EnergyTerms
iteration_state     : {dtset: 2, }
comment             : Components of total free energy in Hartree
kinetic             :  4.30417847558102E+01
hartree             :  4.12122447759948E+01
xc                  : -6.76204480535236E+01
Ewald energy        : -1.16287858503495E+02
psp_core            :  1.23808803301945E+01
local_psp           : -9.18997222723328E+01
spherical_terms     :  8.02492332574272E+00
total_energy        : -1.71148195641609E+02
total_energy_eV     : -4.65717924855021E+03
...

--- !EnergyTermsDC
iteration_state     : {dtset: 2, }
comment             : '"Double-counting" decomposition of free energy'
band_energy         : -3.13484156287917E+01
Ewald energy        : -1.16287858503495E+02
psp_core            :  1.23808803301945E+01
xc_dc               : -6.88497511837487E+01
spherical_terms     :  3.29570589438896E+01
total_energy_dc     : -1.71148086041952E+02
total_energy_dc_eV  : -4.65717626619185E+03
...

 Cartesian components of stress tensor (hartree/bohr^3)
  sigma(1 1)=  3.84578095E-06  sigma(3 2)=  6.93478976E-14
  sigma(2 2)=  3.84578095E-06  sigma(3 1)=  6.93476992E-14
  sigma(3 3)=  3.87293895E-06  sigma(2 1)= -1.38550115E-13

-Cartesian components of stress tensor (GPa)         [Pressure= -1.1341E-01 GPa]
- sigma(1 1)=  1.13146763E-01  sigma(3 2)=  2.04028524E-09
- sigma(2 2)=  1.13146763E-01  sigma(3 1)=  2.04027941E-09
- sigma(3 3)=  1.13945779E-01  sigma(2 1)= -4.07628442E-09

== END DATASET(S) ==============================================================

 -outvars: echo values of variables after computation  --------
            acell1     1.5221659112E+01  1.5229553761E+01  1.5221659112E+01 Bohr
            acell2     1.5221659101E+01  1.5221659101E+01  1.5229553780E+01 Bohr
              amu      1.32905430E+02  1.26904470E+02  1.78490000E+02
                       7.99040000E+01
           diemac      1.20000000E+01
             ecut      1.60000000E+01 Hartree
           etotal1    -1.7114808604E+02
           etotal2    -1.7114808604E+02
            fcart1     5.7267864421E-22  1.4558916859E-06 -1.7098129470E-22
                       3.5488828704E-22  1.4558916859E-06  4.6809062465E-23
                       5.0664508591E-22 -2.1480115465E-05 -1.0494773640E-22
                      -6.0029792796E-17 -3.9098744910E-06  5.3572955016E-06
                       6.0028233631E-17 -3.9098744912E-06 -5.3572955016E-06
                       2.6205836826E-22 -1.3302493424E-05  1.3963898125E-22
                      -5.3572955016E-06 -3.9098744912E-06  6.0027717017E-17
                       5.3572955016E-06 -3.9098744910E-06 -6.0029157058E-17
                      -7.1105690998E-22  4.7510323482E-05  1.1127542595E-21
            fcart2    -6.8879625599E-22  5.7182302678E-22 -1.0240826361E-06
                      -5.9553666686E-23 -5.7419562527E-23 -1.0240826361E-06
                       8.9634243298E-17 -6.4252258933E-06  3.8326659758E-06
                      -2.9435391015E-21  2.8265658723E-21  2.3295932338E-05
                       8.7953751200E-25 -1.1785276672E-22  1.3059728602E-05
                      -8.9635085370E-17  6.4252258933E-06  3.8326659760E-06
                      -6.4252258933E-06  8.9633903574E-17  3.8326659758E-06
                       6.4252258933E-06 -8.9635630821E-17  3.8326659760E-06
                       1.6742221699E-21 -1.7911953991E-21 -4.9638159571E-05
-          fftalg         112
           istwfk        2    0    0    0    0    0    3    0    0    0
                         0    0    0    0    0    0    0    0    0    0
                         0    0    0    0    0    0    0    0    0    0
                         0    0    0    0    0    0    0    0    0    0
                         0    0    7    0    0    0    0    0    0    0
                       outvar_i_n : Printing only first  50 k-points.
              ixc     -101130
           jdtset        1    2
              kpt      0.00000000E+00  0.00000000E+00  0.00000000E+00
                       8.33333333E-02  0.00000000E+00  0.00000000E+00
                       1.66666667E-01  0.00000000E+00  0.00000000E+00
                       2.50000000E-01  0.00000000E+00  0.00000000E+00
                       3.33333333E-01  0.00000000E+00  0.00000000E+00
                       4.16666667E-01  0.00000000E+00  0.00000000E+00
                       5.00000000E-01  0.00000000E+00  0.00000000E+00
                       8.33333333E-02  8.33333333E-02  0.00000000E+00
                       1.66666667E-01  8.33333333E-02  0.00000000E+00
                       2.50000000E-01  8.33333333E-02  0.00000000E+00
                       3.33333333E-01  8.33333333E-02  0.00000000E+00
                       4.16666667E-01  8.33333333E-02  0.00000000E+00
                       5.00000000E-01  8.33333333E-02  0.00000000E+00
                      -4.16666667E-01  8.33333333E-02  0.00000000E+00
                      -3.33333333E-01  8.33333333E-02  0.00000000E+00
                      -2.50000000E-01  8.33333333E-02  0.00000000E+00
                      -1.66666667E-01  8.33333333E-02  0.00000000E+00
                      -8.33333333E-02  8.33333333E-02  0.00000000E+00
                       1.66666667E-01  1.66666667E-01  0.00000000E+00
                       2.50000000E-01  1.66666667E-01  0.00000000E+00
                       3.33333333E-01  1.66666667E-01  0.00000000E+00
                       4.16666667E-01  1.66666667E-01  0.00000000E+00
                       5.00000000E-01  1.66666667E-01  0.00000000E+00
                      -4.16666667E-01  1.66666667E-01  0.00000000E+00
                      -3.33333333E-01  1.66666667E-01  0.00000000E+00
                      -2.50000000E-01  1.66666667E-01  0.00000000E+00
                      -1.66666667E-01  1.66666667E-01  0.00000000E+00
                       2.50000000E-01  2.50000000E-01  0.00000000E+00
                       3.33333333E-01  2.50000000E-01  0.00000000E+00
                       4.16666667E-01  2.50000000E-01  0.00000000E+00
                       5.00000000E-01  2.50000000E-01  0.00000000E+00
                      -4.16666667E-01  2.50000000E-01  0.00000000E+00
                      -3.33333333E-01  2.50000000E-01  0.00000000E+00
                      -2.50000000E-01  2.50000000E-01  0.00000000E+00
                       3.33333333E-01  3.33333333E-01  0.00000000E+00
                       4.16666667E-01  3.33333333E-01  0.00000000E+00
                       5.00000000E-01  3.33333333E-01  0.00000000E+00
                      -4.16666667E-01  3.33333333E-01  0.00000000E+00
                      -3.33333333E-01  3.33333333E-01  0.00000000E+00
                       4.16666667E-01  4.16666667E-01  0.00000000E+00
                       5.00000000E-01  4.16666667E-01  0.00000000E+00
                      -4.16666667E-01  4.16666667E-01  0.00000000E+00
                       5.00000000E-01  5.00000000E-01  0.00000000E+00
                       8.33333333E-02  0.00000000E+00  8.33333333E-02
                       1.66666667E-01  0.00000000E+00  8.33333333E-02
                       2.50000000E-01  0.00000000E+00  8.33333333E-02
                       3.33333333E-01  0.00000000E+00  8.33333333E-02
                       4.16666667E-01  0.00000000E+00  8.33333333E-02
                       5.00000000E-01  0.00000000E+00  8.33333333E-02
                      -4.16666667E-01  0.00000000E+00  8.33333333E-02
                       outvar_i_n : Printing only first  50 k-points.
         kptrlatt       12    0    0      0   12    0      0    0   12
          kptrlen1     1.82659909E+02
          kptrlen2     1.82659909E+02
P           mkmem          28
            natom           9
            nband          42
           ndtset           2
            ngfft          60      60      60
          ngfftdg          90      90      90
             nkpt         163
            nstep        2500
             nsym           8
           ntypat           4
              occ      2.000000  2.000000  2.000000  2.000000  2.000000  2.000000
                       2.000000  2.000000  2.000000  2.000000  2.000000  2.000000
                       2.000000  2.000000  2.000000  2.000000  2.000000  2.000000
                       2.000000  2.000000  2.000000  2.000000  2.000000  2.000000
                       2.000000  2.000000  2.000000  2.000000  2.000000  2.000000
                       2.000000  2.000000  2.000000  2.000000  2.000000  2.000000
                       0.000000  0.000000  0.000000  0.000000  0.000000  0.000000
        pawecutdg      4.00000000E+01 Hartree
            prtwf           0
            rprim1     0.0000000000E+00  7.0673985296E-01  7.0747351911E-01
                       7.0710678119E-01  0.0000000000E+00  7.0710678119E-01
                       7.0747351911E-01  7.0673985296E-01  0.0000000000E+00
            rprim2     0.0000000000E+00  7.0747352050E-01  7.0673985156E-01
                       7.0747352050E-01  0.0000000000E+00  7.0673985156E-01
                       7.0710678119E-01  7.0710678119E-01  0.0000000000E+00
          spgroup         107
           strten1     3.8493150304E-06  3.8787830003E-06  3.8493150304E-06
                       5.5699976394E-14 -1.1128408975E-13  5.5699559556E-14
           strten2     3.8457809503E-06  3.8457809503E-06  3.8729389493E-06
                       6.9347897589E-14  6.9347699189E-14 -1.3855011477E-13
           symrel1     1  0  0   0  1  0   0  0  1       0  0  1   0  1  0   1  0  0
                       0 -1  1   0 -1  0   1 -1  0       1 -1  0   0 -1  0   0 -1  1
                       0 -1  1  -1  0  1   0  0  1       0  0  1  -1  0  1   0 -1  1
                       1  0  0   1  0 -1   1 -1  0       1 -1  0   1  0 -1   1  0  0
           symrel2     1  0  0   0  1  0   0  0  1       1  0 -1   0  1 -1   0  0 -1
                       0  1 -1   1  0 -1   0  0 -1       0  1  0   1  0  0   0  0  1
                       1  0  0   1  0 -1   1 -1  0       0  1  0   0  1 -1  -1  1  0
                       0  1 -1   0  1  0  -1  1  0       1  0 -1   1  0  0   1 -1  0
           toldfe      1.00000000E-08 Hartree
            typat1     1  1  2  4  4  4  4  4  3
            typat2     1  1  4  2  4  4  4  4  3
           useylm           1
              wtk1       0.00058    0.00463    0.00463    0.00463    0.00463    0.00463
                         0.00231    0.00231    0.00926    0.00926    0.00926    0.00926
                         0.00926    0.00926    0.00926    0.00926    0.00926    0.00463
                         0.00231    0.00926    0.00926    0.00926    0.00926    0.00926
                         0.00926    0.00926    0.00463    0.00231    0.00926    0.00926
                         0.00926    0.00926    0.00926    0.00463    0.00231    0.00926
                         0.00926    0.00926    0.00463    0.00231    0.00926    0.00463
                         0.00116    0.00116    0.00463    0.00463    0.00463    0.00463
                         0.00463    0.00463
              wtk2       0.00058    0.00463    0.00463    0.00463    0.00463    0.00463
                         0.00231    0.00116    0.00463    0.00463    0.00463    0.00463
                         0.00463    0.00463    0.00463    0.00463    0.00463    0.00231
                         0.00116    0.00463    0.00463    0.00463    0.00463    0.00463
                         0.00463    0.00463    0.00231    0.00116    0.00463    0.00463
                         0.00463    0.00463    0.00463    0.00231    0.00116    0.00463
                         0.00463    0.00463    0.00231    0.00116    0.00463    0.00231
                         0.00058    0.00231    0.00926    0.00926    0.00926    0.00926
                         0.00926    0.00926
                       outvars : Printing only first  50 k-points.
           xangst1     2.8493337080E+00  2.8748148099E+00  2.8493337080E+00
                       8.5480011241E+00  8.5675725781E+00  8.5480011241E+00
                       5.6986674160E+00  8.5430530396E+00  5.6986674160E+00
                       5.6986674160E+00  5.7072604215E+00  2.6233211291E+00
                       5.6986674161E+00  5.7072604215E+00  8.7740137031E+00
                       5.6986674161E+00  2.6726135304E+00  5.6986674161E+00
                       8.7740137031E+00  5.7072604215E+00  5.6986674161E+00
                       2.6233211291E+00  5.7072604215E+00  5.6986674160E+00
                      -6.1653561800E-13  5.4966501052E-02 -6.1653561800E-13
           xangst2     2.8493337116E+00  2.8493337116E+00  2.8179429459E+00
                       8.5480011348E+00  8.5480011348E+00  8.5107006987E+00
                       5.6986674232E+00  8.7740137197E+00  5.6782550999E+00
                       5.6986674232E+00  5.6986674232E+00  2.8424624954E+00
                       5.6986674231E+00  5.6986674231E+00  8.7129019811E+00
                       5.6986674231E+00  2.6233211267E+00  5.6782550999E+00
                       8.7740137197E+00  5.6986674232E+00  5.6782550999E+00
                       2.6233211267E+00  5.6986674231E+00  5.6782550999E+00
                       7.6760745559E-13  7.6760745559E-13 -5.4966498562E-02
            xcart1     5.3844603694E+00  5.4326126735E+00  5.3844603694E+00
                       1.6153381108E+01  1.6190365796E+01  1.6153381108E+01
                       1.0768920739E+01  1.6144030583E+01  1.0768920739E+01
                       1.0768920739E+01  1.0785159166E+01  4.9573584926E+00
                       1.0768920739E+01  1.0785159166E+01  1.6580482985E+01
                       1.0768920739E+01  5.0505076316E+00  1.0768920739E+01
                       1.6580482985E+01  1.0785159166E+01  1.0768920739E+01
                       4.9573584926E+00  1.0785159166E+01  1.0768920739E+01
                      -1.1650834692E-12  1.0387163347E-01 -1.1650834692E-12
            xcart2     5.3844603761E+00  5.3844603761E+00  5.3251404259E+00
                       1.6153381128E+01  1.6153381128E+01  1.6082893519E+01
                       1.0768920752E+01  1.6580483016E+01  1.0730347051E+01
                       1.0768920752E+01  1.0768920752E+01  5.3714756593E+00
                       1.0768920752E+01  1.0768920752E+01  1.6464998567E+01
                       1.0768920752E+01  4.9573584880E+00  1.0730347051E+01
                       1.6580483016E+01  1.0768920752E+01  1.0730347051E+01
                       4.9573584880E+00  1.0768920752E+01  1.0730347051E+01
                       1.4505678686E-12  1.4505678686E-12 -1.0387162877E-01
             xred1     2.5249755277E-01  2.4750244723E-01  2.5249755277E-01
                       7.5249755277E-01  7.4750244723E-01  7.5249755277E-01
                       7.5034397980E-01  2.4965602020E-01  7.5034397980E-01
                       2.3144348012E-01  2.2889591812E-01  7.7110408188E-01
                       7.7110408188E-01  7.6855651988E-01  2.3144348012E-01
                       2.3473803377E-01  7.6526196623E-01  2.3473803377E-01
                       2.3144348012E-01  7.6855651988E-01  7.7110408188E-01
                       7.7110408188E-01  2.2889591812E-01  2.3144348012E-01
                       4.8277568879E-03 -4.8277568879E-03  4.8277568879E-03
             xred2     2.4750244682E-01  2.4750244682E-01  2.5249755318E-01
                       7.4750244682E-01  7.4750244682E-01  7.5249755318E-01
                       7.6855652042E-01  2.2889591766E-01  7.7110408234E-01
                       2.4965602076E-01  2.4965602076E-01  7.5034397924E-01
                       7.6526196613E-01  7.6526196613E-01  2.3473803387E-01
                       2.2889591766E-01  7.6855652042E-01  2.3144347958E-01
                       2.2889591766E-01  7.6855652042E-01  7.7110408234E-01
                       7.6855652042E-01  2.2889591766E-01  2.3144347958E-01
                      -4.8277566822E-03 -4.8277566822E-03  4.8277566822E-03
            znucl       55.00000   53.00000   72.00000   35.00000

- Timing analysis has been suppressed with timopt=0

 Suggested references for the acknowledgment of ABINIT usage.

 Calculation completed.
.Delivered   0 WARNINGs and   0 COMMENTs to log file.