.Version 9.2.2 of ABINIT

 ABINIT is a project of the Universite Catholique de Louvain,
 Corning Inc. and other collaborators, see ~abinit/doc/developers/contributors.txt .
 acknowledgments of the ABINIT effort.

.Starting date : Mon 12 Dec 2022.
- ( at 22h48 )

- The starting date is more than 2 years after the initial release
- of this version of ABINIT, namely Nov 2020.
- Note that the use beyond 3 years after the release will not be supported.
- Action: please, switch to a more recent version of ABINIT.

- input  file    -> Cs2TiI6.in
- output file    -> Cs2TiI6.out
- root for input  files -> Cs2TiI6i
- root for output files -> Cs2TiI6o

- inpspheads : Reading pseudopotential header in XML form from
-   ../../../Psps_for_tests/ATOMICDATA/Cs.GGA_PBE-JTH.xml
- inpspheads : Reading pseudopotential header in XML form from
-   ../../../Psps_for_tests/ATOMICDATA/I.GGA_PBE-JTH.xml
- inpspheads : Reading pseudopotential header in XML form from
-   ../../../Psps_for_tests/ATOMICDATA/Zr.GGA_PBE-JTH.xml
- inpspheads : Reading pseudopotential header in XML form from
-   ../../../Psps_for_tests/ATOMICDATA/Cl.GGA_PBE-JTH.xml

 DATASET    1 : space group I4 m m (#107); Bravais tI (body-center tetrag.)
     intxc =       0    ionmov =       2      iscf =      17    lmnmax =      18
     lnmax =       6     mgfft =      60  mpssoang =       3    mqgrid =    3678
     natom =       9  nloc_mem =       2    nspden =       1   nspinor =       1
    nsppol =       1      nsym =       8    n1xccc =       1    ntypat =       4
    occopt =       1   xclevel =       2
-    mband =          42        mffmem =           1         mkmem =           5
       mpw =        8597          nfft =      216000          nkpt =          20
Pmy_natom=         3
 PAW method is used; the additional fine FFT grid is defined by:
   mgfftf=        96    nfftf =    884736
  Rough estimation (10% accuracy) of disk space for files :

[...]

 DATASET   10 : space group I4 m m (#107); Bravais tI (body-center tetrag.)
     intxc =       0    ionmov =       2      iscf =      17    lmnmax =      18
     lnmax =       6     mgfft =      60  mpssoang =       3    mqgrid =    3645
     natom =       9  nloc_mem =       2    nspden =       1   nspinor =       1
    nsppol =       1      nsym =       8    n1xccc =       1    ntypat =       4
    occopt =       1   xclevel =       2
-    mband =          42        mffmem =           1         mkmem =           5
       mpw =        8359          nfft =      216000          nkpt =          20
Pmy_natom=         3
 PAW method is used; the additional fine FFT grid is defined by:
   mgfftf=        96    nfftf =    884736
  Rough estimation (10% accuracy) of disk space for files :

------------- Echo of variables that govern the present computation ------------
-
- outvars: echo of selected default values
-   iomode0 =  0 , fftalg0 =112 , wfoptalg0 = 10
-
- outvars: echo of global parameters not present in the input file
-  max_nthreads =    0
-
 -outvars: echo values of preprocessed input variables --------
            acell1     1.3674911963E+01  1.3674911963E+01  1.3946697158E+01 Bohr
            acell2     1.3661223363E+01  1.3661223363E+01  1.3932736500E+01 Bohr
            acell3     1.3647534762E+01  1.3647534762E+01  1.3918775843E+01 Bohr
            acell4     1.3633846162E+01  1.3633846162E+01  1.3904815185E+01 Bohr
            acell5     1.3620157561E+01  1.3620157561E+01  1.3890854527E+01 Bohr
            acell6     1.3606468961E+01  1.3606468961E+01  1.3876893869E+01 Bohr
            acell7     1.3592780360E+01  1.3592780360E+01  1.3862933211E+01 Bohr
            acell8     1.3579091759E+01  1.3579091759E+01  1.3848972553E+01 Bohr
            acell9     1.3565403159E+01  1.3565403159E+01  1.3835011896E+01 Bohr
            acell10    1.3551714558E+01  1.3551714558E+01  1.3821051238E+01 Bohr
              amu      1.32905430E+02  1.26904470E+02  9.12240000E+01
                       3.54527000E+01
           diemac      1.20000000E+01
          dilatmx      1.15000000E+00
             ecut      1.60000000E+01 Hartree
           ecutsm      5.00000000E-01 Hartree
-          fftalg         112
           ionmov           2
              ixc     -101130
           jdtset        1    2    3    4    5    6    7    8    9   10
              kpt     -1.25000000E-01 -2.50000000E-01  0.00000000E+00
                      -1.25000000E-01  5.00000000E-01  0.00000000E+00
                      -2.50000000E-01 -3.75000000E-01  0.00000000E+00
                      -1.25000000E-01 -3.75000000E-01  1.25000000E-01
                      -1.25000000E-01  2.50000000E-01  0.00000000E+00
                      -2.50000000E-01  3.75000000E-01  0.00000000E+00
                      -1.25000000E-01  3.75000000E-01  1.25000000E-01
                      -3.75000000E-01  5.00000000E-01  0.00000000E+00
                      -2.50000000E-01  5.00000000E-01  1.25000000E-01
                      -1.25000000E-01  5.00000000E-01  2.50000000E-01
                      -1.25000000E-01  0.00000000E+00  0.00000000E+00
                      -1.25000000E-01  1.25000000E-01  1.25000000E-01
                      -1.25000000E-01  2.50000000E-01  2.50000000E-01
                      -1.25000000E-01  3.75000000E-01  3.75000000E-01
                      -3.75000000E-01  0.00000000E+00  0.00000000E+00
                      -2.50000000E-01  0.00000000E+00  1.25000000E-01
                      -3.75000000E-01  1.25000000E-01  1.25000000E-01
                      -2.50000000E-01  1.25000000E-01  2.50000000E-01
                      -3.75000000E-01  2.50000000E-01  2.50000000E-01
                      -2.50000000E-01  2.50000000E-01  3.75000000E-01
         kptrlatt        4   -4    4     -4    4    4     -4   -4    4
          kptrlen1     7.57883522E+01
          kptrlen2     7.57124880E+01
          kptrlen3     7.56366238E+01
          kptrlen4     7.55607596E+01
          kptrlen5     7.54848953E+01
          kptrlen6     7.54090311E+01
          kptrlen7     7.53331669E+01
          kptrlen8     7.52573027E+01
          kptrlen9     7.51814385E+01
          kptrlen10    7.51055743E+01
P           mkmem           5
            natom           9
            nband          42
           ndtset          10
            ngfft          60      60      60
          ngfftdg          96      96      96
             nkpt          20
            nstep        2500
             nsym           8
            ntime        1000
           ntypat           4
              occ      2.000000  2.000000  2.000000  2.000000  2.000000  2.000000
                       2.000000  2.000000  2.000000  2.000000  2.000000  2.000000
                       2.000000  2.000000  2.000000  2.000000  2.000000  2.000000
                       2.000000  2.000000  2.000000  2.000000  2.000000  2.000000
                       2.000000  2.000000  2.000000  2.000000  2.000000  2.000000
                       2.000000  2.000000  2.000000  2.000000  2.000000  2.000000
                       0.000000  0.000000  0.000000  0.000000  0.000000  0.000000
          optcell           3
        optforces           1
        pawecutdg      4.00000000E+01 Hartree
            prtwf           0
            rprim      0.0000000000E+00  7.2116033815E-01  6.9276819116E-01
                       7.2116033815E-01  0.0000000000E+00  6.9276819116E-01
                       7.0710678119E-01  7.0710678119E-01  0.0000000000E+00
           shiftk      5.00000000E-01  5.00000000E-01  5.00000000E-01
          spgroup         107
           symrel      1  0  0   0  1  0   0  0  1       1  0 -1   0  1 -1   0  0 -1
                       0  1 -1   1  0 -1   0  0 -1       0  1  0   1  0  0   0  0  1
                       1  0  0   1  0 -1   1 -1  0       0  1  0   0  1 -1  -1  1  0
                       0  1 -1   0  1  0  -1  1  0       1  0 -1   1  0  0   1 -1  0
           toldff      1.00000000E-08
           tolmxf      1.00000000E-05
            typat      1  1  2  4  4  4  4  4  3
           useylm           1
              wtk        0.03125    0.03125    0.03125    0.06250    0.03125    0.03125
                         0.06250    0.03125    0.06250    0.06250    0.03125    0.06250
                         0.06250    0.06250    0.03125    0.06250    0.06250    0.06250
                         0.06250    0.06250
           xangst1     2.6093209921E+00  2.6093209921E+00  2.4514061817E+00
                       7.8279629763E+00  7.8279629763E+00  7.4645897644E+00
                       5.2186419842E+00  5.2186419842E+00  2.7621553981E+00
                       5.2186419842E+00  5.2186419842E+00  7.4872622922E+00
                       7.9767091847E+00  5.2186419842E+00  5.0065338507E+00
                       5.2186419842E+00  7.9767091847E+00  5.0065338507E+00
                       5.2186419842E+00  2.4605747838E+00  5.0065338507E+00
                       2.4605747838E+00  5.2186419842E+00  5.0065338507E+00
                       1.4638562275E-13  1.4638562275E-13 -8.6080377398E-02
           xangst2     2.6067090592E+00  2.6067090592E+00  2.4489523217E+00
                       7.8201271775E+00  7.8201271775E+00  7.4571177026E+00
                       5.2134181184E+00  5.2134181184E+00  2.7593904777E+00
                       5.2134181184E+00  5.2134181184E+00  7.4797675352E+00
                       7.9687244908E+00  5.2134181184E+00  5.0015223053E+00
                       5.2134181184E+00  7.9687244908E+00  5.0015223053E+00
                       5.2134181184E+00  2.4581117459E+00  5.0015223053E+00
                       2.4581117459E+00  5.2134181184E+00  5.0015223053E+00
                       1.4624278899E-13  1.4624278899E-13 -8.5994210854E-02
           xangst3     2.6040971263E+00  2.6040971263E+00  2.4464984616E+00
                       7.8122913788E+00  7.8122913788E+00  7.4496456407E+00
                       5.2081942525E+00  5.2081942525E+00  2.7566255574E+00
                       5.2081942525E+00  5.2081942525E+00  7.4722727781E+00
                       7.9607397969E+00  5.2081942525E+00  4.9965107599E+00
                       5.2081942525E+00  7.9607397969E+00  4.9965107599E+00
                       5.2081942525E+00  2.4556487081E+00  4.9965107599E+00
                       2.4556487081E+00  5.2081942525E+00  4.9965107599E+00
                       1.4610729905E-13  1.4610729905E-13 -8.5908044310E-02
           xangst4     2.6014851933E+00  2.6014851933E+00  2.4440446016E+00
                       7.8044555800E+00  7.8044555800E+00  7.4421735789E+00
                       5.2029703867E+00  5.2029703867E+00  2.7538606371E+00
                       5.2029703867E+00  5.2029703867E+00  7.4647780211E+00
                       7.9527551030E+00  5.2029703867E+00  4.9914992145E+00
                       5.2029703867E+00  7.9527551030E+00  4.9914992145E+00
                       5.2029703867E+00  2.4531856703E+00  4.9914992145E+00
                       2.4531856703E+00  5.2029703867E+00  4.9914992145E+00
                       1.4594075196E-13  1.4594075196E-13 -8.5821877766E-02
           xangst5     2.5988732604E+00  2.5988732604E+00  2.4415907415E+00
[...]
                       1.4965591059E-13  1.5001575724E-13 -8.7843654060E-02
           xangst7     2.5937150321E+00  2.5937150321E+00  2.4386875465E+00
                       7.7811450963E+00  7.7811450963E+00  7.4215097145E+00
                       5.1874300642E+00  5.1874300642E+00  2.7533262310E+00
                       5.1874300642E+00  5.1874300642E+00  7.4242097150E+00
                       7.9149373938E+00  5.1874300642E+00  4.9782328721E+00
                       5.1874300642E+00  7.9149373938E+00  4.9782328721E+00
                       5.1874300642E+00  2.4599227346E+00  4.9782328721E+00
                       2.4599227346E+00  5.1874300642E+00  4.9782328721E+00
                       1.4981170999E-13  1.4982639761E-13 -8.8087350816E-02
           xangst8     2.5911209447E+00  2.5911209447E+00  2.4364554987E+00
                       7.7733628340E+00  7.7733628340E+00  7.4141908992E+00
                       5.1822418894E+00  5.1822418894E+00  2.7516313167E+00
                       5.1822418893E+00  5.1822418893E+00  7.4141897493E+00
                       7.9050213642E+00  5.1822418894E+00  4.9734341385E+00
                       5.1822418894E+00  7.9050213642E+00  4.9734341385E+00
                       5.1822418893E+00  2.4594624145E+00  4.9734341385E+00
                       2.4594624145E+00  5.1822418893E+00  4.9734341385E+00
                       1.4979371968E-13  1.5035919297E-13 -8.8320813970E-02
           xangst9     2.5884529955E+00  2.5884529955E+00  2.4343624270E+00
                       7.7653589865E+00  7.7653589865E+00  7.4072948554E+00
                       5.1769059910E+00  5.1769059910E+00  2.7499966453E+00
                       5.1769059910E+00  5.1769059910E+00  7.4046691760E+00
                       7.8947979500E+00  5.1769059910E+00  4.9689229038E+00
                       5.1769059910E+00  7.8947979500E+00  4.9689229038E+00
                       5.1769059910E+00  2.4590140320E+00  4.9689229038E+00
                       2.4590140320E+00  5.1769059910E+00  4.9689229038E+00
                       1.5051204680E-13  1.5051939061E-13 -8.8555291829E-02
           xangst10    2.5858178819E+00  2.5858178819E+00  2.4322567205E+00
                       7.7574536458E+00  7.7574536458E+00  7.4002600176E+00
                       5.1716357638E+00  5.1716357638E+00  2.7482906223E+00
                       5.1716357638E+00  5.1716357638E+00  7.3948563821E+00
                       7.8847230747E+00  5.1716357638E+00  4.9643034306E+00
                       5.1716357638E+00  7.8847230747E+00  4.9643034306E+00
                       5.1716357638E+00  2.4585484530E+00  4.9643034306E+00
                       2.4585484530E+00  5.1716357638E+00  4.9643034306E+00
                       1.4996159541E-13  1.5054175632E-13 -8.8851087772E-02
            xcart1     4.9308526880E+00  4.9308526880E+00  4.6329095774E+00
                       1.4792558064E+01  1.4792558064E+01  1.4106643349E+01
                       9.8617053759E+00  9.8617053759E+00  5.2220098684E+00
                       9.8617053759E+00  9.8617053759E+00  1.4144447932E+01
                       1.5069763184E+01  9.8617053759E+00  9.4617832865E+00
                       9.8617053759E+00  1.5069763184E+01  9.4617832865E+00
                       9.8617053759E+00  4.6536475681E+00  9.4617832865E+00
                       4.6536475681E+00  9.8617053759E+00  9.4617832865E+00
                       2.7802664112E-13  2.7880379723E-13 -1.6327370148E-01
            xcart2     4.9259631878E+00  4.9259631878E+00  4.6287978658E+00
                       1.4777889563E+01  1.4777889563E+01  1.4092870554E+01
                       9.8519263756E+00  9.8519263756E+00  5.2187403102E+00
                       9.8519263756E+00  9.8519263756E+00  1.4125142242E+01
                       1.5050898255E+01  9.8519263756E+00  9.4527078699E+00
                       9.8519263756E+00  1.5050898255E+01  9.4527078699E+00
                       9.8519263756E+00  4.6529544962E+00  9.4527078699E+00
                       4.6529544962E+00  9.8519263756E+00  9.4527078699E+00
                       2.7868147146E-13  2.7786268198E-13 -1.6380094865E-01
            xcart3     4.9210528134E+00  4.9210528134E+00  4.6251230230E+00
                       1.4763158440E+01  1.4763158440E+01  1.4079614840E+01
                       9.8421056267E+00  9.8421056267E+00  5.2155738654E+00
                       9.8421056267E+00  9.8421056267E+00  1.4105818790E+01
                       1.5032175044E+01  9.8421056267E+00  9.4435759486E+00
                       9.8421056267E+00  1.5032175044E+01  9.4435759486E+00
                       9.8421056267E+00  4.6520362099E+00  9.4435759486E+00
                       4.6520362099E+00  9.8421056267E+00  9.4435759486E+00
                       2.7975643442E-13  2.7975643442E-13 -1.6449977386E-01
            xcart4     4.9161329137E+00  4.9161329137E+00  4.6210916838E+00
                       1.4748398741E+01  1.4748398741E+01  1.4066039232E+01
                       9.8322658274E+00  9.8322658274E+00  5.2124161374E+00
                       9.8322658274E+00  9.8322658274E+00  1.4086790781E+01
                       1.5013350614E+01  9.8322658274E+00  9.4345769652E+00
                       9.8322658274E+00  1.5013350614E+01  9.4345769652E+00
                       9.8322658274E+00  4.6511810406E+00  9.4345769652E+00
                       4.6511810406E+00  9.8322658274E+00  9.4345769652E+00
                       2.8047405302E-13  2.8211163198E-13 -1.6506530741E-01
            xcart5     4.9112777375E+00  4.9112777375E+00  4.6169319335E+00
                       1.4733833213E+01  1.4733833213E+01  1.4052086525E+01
                       9.8225554751E+00  9.8225554751E+00  5.2092846400E+00
                       9.8225554750E+00  9.8225554750E+00  1.4067226735E+01
                       1.4994779775E+01  9.8225554751E+00  9.4253243678E+00
                       9.8225554751E+00  1.4994779775E+01  9.4253243678E+00
                       9.8225554750E+00  4.6503311755E+00  9.4253243678E+00
                       4.6503311755E+00  9.8225554750E+00  9.4253243678E+00
                       2.7838802860E-13  2.7838802860E-13 -1.6559056862E-01
            xcart6     4.9063880008E+00  4.9063880008E+00  4.6125548463E+00
                       1.4719164002E+01  1.4719164002E+01  1.4038049282E+01
                       9.8127760015E+00  9.8127760015E+00  5.2061807791E+00
                       9.8127760015E+00  9.8127760015E+00  1.4048149061E+01
                       1.4976085174E+01  9.8127760015E+00  9.4162554918E+00
                       9.8127760015E+00  1.4976085174E+01  9.4162554918E+00
                       9.8127760015E+00  4.6494668290E+00  9.4162554918E+00
                       4.6494668290E+00  9.8127760015E+00  9.4162554918E+00
                       2.8280868519E-13  2.8348869679E-13 -1.6600044869E-01
            xcart7     4.9014110774E+00  4.9014110774E+00  4.6084515865E+00
                       1.4704233232E+01  1.4704233232E+01  1.4024620853E+01
                       9.8028221548E+00  9.8028221548E+00  5.2030325310E+00
                       9.8028221548E+00  9.8028221548E+00  1.4029723114E+01
                       1.4957064033E+01  9.8028221548E+00  9.4074967539E+00
                       9.8028221548E+00  1.4957064033E+01  9.4074967539E+00
                       9.8028221548E+00  4.6485802764E+00  9.4074967539E+00
                       4.6485802764E+00  9.8028221548E+00  9.4074967539E+00
                       2.8310310338E-13  2.8313085895E-13 -1.6646096881E-01
            xcart8     4.8965089626E+00  4.8965089626E+00  4.6042336275E+00
                       1.4689526888E+01  1.4689526888E+01  1.4010790296E+01
                       9.7930179252E+00  9.7930179252E+00  5.1998296072E+00
                       9.7930179252E+00  9.7930179252E+00  1.4010788123E+01
                       1.4938325453E+01  9.7930179252E+00  9.3984284618E+00
                       9.7930179252E+00  1.4938325453E+01  9.3984284618E+00
                       9.7930179252E+00  4.6477103976E+00  9.3984284618E+00
                       4.6477103976E+00  9.7930179252E+00  9.3984284618E+00
                       2.8306910662E-13  2.8413769628E-13 -1.6690215024E-01
            xcart9     4.8914672694E+00  4.8914672694E+00  4.6002782953E+00
                       1.4674401808E+01  1.4674401808E+01  1.3997758662E+01
                       9.7829345387E+00  9.7829345387E+00  5.1967405260E+00
                       9.7829345387E+00  9.7829345387E+00  1.3992796847E+01
                       1.4919006000E+01  9.7829345387E+00  9.3899034636E+00
                       9.7829345387E+00  1.4919006000E+01  9.3899034636E+00
                       9.7829345387E+00  4.6468630774E+00  9.3899034636E+00
                       4.6468630774E+00  9.7829345387E+00  9.3899034636E+00
                       2.8442654814E-13  2.8444042593E-13 -1.6734524917E-01
            xcart10    4.8864876263E+00  4.8864876263E+00  4.5962990867E+00
                       1.4659462879E+01  1.4659462879E+01  1.3984464745E+01
                       9.7729752527E+00  9.7729752527E+00  5.1935166098E+00
                       9.7729752527E+00  9.7729752527E+00  1.3974253354E+01
                       1.4899967245E+01  9.7729752527E+00  9.3811739243E+00
                       9.7729752527E+00  1.4899967245E+01  9.3811739243E+00
                       9.7729752527E+00  4.6459832606E+00  9.3811739243E+00
                       4.6459832606E+00  9.7729752527E+00  9.3811739243E+00
                       2.8338634578E-13  2.8448269101E-13 -1.6790422250E-01
             xred1     2.4451339299E-01  2.4451339299E-01  2.5548660701E-01
                       7.4451339299E-01  7.4451339299E-01  7.5548660701E-01
                       2.7560463458E-01  2.7560463458E-01  7.2439536542E-01
                       7.4650862443E-01  7.4650862443E-01  2.5349137557E-01
                       2.3531465938E-01  7.6342390715E-01  7.6468534062E-01
                       7.6342390715E-01  2.3531465938E-01  7.6468534062E-01
                       2.3531465938E-01  7.6342390715E-01  2.3657609285E-01
                       7.6342390715E-01  2.3531465938E-01  2.3657609285E-01
                      -8.6171780535E-03 -8.6171780535E-03  8.6171780535E-03
             xred2     2.4454576896E-01  2.4454576896E-01  2.5545423104E-01
                       7.4454576896E-01  7.4454576896E-01  7.5545423104E-01
                       2.7571324114E-01  2.7571324114E-01  7.2428675886E-01
                       7.4625072672E-01  7.4625072672E-01  2.5374927328E-01
                       2.3554398155E-01  7.6325518047E-01  7.6445601845E-01
                       7.6325518047E-01  2.3554398155E-01  7.6445601845E-01
                       2.3554398155E-01  7.6325518047E-01  2.3674481953E-01
                       7.6325518047E-01  2.3554398155E-01  2.3674481953E-01
                      -8.6538298072E-03 -8.6538298072E-03  8.6538298072E-03
             xred3     2.4459923983E-01  2.4459923983E-01  2.5540076017E-01
                       7.4459923983E-01  7.4459923983E-01  7.5540076017E-01
                       2.7582518269E-01  2.7582518269E-01  7.2417481731E-01
                       7.4598503348E-01  7.4598503348E-01  2.5401496652E-01
                       2.3575609681E-01  7.6308933359E-01  7.6424390319E-01
                       7.6308933359E-01  2.3575609681E-01  7.6424390319E-01
                       2.3575609681E-01  7.6308933359E-01  2.3691066641E-01
                       7.6308933359E-01  2.3575609681E-01  2.3691066641E-01
                      -8.6995566256E-03 -8.6995566256E-03  8.6995566256E-03
             xred4     2.4463299876E-01  2.4463299876E-01  2.5536700124E-01
                       7.4463299876E-01  7.4463299876E-01  7.5536700124E-01
                       2.7593674346E-01  2.7593674346E-01  7.2406325654E-01
                       7.4573155165E-01  7.4573155165E-01  2.5426844835E-01
                       2.3597740653E-01  7.6292459020E-01  7.6402259347E-01
                       7.6292459020E-01  2.3597740653E-01  7.6402259347E-01
                       2.3597740653E-01  7.6292459020E-01  2.3707540980E-01
                       7.6292459020E-01  2.3597740653E-01  2.3707540980E-01
                      -8.7382860819E-03 -8.7382860819E-03  8.7382860819E-03
             xred5     2.4466646987E-01  2.4466646987E-01  2.5533353013E-01
                       7.4466646987E-01  7.4466646987E-01  7.5533353013E-01
                       2.7605719595E-01  2.7605719595E-01  7.2394280405E-01
                       7.4546879955E-01  7.4546879955E-01  2.5453120045E-01
                       2.3619603580E-01  7.6276209212E-01  7.6380396420E-01
                       7.6276209212E-01  2.3619603580E-01  7.6380396420E-01
                       2.3619603580E-01  7.6276209212E-01  2.3723790788E-01
                       7.6276209212E-01  2.3619603580E-01  2.3723790788E-01
                      -8.7751910692E-03 -8.7751910692E-03  8.7751910692E-03
             xred6     2.4468503365E-01  2.4468503365E-01  2.5531496635E-01
                       7.4468503365E-01  7.4468503365E-01  7.5531496635E-01
                       2.7617547358E-01  2.7617547358E-01  7.2382452642E-01
                       7.4522080281E-01  7.4522080281E-01  2.5477919719E-01
                       2.3641873960E-01  7.6260105251E-01  7.6358126040E-01
                       7.6260105251E-01  2.3641873960E-01  7.6358126040E-01
                       2.3641873960E-01  7.6260105251E-01  2.3739894749E-01
                       7.6260105251E-01  2.3641873960E-01  2.3739894749E-01
                      -8.8059278915E-03 -8.8059278915E-03  8.8059278915E-03
             xred7     2.4470947028E-01  2.4470947028E-01  2.5529052972E-01
                       7.4470947028E-01  7.4470947028E-01  7.5529052972E-01
                       2.7628180759E-01  2.7628180759E-01  7.2371819241E-01
                       7.4498040113E-01  7.4498040113E-01  2.5501959887E-01
                       2.3664367129E-01  7.6243530528E-01  7.6335632871E-01
                       7.6243530528E-01  2.3664367129E-01  7.6335632871E-01
                       2.3664367129E-01  7.6243530528E-01  2.3756469472E-01
                       7.6243530528E-01  2.3664367129E-01  2.3756469472E-01
                      -8.8391024048E-03 -8.8391024048E-03  8.8391024048E-03
             xred8     2.4473533672E-01  2.4473533672E-01  2.5526466328E-01
                       7.4473533672E-01  7.4473533672E-01  7.5526466328E-01
                       2.7639389153E-01  2.7639389153E-01  7.2360610847E-01
                       7.4473522122E-01  7.4473522122E-01  2.5526477878E-01
                       2.3686509535E-01  7.6227080449E-01  7.6313490465E-01
                       7.6227080449E-01  2.3686509535E-01  7.6313490465E-01
                       2.3686509535E-01  7.6227080449E-01  2.3772919551E-01
                       7.6227080449E-01  2.3686509535E-01  2.3772919551E-01
                      -8.8715858582E-03 -8.8715858582E-03  8.8715858582E-03
             xred9     2.4476126130E-01  2.4476126130E-01  2.5523873870E-01
                       7.4476126130E-01  7.4476126130E-01  7.5523873870E-01
                       2.7649648220E-01  2.7649648220E-01  7.2350351780E-01
                       7.4449726421E-01  7.4449726421E-01  2.5550273579E-01
                       2.3709528954E-01  7.6209844079E-01  7.6290471046E-01
                       7.6209844079E-01  2.3709528954E-01  7.6290471046E-01
                       2.3709528954E-01  7.6209844079E-01  2.3790155921E-01
                       7.6209844079E-01  2.3709528954E-01  2.3790155921E-01
                      -8.9037296509E-03 -8.9037296509E-03  8.9037296509E-03
             xred10    2.4479218059E-01  2.4479218059E-01  2.5520781941E-01
                       7.4479218059E-01  7.4479218059E-01  7.5520781941E-01
                       2.7659911417E-01  2.7659911417E-01  7.2340088583E-01
                       7.4424833679E-01  7.4424833679E-01  2.5575166321E-01
                       2.3732306812E-01  7.6193219273E-01  7.6267693188E-01
                       7.6193219273E-01  2.3732306812E-01  7.6267693188E-01
                       2.3732306812E-01  7.6193219273E-01  2.3806780727E-01
                       7.6193219273E-01  2.3732306812E-01  2.3806780727E-01
                      -8.9423338168E-03 -8.9423338168E-03  8.9423338168E-03
            znucl       55.00000   53.00000   40.00000   17.00000

- Timing analysis has been suppressed with timopt=0

 Suggested references for the acknowledgment of ABINIT usage.

 Calculation completed.
.Delivered   0 WARNINGs and 191 COMMENTs to log file.