.Version 9.2.2 of ABINIT

 ABINIT is a project of the Universite Catholique de Louvain,
 Corning Inc. and other collaborators, see ~abinit/doc/developers/contributors.txt .
 acknowledgments of the ABINIT effort.

.Starting date : Thu 20 Jul 2023.
- ( at 12h05 )

- The starting date is more than 2 years after the initial release
- of this version of ABINIT, namely Nov 2020.
- Note that the use beyond 3 years after the release will not be supported.
- Action: please, switch to a more recent version of ABINIT.

- input  file    -> Cs2TiI6.in
- output file    -> Cs2TiI6.out
- root for input  files -> Cs2TiI6i
- root for output files -> Cs2TiI6o

 Symmetries : space group I4/m m m (#139); Bravais tI (body-center tetrag.)
     intxc =       0    ionmov =       0      iscf =      17    lmnmax =       8
     lnmax =       8     mgfft =      64  mpssoang =       4    mqgrid =    3001
     natom =       9  nloc_mem =       1    nspden =       1   nspinor =       1
    nsppol =       1      nsym =      16    n1xccc =    2501    ntypat =       4
    occopt =       1   xclevel =       2
-    mband =          42        mffmem =           1         mkmem =           1
       mpw =       10393          nfft =      262144          nkpt =           4
  Rough estimation (10% accuracy) of disk space for files :

------------- Echo of variables that govern the present computation ------------
-
- outvars: echo of selected default values
-   iomode0 =  0 , fftalg0 =112 , wfoptalg0 =  0
-
- outvars: echo of global parameters not present in the input file
-  max_nthreads =    0
-
 -outvars: echo values of preprocessed input variables --------
            acell      1.5008731918E+01  1.5221781437E+01  1.5008731918E+01 Bohr
              amu      1.32905430E+02  1.26904470E+02  1.78490000E+02
                       3.54527000E+01
           diemac      1.20000000E+01
             ecut      2.00000000E+01 Hartree
-          fftalg         112
             iscf          17
           istwfk        1    1    1    1
              ixc        -428
              kpt      0.00000000E+00  0.00000000E+00  0.00000000E+00
                       5.00000000E-01  0.00000000E+00  0.00000000E+00
                       5.00000000E-01  5.00000000E-01  0.00000000E+00
                       5.00000000E-01  0.00000000E+00  5.00000000E-01
         kptns_hf      0.00000000E+00  0.00000000E+00  0.00000000E+00
                       5.00000000E-01  0.00000000E+00  0.00000000E+00
                       0.00000000E+00  5.00000000E-01  0.00000000E+00
                       5.00000000E-01  5.00000000E-01  0.00000000E+00
                       0.00000000E+00  0.00000000E+00  5.00000000E-01
                       5.00000000E-01  0.00000000E+00  5.00000000E-01
                       0.00000000E+00  5.00000000E-01  5.00000000E-01
                       5.00000000E-01  5.00000000E-01  5.00000000E-01
         kptrlatt        2    0    0      0    2    0      0    0    2
          kptrlen      3.00174638E+01
P           mkmem           1
            natom           9
            nband          42
          nbandhf          36
            ngfft          64      64      64
             nkpt           4
           nkpthf           8
-           npkpt           4
            nstep        2500
             nsym          16
           ntypat           4
              occ      2.000000  2.000000  2.000000  2.000000  2.000000  2.000000
                       2.000000  2.000000  2.000000  2.000000  2.000000  2.000000
                       2.000000  2.000000  2.000000  2.000000  2.000000  2.000000
                       2.000000  2.000000  2.000000  2.000000  2.000000  2.000000
                       2.000000  2.000000  2.000000  2.000000  2.000000  2.000000
                       2.000000  2.000000  2.000000  2.000000  2.000000  2.000000
                       0.000000  0.000000  0.000000  0.000000  0.000000  0.000000
            rprim      0.0000000000E+00  6.9692482559E-01  7.1714418877E-01
                       7.0710678119E-01  0.0000000000E+00  7.0710678119E-01
                       7.1714418877E-01  6.9692482559E-01  0.0000000000E+00
          spgroup         139
           symrel      1  0  0   0  1  0   0  0  1      -1  0  0   0 -1  0   0  0 -1
                       0  0 -1   0 -1  0  -1  0  0       0  0  1   0  1  0   1  0  0
                       0 -1  1   0 -1  0   1 -1  0       0  1 -1   0  1  0  -1  1  0
                      -1  1  0   0  1  0   0  1 -1       1 -1  0   0 -1  0   0 -1  1
                       0 -1  1  -1  0  1   0  0  1       0  1 -1   1  0 -1   0  0 -1
                       0  0 -1   1  0 -1   0  1 -1       0  0  1  -1  0  1   0 -1  1
                       1  0  0   1  0 -1   1 -1  0      -1  0  0  -1  0  1  -1  1  0
                      -1  1  0  -1  0  1  -1  0  0       1 -1  0   1  0 -1   1  0  0
           toldfe      1.00000000E-08 Hartree
            typat      1  1  2  4  4  2  4  4  3
          usefock           1
              wtk        0.12500    0.50000    0.25000    0.12500
           xangst      2.8478795653E+00  2.7675856549E+00  2.8478795653E+00
                       8.5436386960E+00  8.3027569648E+00  8.5436386960E+00
                       5.6957591307E+00  8.1751453908E+00  5.6957591307E+00
                       5.6957591307E+00  5.5351713099E+00  2.4538241595E+00
                       5.6957591307E+00  5.5351713099E+00  8.9376941019E+00
                       5.6957591307E+00  2.8951972290E+00  5.6957591307E+00
                       8.9376941019E+00  5.5351713099E+00  5.6957591307E+00
                       2.4538241595E+00  5.5351713099E+00  5.6957591307E+00
                       0.0000000000E+00  0.0000000000E+00  0.0000000000E+00
            xcart      5.3817124379E+00  5.2299789371E+00  5.3817124379E+00
                       1.6145137314E+01  1.5689936811E+01  1.6145137314E+01
                       1.0763424876E+01  1.5448785885E+01  1.0763424876E+01
                       1.0763424876E+01  1.0459957874E+01  4.6370556397E+00
                       1.0763424876E+01  1.0459957874E+01  1.6889794112E+01
                       1.0763424876E+01  5.4711298635E+00  1.0763424876E+01
                       1.6889794112E+01  1.0459957874E+01  1.0763424876E+01
                       4.6370556397E+00  1.0459957874E+01  1.0763424876E+01
                       0.0000000000E+00  0.0000000000E+00  0.0000000000E+00
             xred      2.5000000000E-01  2.5000000000E-01  2.5000000000E-01
                       7.5000000000E-01  7.5000000000E-01  7.5000000000E-01
                       7.3847266264E-01  2.6152733736E-01  7.3847266264E-01
                       2.1540799946E-01  2.1540799946E-01  7.8459200054E-01
                       7.8459200054E-01  7.8459200054E-01  2.1540799946E-01
                       2.6152733736E-01  7.3847266264E-01  2.6152733736E-01
                       2.1540799946E-01  7.8459200054E-01  7.8459200054E-01
                       7.8459200054E-01  2.1540799946E-01  2.1540799946E-01
                       0.0000000000E+00  0.0000000000E+00  0.0000000000E+00
            znucl       55.00000   53.00000   72.00000   17.00000

 chkinp: Checking input parameters for consistency.

== DATASET  1 ==================================================================
-   mpi_nproc: 4, omp_nthreads: -1 (-1 if OMP is not activated)

--- !DatasetInfo
iteration_state: {dtset: 1, }
dimensions: {natom: 9, nkpt: 4, mband: 42, nsppol: 1, nspinor: 1, nspden: 1, mpw: 10393, }
cutoff_energies: {ecut:  20.0, pawecutdg:  -1.0, }
electrons: {nelect:   7.20000000E+01, charge:   0.00000000E+00, occopt:   1.00000000E+00, tsmear:   1.00000000E-02, }
meta: {optdriver: 0, ionmov: 0, optcell: 0, iscf: 17, paral_kgb: 0, }
...

 Real(R)+Recip(G) space primitive vectors, cartesian coordinates (Bohr,Bohr^-1):
 R(1)=  0.0000000 10.4599579 10.7634249  G(1)= -0.0464536  0.0478013  0.0464536
 R(2)= 10.7634249  0.0000000 10.7634249  G(2)=  0.0464536 -0.0478013  0.0464536
 R(3)= 10.7634249 10.4599579  0.0000000  G(3)=  0.0464536  0.0478013 -0.0464536
 Unit cell volume ucvol=  2.4235998E+03 bohr^3
 Angles (23,13,12)=  5.95293104E+01  6.09413792E+01  5.95293104E+01 degrees

 getcut: wavevector=  0.0000  0.0000  0.0000  ngfft=  64  64  64
         ecut(hartree)=     20.000   => boxcut(ratio)=   2.08850

--- Pseudopotential description ------------------------------------------------
- pspini: atom type   1  psp file is ../../../Psps_for_tests/ONCVPSP-PBE-PDv0.4/Cs-sp.psp8
- pspatm: opening atomic psp file    ../../../Psps_for_tests/ONCVPSP-PBE-PDv0.4/Cs-sp.psp8
- Cs    ONCVPSP-3.2.3.1  r_core=   2.27353   1.85623   2.01788   1.90105
- 55.00000   9.00000    170703                znucl, zion, pspdat
    8   32    3    4       600   0.00000      pspcod,pspxc,lmax,lloc,mmax,r2well
    5.99000000000000    5.00000000000000    0.00000000000000   rchrg,fchrg,qchrg
     nproj     2     2     2     2
     extension_switch     1
  pspatm : epsatm=   22.81663475
         --- l  ekb(1:nproj) -->
             0    6.176104    0.756334
             1    6.263084    0.786397
             2    3.737592    0.906929
             3   -9.272327   -2.535859
 pspatm: atomic psp has been read  and splines computed

- pspini: atom type   2  psp file is ../../../Psps_for_tests/ONCVPSP-PBE-PDv0.4/I.psp8
- pspatm: opening atomic psp file    ../../../Psps_for_tests/ONCVPSP-PBE-PDv0.4/I.psp8
- I     ONCVPSP-3.2.3.1  r_core=   2.02042   2.17032   2.27639
- 53.00000   7.00000    170510                znucl, zion, pspdat
    8   32    2    4       600   0.00000      pspcod,pspxc,lmax,lloc,mmax,r2well
    5.99000000000000    4.00000000000000    0.00000000000000   rchrg,fchrg,qchrg
     nproj     2     2     2
     extension_switch     1
  pspatm : epsatm=   19.17050482
         --- l  ekb(1:nproj) -->
             0    5.955518    0.916455
             1    4.011347    0.742302
             2    4.134838    0.711910
 pspatm: atomic psp has been read  and splines computed

- pspini: atom type   3  psp file is ../../../Psps_for_tests/ONCVPSP-PBE-PDv0.4/Hf-sp.psp8
- pspatm: opening atomic psp file    ../../../Psps_for_tests/ONCVPSP-PBE-PDv0.4/Hf-sp.psp8
- Hf    ONCVPSP-3.2.3.1  r_core=   1.71613   1.71613   1.71613   2.42541
- 72.00000  12.00000    170501                znucl, zion, pspdat
    8   32    3    4       600   0.00000      pspcod,pspxc,lmax,lloc,mmax,r2well
    5.99000000000000    5.40000000000000    0.00000000000000   rchrg,fchrg,qchrg
     nproj     2     2     2     2
     extension_switch     1
  pspatm : epsatm=   21.94432712
         --- l  ekb(1:nproj) -->
             0    5.751490   -0.631383
             1   -2.986358    2.305386
             2    1.422276    0.146986
             3    8.827595    0.343102
 pspatm: atomic psp has been read  and splines computed

- pspini: atom type   4  psp file is ../../../Psps_for_tests/ONCVPSP-PBE-PDv0.4/Cl.psp8
- pspatm: opening atomic psp file    ../../../Psps_for_tests/ONCVPSP-PBE-PDv0.4/Cl.psp8
- Cl    ONCVPSP-3.2.3.1  r_core=   1.56009   1.35202   1.75774
- 17.00000   7.00000    170504                znucl, zion, pspdat
[...]
         --- l  ekb(1:nproj) -->
             0    8.139296    0.698720
             1    3.821713    1.107519
             2   -2.938609   -0.805455
 pspatm: atomic psp has been read  and splines computed

   1.02549374E+04                                ecore*ucvol(ha*bohr**3)

_setup2: Arith. and geom. avg. npw (full set) are   10369.375   10369.371

--- !BeginCycle
iteration_state: {dtset: 1, }
solver: {iscf: 17, nstep: 2500, nline: 4, wfoptalg: 0, }
tolerances: {toldfe: 1.00E-08, }
...

     iter   Etot(hartree)      deltaE(h)  residm     nres2
 ETOT  1  -189.64986865183    -1.896E+02 1.357E-02 3.577E+00
 ETOT  2  -195.26032455354    -5.610E+00 1.254E-02 3.373E+00
 ETOT  3  -195.25540416061     4.920E-03 2.176E-03 1.128E+00
 ETOT  4  -195.23558230150     1.982E-02 2.212E-03 4.988E-02
 ETOT  5  -195.23741635888    -1.834E-03 9.774E-04 3.102E-02
 ETOT  6  -195.23750306424    -8.671E-05 6.764E-04 3.658E-03
 ETOT  7  -195.23743145101     7.161E-05 4.894E-04 3.356E-04
 ETOT  8  -195.23744333743    -1.189E-05 2.647E-04 1.087E-04
 ETOT  9  -195.23744258200     7.554E-07 2.295E-04 8.898E-06
 ETOT 10  -195.23744285279    -2.708E-07 1.083E-04 4.399E-06
 ETOT 11  -195.23744287452    -2.173E-08 8.537E-05 1.908E-06
 ETOT 12  -195.23744282993     4.459E-08 3.647E-05 7.670E-08
 ETOT 13  -195.23744284513    -1.519E-08 2.974E-05 1.259E-08
 ETOT 14  -195.23744284529    -1.618E-10 1.258E-05 9.311E-10
 ETOT 15  -195.23744284536    -7.236E-11 1.029E-05 5.246E-10

 At SCF step   15, etot is converged :
  for the second time, diff in etot=  7.236E-11 < toldfe=  1.000E-08

 Cartesian components of stress tensor (hartree/bohr^3)
  sigma(1 1)=  3.79078500E-05  sigma(3 2)=  8.03614351E-15
  sigma(2 2)=  3.33201118E-05  sigma(3 1)= -1.56191002E-14
  sigma(3 3)=  3.79078500E-05  sigma(2 1)=  8.03611810E-15

--- !ResultsGS
iteration_state: {dtset: 1, }
comment   : Summary of ground state results
lattice_vectors:
- [  0.0000000,  10.4599579,  10.7634249, ]
- [ 10.7634249,   0.0000000,  10.7634249, ]
- [ 10.7634249,  10.4599579,   0.0000000, ]
lattice_lengths: [  15.00873,   15.22178,   15.00873, ]
lattice_angles: [ 59.529,  60.941,  59.529, ] # degrees, (23, 13, 12)
lattice_volume:   2.4235998E+03
convergence: {deltae: -7.236E-11, res2:  5.246E-10, residm:  1.029E-05, diffor: null, }
etotal    :  -1.95237443E+02
entropy   :   0.00000000E+00
fermie    :  -7.18174494E-03
cartesian_stress_tensor: # hartree/bohr^3
- [  3.79078500E-05,   8.03611810E-15,  -1.56191002E-14, ]
- [  8.03611810E-15,   3.33201118E-05,   8.03614351E-15, ]
- [ -1.56191002E-14,   8.03614351E-15,   3.79078500E-05, ]
pressure_GPa:  -1.0703E+00
xred      :
- [  2.5000E-01,   2.5000E-01,   2.5000E-01, Cs]
- [  7.5000E-01,   7.5000E-01,   7.5000E-01, Cs]
- [  7.3847E-01,   2.6153E-01,   7.3847E-01,  I]
- [  2.1541E-01,   2.1541E-01,   7.8459E-01, Cl]
- [  7.8459E-01,   7.8459E-01,   2.1541E-01, Cl]
- [  2.6153E-01,   7.3847E-01,   2.6153E-01,  I]
- [  2.1541E-01,   7.8459E-01,   7.8459E-01, Cl]
- [  7.8459E-01,   2.1541E-01,   2.1541E-01, Cl]
- [  0.0000E+00,   0.0000E+00,   0.0000E+00, Hf]
cartesian_forces: # hartree/bohr
- [ -4.81867631E-20,  -1.27608877E-20,   6.98788749E-20, ]
- [ -4.81867634E-20,  -1.27608880E-20,   6.98788752E-20, ]
- [ -2.46339712E-19,   1.77063733E-03,   2.68031824E-19, ]
- [  1.34046089E-14,  -1.37935259E-14,  -3.06160835E-03, ]
- [ -1.34047053E-14,   1.37935003E-14,   3.06160835E-03, ]
- [  2.58386403E-19,  -1.77063733E-03,  -2.36694291E-19, ]
- [  3.06160835E-03,   1.37935003E-14,  -1.34045873E-14, ]
- [ -3.06160835E-03,  -1.37931942E-14,   1.34044047E-14, ]
- [ -4.81867632E-20,  -1.27608878E-20,   6.98788750E-20, ]
force_length_stats: {min:   8.58362485E-20, max:   3.06160835E-03, mean:   1.75418978E-03, }
...

 Integrated electronic density in atomic spheres:
 Atom  Sphere_radius  Integrated_density
    1        2.00000          4.46145773
    2        2.00000          4.46145773
    3        2.00000          2.88363768
    4        2.00000          5.08428450
    5        2.00000          5.08428450
    6        2.00000          2.88363768
    7        2.00000          5.08428450
    8        2.00000          5.08428450
    9        2.00000          8.21293443

 ----iterations are completed or convergence reached----

 Mean square residual over all n,k,spin=   62.694E-09; max=  10.286E-06
 reduced coordinates (array xred) for    9 atoms
       0.250000000000      0.250000000000      0.250000000000
       0.750000000000      0.750000000000      0.750000000000
       0.738472662640      0.261527337360      0.738472662640
       0.215407999460      0.215407999460      0.784592000540
       0.784592000540      0.784592000540      0.215407999460
       0.261527337360      0.738472662640      0.261527337360
       0.215407999460      0.784592000540      0.784592000540
       0.784592000540      0.215407999460      0.215407999460
       0.000000000000      0.000000000000      0.000000000000
 rms dE/dt=  1.9302E-02; max dE/dt=  3.2953E-02; dE/dt below (all hartree)
    1      -0.000000000000      0.000000000000     -0.000000000000
    2      -0.000000000000      0.000000000000      0.000000000000
    3      -0.018520791856      0.000000000000     -0.018520791856
    4       0.032953391464      0.032953391464      0.000000000000
    5      -0.032953391464     -0.032953391464      0.000000000000
    6       0.018520791856      0.000000000000      0.018520791856
    7      -0.000000000000     -0.032953391464     -0.032953391464
    8       0.000000000000      0.032953391464      0.032953391464
    9       0.000000000000      0.000000000000      0.000000000000

 cartesian coordinates (angstrom) at end:
    1      2.84787956533461     2.76758565494003     2.84787956533461
    2      8.54363869600383     8.30275696482010     8.54363869600383
    3      5.69575913065733     8.17514539075134     5.69575913065733
    4      5.69575913065503     5.53517130988007     2.45382415948697
    5      5.69575913068341     5.53517130988007     8.93769410185147
    6      5.69575913068111     2.89519722900879     5.69575913068111
    7      8.93769410185147     5.53517130988007     5.69575913068341
    8      2.45382415948697     5.53517130988007     5.69575913065503
    9      0.00000000000000     0.00000000000000     0.00000000000000

 cartesian forces (hartree/bohr) at end:
    1     -0.00000000000000    -0.00000000000000     0.00000000000000
    2     -0.00000000000000    -0.00000000000000     0.00000000000000
    3     -0.00000000000000     0.00177063732749     0.00000000000000
    4      0.00000000000001    -0.00000000000001    -0.00306160834898
    5     -0.00000000000001     0.00000000000001     0.00306160834898
    6      0.00000000000000    -0.00177063732749    -0.00000000000000
    7      0.00306160834898     0.00000000000001    -0.00000000000001
    8     -0.00306160834898    -0.00000000000001     0.00000000000001
    9     -0.00000000000000    -0.00000000000000     0.00000000000000
 frms,max,avg= 1.2731427E-03 3.0616083E-03   0.000E+00  0.000E+00  0.000E+00 h/b

 cartesian forces (eV/Angstrom) at end:
    1     -0.00000000000000    -0.00000000000000     0.00000000000000
    2     -0.00000000000000    -0.00000000000000     0.00000000000000
    3     -0.00000000000000     0.09104982454486     0.00000000000000
    4      0.00000000000069    -0.00000000000071    -0.15743421799128
    5     -0.00000000000069     0.00000000000071     0.15743421799128
    6      0.00000000000000    -0.09104982454486    -0.00000000000000
    7      0.15743421799128     0.00000000000071    -0.00000000000069
    8     -0.15743421799128    -0.00000000000071     0.00000000000069
    9     -0.00000000000000    -0.00000000000000     0.00000000000000
 frms,max,avg= 6.5467626E-02 1.5743422E-01   0.000E+00  0.000E+00  0.000E+00 e/A
 length scales= 15.008731918000 15.221781437000 15.008731918000 bohr
              =  7.942278860843  8.055019810599  7.942278860843 angstroms
 prteigrs : about to open file Cs2TiI6o_EIG
 Fermi (or HOMO) energy (hartree) =  -0.00718   Average Vxc (hartree)=  -0.23690
 Eigenvalues (hartree) for nkpt=   4  k points:
 kpt#   1, nband= 42, wtk=  0.12500, kpt=  0.0000  0.0000  0.0000 (reduced coord)
  -2.41131   -1.19858   -1.19858   -1.19719   -0.79121   -0.79097   -0.57314   -0.55959
  -0.55561   -0.55561   -0.43173   -0.42726   -0.27298   -0.27298   -0.27278   -0.27041
  -0.27041   -0.26997   -0.16555   -0.13107   -0.12127   -0.10893   -0.10893   -0.10467
  -0.10467   -0.10286   -0.07302   -0.07223   -0.06757   -0.06757   -0.05141   -0.01414
  -0.01414   -0.01403   -0.00718   -0.00718    0.14671    0.14671    0.15955    0.19764
   0.21155    0.22145
 prteigrs : prtvol=0 or 1, do not print more k-points.

--- !EnergyTerms
iteration_state     : {dtset: 1, }
comment             : Components of total free energy in Hartree
kinetic             :  5.30702350824629E+01
hartree             :  4.69386541090082E+01
xc                  : -4.85239293549571E+01
Ewald energy        : -1.15286610371585E+02
psp_core            :  4.23128340039446E+00
local_psp           : -1.52328564324050E+02
non_local_psp+x     :  1.66614739945647E+01
total_energy        : -1.95237457464162E+02
...

--- !EnergyTermsDC
iteration_state     : {dtset: 1, }
comment             : '"Double-counting" decomposition of free energy'
band_energy         : -2.74032038152573E+01
Ewald energy        : -1.15286610371585E+02
psp_core            :  4.23128340039446E+00
xc_dc               : -5.67789120589135E+01
total_energy_dc     : -1.95237442845361E+02
...

 Cartesian components of stress tensor (hartree/bohr^3)
  sigma(1 1)=  3.79078500E-05  sigma(3 2)=  8.03614351E-15
  sigma(2 2)=  3.33201118E-05  sigma(3 1)= -1.56191002E-14
  sigma(3 3)=  3.79078500E-05  sigma(2 1)=  8.03611810E-15

-Cartesian components of stress tensor (GPa)         [Pressure= -1.0703E+00 GPa]
- sigma(1 1)=  1.11528726E+00  sigma(3 2)=  2.36431465E-10
- sigma(2 2)=  9.80311369E-01  sigma(3 1)= -4.59529715E-10
- sigma(3 3)=  1.11528726E+00  sigma(2 1)=  2.36430717E-10

== END DATASET(S) ==============================================================

 -outvars: echo values of variables after computation  --------
            acell      1.5008731918E+01  1.5221781437E+01  1.5008731918E+01 Bohr
              amu      1.32905430E+02  1.26904470E+02  1.78490000E+02
                       3.54527000E+01
           diemac      1.20000000E+01
             ecut      2.00000000E+01 Hartree
           etotal     -1.9523744285E+02
            fcart     -4.8186763147E-20 -1.2760887669E-20  6.9878874944E-20
                      -4.8186763447E-20 -1.2760887978E-20  6.9878875245E-20
                      -2.4633971216E-19  1.7706373275E-03  2.6803182395E-19
                       1.3404608950E-14 -1.3793525865E-14 -3.0616083490E-03
                      -1.3404705323E-14  1.3793500343E-14  3.0616083490E-03
                       2.5838640296E-19 -1.7706373275E-03 -2.3669429116E-19
                       3.0616083490E-03  1.3793500343E-14 -1.3404587258E-14
                      -3.0616083490E-03 -1.3793194176E-14  1.3404404679E-14
                      -4.8186763222E-20 -1.2760887824E-20  6.9878875020E-20
-          fftalg         112
             iscf          17
           istwfk        1    1    1    1
              ixc        -428
              kpt      0.00000000E+00  0.00000000E+00  0.00000000E+00
                       5.00000000E-01  0.00000000E+00  0.00000000E+00
                       5.00000000E-01  5.00000000E-01  0.00000000E+00
                       5.00000000E-01  0.00000000E+00  5.00000000E-01
         kptns_hf      0.00000000E+00  0.00000000E+00  0.00000000E+00
                       5.00000000E-01  0.00000000E+00  0.00000000E+00
                       0.00000000E+00  5.00000000E-01  0.00000000E+00
                       5.00000000E-01  5.00000000E-01  0.00000000E+00
                       0.00000000E+00  0.00000000E+00  5.00000000E-01
                       5.00000000E-01  0.00000000E+00  5.00000000E-01
                       0.00000000E+00  5.00000000E-01  5.00000000E-01
                       5.00000000E-01  5.00000000E-01  5.00000000E-01
         kptrlatt        2    0    0      0    2    0      0    0    2
          kptrlen      3.00174638E+01
P           mkmem           1
            natom           9
            nband          42
          nbandhf          36
            ngfft          64      64      64
             nkpt           4
           nkpthf           8
-           npkpt           4
            nstep        2500
             nsym          16
           ntypat           4
              occ      2.000000  2.000000  2.000000  2.000000  2.000000  2.000000
                       2.000000  2.000000  2.000000  2.000000  2.000000  2.000000
                       2.000000  2.000000  2.000000  2.000000  2.000000  2.000000
                       2.000000  2.000000  2.000000  2.000000  2.000000  2.000000
                       2.000000  2.000000  2.000000  2.000000  2.000000  2.000000
                       2.000000  2.000000  2.000000  2.000000  2.000000  2.000000
                       0.000000  0.000000  0.000000  0.000000  0.000000  0.000000
            rprim      0.0000000000E+00  6.9692482559E-01  7.1714418877E-01
                       7.0710678119E-01  0.0000000000E+00  7.0710678119E-01
                       7.1714418877E-01  6.9692482559E-01  0.0000000000E+00
          spgroup         139
           strten      3.7907849959E-05  3.3320111788E-05  3.7907849959E-05
                       8.0361435096E-15 -1.5619100182E-14  8.0361180987E-15
           symrel      1  0  0   0  1  0   0  0  1      -1  0  0   0 -1  0   0  0 -1
                       0  0 -1   0 -1  0  -1  0  0       0  0  1   0  1  0   1  0  0
                       0 -1  1   0 -1  0   1 -1  0       0  1 -1   0  1  0  -1  1  0
                      -1  1  0   0  1  0   0  1 -1       1 -1  0   0 -1  0   0 -1  1
                       0 -1  1  -1  0  1   0  0  1       0  1 -1   1  0 -1   0  0 -1
                       0  0 -1   1  0 -1   0  1 -1       0  0  1  -1  0  1   0 -1  1
                       1  0  0   1  0 -1   1 -1  0      -1  0  0  -1  0  1  -1  1  0
                      -1  1  0  -1  0  1  -1  0  0       1 -1  0   1  0 -1   1  0  0
           toldfe      1.00000000E-08 Hartree
            typat      1  1  2  4  4  2  4  4  3
          usefock           1
              wtk        0.12500    0.50000    0.25000    0.12500
           xangst      2.8478795653E+00  2.7675856549E+00  2.8478795653E+00
                       8.5436386960E+00  8.3027569648E+00  8.5436386960E+00
                       5.6957591307E+00  8.1751453908E+00  5.6957591307E+00
                       5.6957591307E+00  5.5351713099E+00  2.4538241595E+00
                       5.6957591307E+00  5.5351713099E+00  8.9376941019E+00
                       5.6957591307E+00  2.8951972290E+00  5.6957591307E+00
                       8.9376941019E+00  5.5351713099E+00  5.6957591307E+00
                       2.4538241595E+00  5.5351713099E+00  5.6957591307E+00
                       0.0000000000E+00  0.0000000000E+00  0.0000000000E+00
            xcart      5.3817124379E+00  5.2299789371E+00  5.3817124379E+00
                       1.6145137314E+01  1.5689936811E+01  1.6145137314E+01
                       1.0763424876E+01  1.5448785885E+01  1.0763424876E+01
                       1.0763424876E+01  1.0459957874E+01  4.6370556397E+00
                       1.0763424876E+01  1.0459957874E+01  1.6889794112E+01
                       1.0763424876E+01  5.4711298635E+00  1.0763424876E+01
                       1.6889794112E+01  1.0459957874E+01  1.0763424876E+01
                       4.6370556397E+00  1.0459957874E+01  1.0763424876E+01
                       0.0000000000E+00  0.0000000000E+00  0.0000000000E+00
             xred      2.5000000000E-01  2.5000000000E-01  2.5000000000E-01
                       7.5000000000E-01  7.5000000000E-01  7.5000000000E-01
                       7.3847266264E-01  2.6152733736E-01  7.3847266264E-01
                       2.1540799946E-01  2.1540799946E-01  7.8459200054E-01
                       7.8459200054E-01  7.8459200054E-01  2.1540799946E-01
                       2.6152733736E-01  7.3847266264E-01  2.6152733736E-01
                       2.1540799946E-01  7.8459200054E-01  7.8459200054E-01
                       7.8459200054E-01  2.1540799946E-01  2.1540799946E-01
                       0.0000000000E+00  0.0000000000E+00  0.0000000000E+00
            znucl       55.00000   53.00000   72.00000   17.00000

- Timing analysis has been suppressed with timopt=0

 Suggested references for the acknowledgment of ABINIT usage.

 Calculation completed.
.Delivered   0 WARNINGs and   0 COMMENTs to log file.