.Version 9.2.2 of ABINIT

 ABINIT is a project of the Universite Catholique de Louvain,
 Corning Inc. and other collaborators, see ~abinit/doc/developers/contributors.txt .
 acknowledgments of the ABINIT effort.

.Starting date : Fri 14 Jul 2023.
- ( at 22h19 )

- The starting date is more than 2 years after the initial release
- of this version of ABINIT, namely Nov 2020.
- Note that the use beyond 3 years after the release will not be supported.
- Action: please, switch to a more recent version of ABINIT.

- input  file    -> Cs2TiI6.in
- output file    -> Cs2TiI6.out
- root for input  files -> Cs2TiI6i
- root for output files -> Cs2TiI6o

 Symmetries : space group I4 m m (#107); Bravais tI (body-center tetrag.)
     intxc =       0    ionmov =       0      iscf =      17    lmnmax =       8
     lnmax =       8     mgfft =      60  mpssoang =       4    mqgrid =    3001
     natom =       9  nloc_mem =       1    nspden =       1   nspinor =       1
    nsppol =       1      nsym =       8    n1xccc =    2501    ntypat =       4
    occopt =       1   xclevel =       2
-    mband =          42        mffmem =           1         mkmem =          41
       mpw =        8386          nfft =      216000          nkpt =         163
  Rough estimation (10% accuracy) of disk space for files :

------------- Echo of variables that govern the present computation ------------
-
- outvars: echo of selected default values
-   iomode0 =  0 , fftalg0 =112 , wfoptalg0 =  0
-
- outvars: echo of global parameters not present in the input file
-  max_nthreads =    0
-
 -outvars: echo values of preprocessed input variables --------
            acell      1.4037830533E+01  1.4037830533E+01  1.4031614709E+01 Bohr
              amu      1.32905430E+02  1.26904470E+02  9.12240000E+01
                       7.99040000E+01
           diemac      1.20000000E+01
             ecut      2.00000000E+01 Hartree
-          fftalg         112
             iscf          17
           istwfk        2    0    0    0    0    0    3    0    0    0
                         0    0    0    0    0    0    0    0    0    0
                         0    0    0    0    0    0    0    0    0    0
                         0    0    0    0    0    0    0    0    0    0
                         0    0    7    0    0    0    0    0    0    0
                       outvar_i_n : Printing only first  50 k-points.
              ixc          32
              kpt      0.00000000E+00  0.00000000E+00  0.00000000E+00
                       8.33333333E-02  0.00000000E+00  0.00000000E+00
                       1.66666667E-01  0.00000000E+00  0.00000000E+00
                       2.50000000E-01  0.00000000E+00  0.00000000E+00
                       3.33333333E-01  0.00000000E+00  0.00000000E+00
                       4.16666667E-01  0.00000000E+00  0.00000000E+00
                       5.00000000E-01  0.00000000E+00  0.00000000E+00
                       8.33333333E-02  8.33333333E-02  0.00000000E+00
                       1.66666667E-01  8.33333333E-02  0.00000000E+00
                       2.50000000E-01  8.33333333E-02  0.00000000E+00
                       3.33333333E-01  8.33333333E-02  0.00000000E+00
                       4.16666667E-01  8.33333333E-02  0.00000000E+00
                       5.00000000E-01  8.33333333E-02  0.00000000E+00
                      -4.16666667E-01  8.33333333E-02  0.00000000E+00
                      -3.33333333E-01  8.33333333E-02  0.00000000E+00
                      -2.50000000E-01  8.33333333E-02  0.00000000E+00
                      -1.66666667E-01  8.33333333E-02  0.00000000E+00
                      -8.33333333E-02  8.33333333E-02  0.00000000E+00
                       1.66666667E-01  1.66666667E-01  0.00000000E+00
                       2.50000000E-01  1.66666667E-01  0.00000000E+00
                       3.33333333E-01  1.66666667E-01  0.00000000E+00
                       4.16666667E-01  1.66666667E-01  0.00000000E+00
                       5.00000000E-01  1.66666667E-01  0.00000000E+00
                      -4.16666667E-01  1.66666667E-01  0.00000000E+00
                      -3.33333333E-01  1.66666667E-01  0.00000000E+00
                      -2.50000000E-01  1.66666667E-01  0.00000000E+00
                      -1.66666667E-01  1.66666667E-01  0.00000000E+00
                       2.50000000E-01  2.50000000E-01  0.00000000E+00
                       3.33333333E-01  2.50000000E-01  0.00000000E+00
                       4.16666667E-01  2.50000000E-01  0.00000000E+00
                       5.00000000E-01  2.50000000E-01  0.00000000E+00
                      -4.16666667E-01  2.50000000E-01  0.00000000E+00
                      -3.33333333E-01  2.50000000E-01  0.00000000E+00
                      -2.50000000E-01  2.50000000E-01  0.00000000E+00
                       3.33333333E-01  3.33333333E-01  0.00000000E+00
                       4.16666667E-01  3.33333333E-01  0.00000000E+00
                       5.00000000E-01  3.33333333E-01  0.00000000E+00
                      -4.16666667E-01  3.33333333E-01  0.00000000E+00
                      -3.33333333E-01  3.33333333E-01  0.00000000E+00
                       4.16666667E-01  4.16666667E-01  0.00000000E+00
                       5.00000000E-01  4.16666667E-01  0.00000000E+00
                      -4.16666667E-01  4.16666667E-01  0.00000000E+00
                       5.00000000E-01  5.00000000E-01  0.00000000E+00
                       8.33333333E-02  0.00000000E+00  8.33333333E-02
                       1.66666667E-01  0.00000000E+00  8.33333333E-02
                       2.50000000E-01  0.00000000E+00  8.33333333E-02
                       3.33333333E-01  0.00000000E+00  8.33333333E-02
                       4.16666667E-01  0.00000000E+00  8.33333333E-02
                       5.00000000E-01  0.00000000E+00  8.33333333E-02
                      -4.16666667E-01  0.00000000E+00  8.33333333E-02
                       outvar_i_n : Printing only first  50 k-points.
         kptrlatt       12    0    0      0   12    0      0    0   12
          kptrlen      1.68379377E+02
P           mkmem          41
            natom           9
            nband          42
            ngfft          60      60      60
             nkpt         163
            nstep        2500
             nsym           8
           ntypat           4
              occ      2.000000  2.000000  2.000000  2.000000  2.000000  2.000000
                       2.000000  2.000000  2.000000  2.000000  2.000000  2.000000
                       2.000000  2.000000  2.000000  2.000000  2.000000  2.000000
                       2.000000  2.000000  2.000000  2.000000  2.000000  2.000000
                       2.000000  2.000000  2.000000  2.000000  2.000000  2.000000
                       2.000000  2.000000  2.000000  2.000000  2.000000  2.000000
                       0.000000  0.000000  0.000000  0.000000  0.000000  0.000000
            rprim      0.0000000000E+00  7.0679368072E-01  7.0741974308E-01
                       7.0679368072E-01  0.0000000000E+00  7.0741974308E-01
                       7.0710678119E-01  7.0710678119E-01  0.0000000000E+00
          spgroup         107
           symrel      1  0  0   0  1  0   0  0  1       1  0 -1   0  1 -1   0  0 -1
                       0  1 -1   1  0 -1   0  0 -1       0  1  0   1  0  0   0  0  1
                       0  1 -1   0  1  0  -1  1  0       1  0 -1   1  0  0   1 -1  0
                       1  0  0   1  0 -1   1 -1  0       0  1  0   0  1 -1  -1  1  0
           toldfe      1.00000000E-08 Hartree
            typat      1  1  4  2  4  4  4  4  3
              wtk        0.00058    0.00463    0.00463    0.00463    0.00463    0.00463
                         0.00231    0.00116    0.00463    0.00463    0.00463    0.00463
                         0.00463    0.00463    0.00463    0.00463    0.00463    0.00231
                         0.00116    0.00463    0.00463    0.00463    0.00463    0.00463
                         0.00463    0.00463    0.00231    0.00116    0.00463    0.00463
                         0.00463    0.00463    0.00463    0.00231    0.00116    0.00463
                         0.00463    0.00463    0.00231    0.00116    0.00463    0.00231
                         0.00058    0.00231    0.00926    0.00926    0.00926    0.00926
                         0.00926    0.00926
                       outvars : Printing only first  50 k-points.
           xangst      2.6252084202E+00  2.6252084202E+00  2.6477077494E+00
                       7.8756252605E+00  7.8756252605E+00  7.9027752939E+00
                       5.2504168404E+00  5.2504168404E+00  2.6744806294E+00
                       5.2504168404E+00  5.2504168404E+00  7.7421315979E+00
                       7.8923739076E+00  5.2504168404E+00  5.2515754707E+00
                       5.2504168404E+00  7.8923739076E+00  5.2515754707E+00
                       5.2504168403E+00  2.6084597731E+00  5.2515754707E+00
                       2.6084597731E+00  5.2504168403E+00  5.2515754707E+00
                      -1.2366371612E-13 -1.2366371612E-13  6.7143203470E-02
            xcart      4.9609249559E+00  4.9609249559E+00  5.0034425262E+00
                       1.4882774868E+01  1.4882774868E+01  1.4934080995E+01
                       9.9218499118E+00  9.9218499118E+00  5.0540359373E+00
                       9.9218499118E+00  9.9218499118E+00  1.4630508405E+01
                       1.4914425224E+01  9.9218499118E+00  9.9240394058E+00
                       9.9218499118E+00  1.4914425224E+01  9.9240394058E+00
                       9.9218499118E+00  4.9292745998E+00  9.9240394058E+00
                       4.9292745998E+00  9.9218499118E+00  9.9240394058E+00
                      -2.3369055603E-13 -2.3369055603E-13  1.2688226624E-01
             xred      2.5191947838E-01  2.5191947838E-01  2.4808052162E-01
                       7.5191947838E-01  7.5191947838E-01  7.4808052162E-01
                       2.5446681767E-01  2.5446681767E-01  7.4553318233E-01
                       7.3663483221E-01  7.3663483221E-01  2.6336516779E-01
                       2.4807275964E-01  7.5126272485E-01  7.5192724036E-01
                       7.5126272485E-01  2.4807275964E-01  7.5192724036E-01
                       2.4807275964E-01  7.5126272485E-01  2.4873727515E-01
                       7.5126272485E-01  2.4807275964E-01  2.4873727515E-01
                       6.3884244018E-03  6.3884244018E-03 -6.3884244018E-03
            znucl       55.00000   53.00000   40.00000   35.00000

 chkinp: Checking input parameters for consistency.

== DATASET  1 ==================================================================
-   mpi_nproc: 4, omp_nthreads: -1 (-1 if OMP is not activated)

--- !DatasetInfo
iteration_state: {dtset: 1, }
dimensions: {natom: 9, nkpt: 163, mband: 42, nsppol: 1, nspinor: 1, nspden: 1, mpw: 8386, }
cutoff_energies: {ecut:  20.0, pawecutdg:  -1.0, }
electrons: {nelect:   7.20000000E+01, charge:   0.00000000E+00, occopt:   1.00000000E+00, tsmear:   1.00000000E-02, }
meta: {optdriver: 0, ionmov: 0, optcell: 0, iscf: 17, paral_kgb: 0, }
...

[...]
- [ -3.11546116E-15,   1.69008571E-03,   1.21058371E-04, ]
- [  3.11541342E-15,  -1.69008571E-03,   1.21058371E-04, ]
- [ -1.69008571E-03,   3.11568479E-15,   1.21058371E-04, ]
- [ -2.58483209E-20,  -3.37801620E-20,   4.84265734E-04, ]
force_length_stats: {min:   7.52123649E-05, max:   1.74123125E-03, mean:   1.08621024E-03, }
...

 Integrated electronic density in atomic spheres:
 Atom  Sphere_radius  Integrated_density
    1        2.00000          4.43895429
    2        2.00000          4.43895429
    3        2.00000          4.20215816
    4        2.00000          2.87478643
    5        2.00000          4.20255680
    6        2.00000          4.20255680
    7        2.00000          4.20255680
    8        2.00000          4.20255680
    9        2.00000          8.25484400

 ----iterations are completed or convergence reached----

 Mean square residual over all n,k,spin=   28.918E-07; max=  10.523E-04
 reduced coordinates (array xred) for    9 atoms
       0.251919478380      0.251919478380      0.248080521620
       0.751919478380      0.751919478380      0.748080521620
       0.254466817670      0.254466817670      0.745533182330
       0.736634832210      0.736634832210      0.263365167790
       0.248072759640      0.751262724850      0.751927240360
       0.751262724850      0.248072759640      0.751927240360
       0.248072759640      0.751262724850      0.248737275150
       0.751262724850      0.248072759640      0.248737275150
       0.006388424402      0.006388424402     -0.006388424402
 rms dE/dt=  1.0513E-02; max dE/dt=  1.7287E-02; dE/dt below (all hartree)
    1      -0.000751941855     -0.000751941855      0.000000000000
    2      -0.000751941855     -0.000751941855      0.000000000000
    3       0.017286502954      0.017286502954      0.000000000000
    4      -0.006184943840     -0.006184943840      0.000000000000
    5      -0.001207221971     -0.017975998702     -0.016768776731
    6      -0.017975998702     -0.001207221971     -0.016768776731
    7       0.015561554760     -0.001207221971      0.016768776731
    8      -0.001207221971      0.015561554760      0.016768776731
    9      -0.004814102978     -0.004814102978      0.000000000000

 cartesian coordinates (angstrom) at end:
    1      2.62520842017726     2.62520842017726     2.64770774936010
    2      7.87562526053186     7.87562526053186     7.90277529393133
    3      5.25041684035935     5.25041684035935     2.67448062941588
    4      5.25041684035002     5.25041684035002     7.74213159789489
    5      7.89237390759064     5.25041684035948     5.25157547068176
    6      5.25041684035948     7.89237390759064     5.25157547068176
    7      5.25041684034974     2.60845977311858     5.25157547068176
    8      2.60845977311858     5.25041684034974     5.25157547068176
    9     -0.00000000000012    -0.00000000000012     0.06714320346969

 cartesian forces (hartree/bohr) at end:
    1     -0.00000000000000     0.00000000000000     0.00007521236492
    2     -0.00000000000000     0.00000000000000     0.00007521236492
    3      0.00000000000000    -0.00000000000000    -0.00174123124694
    4     -0.00000000000000    -0.00000000000000     0.00062230729764
    5      0.00169008570782    -0.00000000000000     0.00012105837138
    6     -0.00000000000000     0.00169008570782     0.00012105837138
    7      0.00000000000000    -0.00169008570782     0.00012105837138
    8     -0.00169008570782     0.00000000000000     0.00012105837138
    9     -0.00000000000000    -0.00000000000000     0.00048426573395
 frms,max,avg= 7.4905271E-04 1.7412312E-03   0.000E+00  0.000E+00  5.070E-07 h/b

 cartesian forces (eV/Angstrom) at end:
    1     -0.00000000000000     0.00000000000000     0.00386757498152
    2     -0.00000000000000     0.00000000000000     0.00386757498152
    3      0.00000000000000    -0.00000000000000    -0.08953770321233
    4     -0.00000000000000    -0.00000000000000     0.03200032518404
    5      0.08690769406759    -0.00000000000016     0.00622507122328
    6     -0.00000000000016     0.08690769406759     0.00622507122328
    7      0.00000000000016    -0.08690769406759     0.00622507122296
    8     -0.08690769406759     0.00000000000016     0.00622507122296
    9     -0.00000000000000    -0.00000000000000     0.02490194317276
 frms,max,avg= 3.8517836E-02 8.9537703E-02   0.000E+00  0.000E+00  2.607E-05 e/A
 length scales= 14.037830533000 14.037830533000 14.031614709000 bohr
              =  7.428499976112  7.428499976112  7.425210703719 angstroms
 prteigrs : about to open file Cs2TiI6o_EIG
 Fermi (or HOMO) energy (hartree) =   0.10286   Average Vxc (hartree)=  -0.34221
 Eigenvalues (hartree) for nkpt= 163  k points:
 kpt#   1, nband= 42, wtk=  0.00058, kpt=  0.0000  0.0000  0.0000 (reduced coord)
  -1.70736   -0.89649   -0.89649   -0.89551   -0.63095   -0.63005   -0.42264   -0.40439
  -0.40345   -0.40345   -0.40249   -0.31032   -0.16134   -0.16134   -0.15992   -0.15340
  -0.15340   -0.15276   -0.06116   -0.00281   -0.00255   -0.00255   -0.00151    0.00135
   0.00135    0.00346    0.01753    0.04585    0.05123    0.05123    0.07515    0.07515
   0.08007    0.09167    0.10286    0.10286    0.17290    0.17290    0.17609    0.25914
   0.26128    0.26495
 prteigrs : prtvol=0 or 1, do not print more k-points.

--- !EnergyTerms
iteration_state     : {dtset: 1, }
comment             : Components of total free energy in Hartree
kinetic             :  4.94980141753843E+01
hartree             :  3.04700374410838E+01
xc                  : -5.41752609452492E+01
Ewald energy        : -1.32907282092235E+02
psp_core            :  5.22342729517842E+00
local_psp           : -1.12846706031047E+02
non_local_psp       :  2.48516096550340E+01
total_energy        : -1.89886160501851E+02
...

--- !EnergyTermsDC
iteration_state     : {dtset: 1, }
comment             : '"Double-counting" decomposition of free energy'
band_energy         : -1.68699402943616E+01
Ewald energy        : -1.32907282092235E+02
psp_core            :  5.22342729517842E+00
xc_dc               : -4.53323879504110E+01
total_energy_dc     : -1.89886183041829E+02
...

 Cartesian components of stress tensor (hartree/bohr^3)
  sigma(1 1)= -7.99090720E-04  sigma(3 2)=  3.44889165E-15
  sigma(2 2)= -7.99090720E-04  sigma(3 1)=  3.44856191E-15
  sigma(3 3)= -8.01387350E-04  sigma(2 1)= -6.90368600E-15

-Cartesian components of stress tensor (GPa)         [Pressure=  2.3533E+01 GPa]
- sigma(1 1)= -2.35100567E+01  sigma(3 2)=  1.01469879E-10
- sigma(2 2)= -2.35100567E+01  sigma(3 1)=  1.01460177E-10
- sigma(3 3)= -2.35776259E+01  sigma(2 1)= -2.03113421E-10

== END DATASET(S) ==============================================================

 -outvars: echo values of variables after computation  --------
            acell      1.4037830533E+01  1.4037830533E+01  1.4031614709E+01 Bohr
              amu      1.32905430E+02  1.26904470E+02  9.12240000E+01
                       7.99040000E+01
           diemac      1.20000000E+01
             ecut      2.00000000E+01 Hartree
           etotal     -1.8988618304E+02
            fcart     -8.0110711357E-20  2.0482228396E-20  7.5212364916E-05
                      -8.1423265133E-20  2.1794782171E-20  7.5212364916E-05
                       1.3320630479E-19 -1.9283478775E-19 -1.7412312469E-03
                      -2.1393566604E-20 -3.8234916358E-20  6.2230729764E-04
                       1.6900857078E-03 -3.1155814642E-15  1.2105837138E-04
                      -3.1154611635E-15  1.6900857078E-03  1.2105837138E-04
                       3.1154134155E-15 -1.6900857078E-03  1.2105837138E-04
                      -1.6900857078E-03  3.1156847940E-15  1.2105837138E-04
                      -2.5848320942E-20 -3.3780162019E-20  4.8426573395E-04
-          fftalg         112
             iscf          17
           istwfk        2    0    0    0    0    0    3    0    0    0
                         0    0    0    0    0    0    0    0    0    0
                         0    0    0    0    0    0    0    0    0    0
                         0    0    0    0    0    0    0    0    0    0
                         0    0    7    0    0    0    0    0    0    0
                       outvar_i_n : Printing only first  50 k-points.
              ixc          32
              kpt      0.00000000E+00  0.00000000E+00  0.00000000E+00
                       8.33333333E-02  0.00000000E+00  0.00000000E+00
                       1.66666667E-01  0.00000000E+00  0.00000000E+00
                       2.50000000E-01  0.00000000E+00  0.00000000E+00
                       3.33333333E-01  0.00000000E+00  0.00000000E+00
                       4.16666667E-01  0.00000000E+00  0.00000000E+00
                       5.00000000E-01  0.00000000E+00  0.00000000E+00
                       8.33333333E-02  8.33333333E-02  0.00000000E+00
                       1.66666667E-01  8.33333333E-02  0.00000000E+00
                       2.50000000E-01  8.33333333E-02  0.00000000E+00
                       3.33333333E-01  8.33333333E-02  0.00000000E+00
                       4.16666667E-01  8.33333333E-02  0.00000000E+00
                       5.00000000E-01  8.33333333E-02  0.00000000E+00
                      -4.16666667E-01  8.33333333E-02  0.00000000E+00
                      -3.33333333E-01  8.33333333E-02  0.00000000E+00
                      -2.50000000E-01  8.33333333E-02  0.00000000E+00
                      -1.66666667E-01  8.33333333E-02  0.00000000E+00
                      -8.33333333E-02  8.33333333E-02  0.00000000E+00
                       1.66666667E-01  1.66666667E-01  0.00000000E+00
                       2.50000000E-01  1.66666667E-01  0.00000000E+00
                       3.33333333E-01  1.66666667E-01  0.00000000E+00
                       4.16666667E-01  1.66666667E-01  0.00000000E+00
                       5.00000000E-01  1.66666667E-01  0.00000000E+00
                      -4.16666667E-01  1.66666667E-01  0.00000000E+00
                      -3.33333333E-01  1.66666667E-01  0.00000000E+00
                      -2.50000000E-01  1.66666667E-01  0.00000000E+00
                      -1.66666667E-01  1.66666667E-01  0.00000000E+00
                       2.50000000E-01  2.50000000E-01  0.00000000E+00
                       3.33333333E-01  2.50000000E-01  0.00000000E+00
                       4.16666667E-01  2.50000000E-01  0.00000000E+00
                       5.00000000E-01  2.50000000E-01  0.00000000E+00
                      -4.16666667E-01  2.50000000E-01  0.00000000E+00
                      -3.33333333E-01  2.50000000E-01  0.00000000E+00
                      -2.50000000E-01  2.50000000E-01  0.00000000E+00
                       3.33333333E-01  3.33333333E-01  0.00000000E+00
                       4.16666667E-01  3.33333333E-01  0.00000000E+00
                       5.00000000E-01  3.33333333E-01  0.00000000E+00
                      -4.16666667E-01  3.33333333E-01  0.00000000E+00
                      -3.33333333E-01  3.33333333E-01  0.00000000E+00
                       4.16666667E-01  4.16666667E-01  0.00000000E+00
                       5.00000000E-01  4.16666667E-01  0.00000000E+00
                      -4.16666667E-01  4.16666667E-01  0.00000000E+00
                       5.00000000E-01  5.00000000E-01  0.00000000E+00
                       8.33333333E-02  0.00000000E+00  8.33333333E-02
                       1.66666667E-01  0.00000000E+00  8.33333333E-02
                       2.50000000E-01  0.00000000E+00  8.33333333E-02
                       3.33333333E-01  0.00000000E+00  8.33333333E-02
                       4.16666667E-01  0.00000000E+00  8.33333333E-02
                       5.00000000E-01  0.00000000E+00  8.33333333E-02
                      -4.16666667E-01  0.00000000E+00  8.33333333E-02
                       outvar_i_n : Printing only first  50 k-points.
         kptrlatt       12    0    0      0   12    0      0    0   12
          kptrlen      1.68379377E+02
P           mkmem          41
            natom           9
            nband          42
            ngfft          60      60      60
             nkpt         163
            nstep        2500
             nsym           8
           ntypat           4
              occ      2.000000  2.000000  2.000000  2.000000  2.000000  2.000000
                       2.000000  2.000000  2.000000  2.000000  2.000000  2.000000
                       2.000000  2.000000  2.000000  2.000000  2.000000  2.000000
                       2.000000  2.000000  2.000000  2.000000  2.000000  2.000000
                       2.000000  2.000000  2.000000  2.000000  2.000000  2.000000
                       2.000000  2.000000  2.000000  2.000000  2.000000  2.000000
                       0.000000  0.000000  0.000000  0.000000  0.000000  0.000000
            rprim      0.0000000000E+00  7.0679368072E-01  7.0741974308E-01
                       7.0679368072E-01  0.0000000000E+00  7.0741974308E-01
                       7.0710678119E-01  7.0710678119E-01  0.0000000000E+00
          spgroup         107
           strten     -7.9909072008E-04 -7.9909072008E-04 -8.0138735011E-04
                       3.4488916541E-15  3.4485619082E-15 -6.9036860048E-15
           symrel      1  0  0   0  1  0   0  0  1       1  0 -1   0  1 -1   0  0 -1
                       0  1 -1   1  0 -1   0  0 -1       0  1  0   1  0  0   0  0  1
                       0  1 -1   0  1  0  -1  1  0       1  0 -1   1  0  0   1 -1  0
                       1  0  0   1  0 -1   1 -1  0       0  1  0   0  1 -1  -1  1  0
           toldfe      1.00000000E-08 Hartree
            typat      1  1  4  2  4  4  4  4  3
              wtk        0.00058    0.00463    0.00463    0.00463    0.00463    0.00463
                         0.00231    0.00116    0.00463    0.00463    0.00463    0.00463
                         0.00463    0.00463    0.00463    0.00463    0.00463    0.00231
                         0.00116    0.00463    0.00463    0.00463    0.00463    0.00463
                         0.00463    0.00463    0.00231    0.00116    0.00463    0.00463
                         0.00463    0.00463    0.00463    0.00231    0.00116    0.00463
                         0.00463    0.00463    0.00231    0.00116    0.00463    0.00231
                         0.00058    0.00231    0.00926    0.00926    0.00926    0.00926
                         0.00926    0.00926
                       outvars : Printing only first  50 k-points.
           xangst      2.6252084202E+00  2.6252084202E+00  2.6477077494E+00
                       7.8756252605E+00  7.8756252605E+00  7.9027752939E+00
                       5.2504168404E+00  5.2504168404E+00  2.6744806294E+00
                       5.2504168404E+00  5.2504168404E+00  7.7421315979E+00
                       7.8923739076E+00  5.2504168404E+00  5.2515754707E+00
                       5.2504168404E+00  7.8923739076E+00  5.2515754707E+00
                       5.2504168403E+00  2.6084597731E+00  5.2515754707E+00
                       2.6084597731E+00  5.2504168403E+00  5.2515754707E+00
                      -1.2366371612E-13 -1.2366371612E-13  6.7143203470E-02
            xcart      4.9609249559E+00  4.9609249559E+00  5.0034425262E+00
                       1.4882774868E+01  1.4882774868E+01  1.4934080995E+01
                       9.9218499118E+00  9.9218499118E+00  5.0540359373E+00
                       9.9218499118E+00  9.9218499118E+00  1.4630508405E+01
                       1.4914425224E+01  9.9218499118E+00  9.9240394058E+00
                       9.9218499118E+00  1.4914425224E+01  9.9240394058E+00
                       9.9218499118E+00  4.9292745998E+00  9.9240394058E+00
                       4.9292745998E+00  9.9218499118E+00  9.9240394058E+00
                      -2.3369055603E-13 -2.3369055603E-13  1.2688226624E-01
             xred      2.5191947838E-01  2.5191947838E-01  2.4808052162E-01
                       7.5191947838E-01  7.5191947838E-01  7.4808052162E-01
                       2.5446681767E-01  2.5446681767E-01  7.4553318233E-01
                       7.3663483221E-01  7.3663483221E-01  2.6336516779E-01
                       2.4807275964E-01  7.5126272485E-01  7.5192724036E-01
                       7.5126272485E-01  2.4807275964E-01  7.5192724036E-01
                       2.4807275964E-01  7.5126272485E-01  2.4873727515E-01
                       7.5126272485E-01  2.4807275964E-01  2.4873727515E-01
                       6.3884244018E-03  6.3884244018E-03 -6.3884244018E-03
            znucl       55.00000   53.00000   40.00000   35.00000

- Timing analysis has been suppressed with timopt=0

 Suggested references for the acknowledgment of ABINIT usage.

 Calculation completed.
.Delivered   0 WARNINGs and   0 COMMENTs to log file.