.Version 9.2.2 of ABINIT

 ABINIT is a project of the Universite Catholique de Louvain,
 Corning Inc. and other collaborators, see ~abinit/doc/developers/contributors.txt .
 acknowledgments of the ABINIT effort.

.Starting date : Mon  7 Nov 2022.
- ( at 07h59 )

- input  file    -> Cs2TiI6.in
- output file    -> Cs2TiI6.out
- root for input  files -> Cs2TiI6i
- root for output files -> Cs2TiI6o

- inpspheads : Reading pseudopotential header in XML form from
-   ../../../Psps_for_tests/ATOMICDATA/Cs.GGA_PBE-JTH.xml
- inpspheads : Reading pseudopotential header in XML form from
-   ../../../Psps_for_tests/ATOMICDATA/I.GGA_PBE-JTH.xml
- inpspheads : Reading pseudopotential header in XML form from
-   ../../../Psps_for_tests/ATOMICDATA/Hf.GGA_PBE-JTH.xml
- inpspheads : Reading pseudopotential header in XML form from
-   ../../../Psps_for_tests/ATOMICDATA/Cl.GGA_PBE-JTH.xml

 DATASET    1 : space group I4 m m (#107); Bravais tI (body-center tetrag.)
     intxc =       0    ionmov =       2      iscf =      17    lmnmax =      18
     lnmax =       6     mgfft =      60  mpssoang =       3    mqgrid =    3753
     natom =       9  nloc_mem =       2    nspden =       1   nspinor =       1
    nsppol =       1      nsym =       8    n1xccc =       1    ntypat =       4
    occopt =       1   xclevel =       2
-    mband =          42        mffmem =           1         mkmem =           4
       mpw =        9120          nfft =      216000          nkpt =          20
Pmy_natom=         2
 PAW method is used; the additional fine FFT grid is defined by:
   mgfftf=        96    nfftf =    884736
  Rough estimation (10% accuracy) of disk space for files :

[...]

 DATASET   10 : space group I4 m m (#107); Bravais tI (body-center tetrag.)
     intxc =       0    ionmov =       2      iscf =      17    lmnmax =      18
     lnmax =       6     mgfft =      60  mpssoang =       3    mqgrid =    3719
     natom =       9  nloc_mem =       2    nspden =       1   nspinor =       1
    nsppol =       1      nsym =       8    n1xccc =       1    ntypat =       4
    occopt =       1   xclevel =       2
-    mband =          42        mffmem =           1         mkmem =           4
       mpw =        8882          nfft =      216000          nkpt =          20
Pmy_natom=         2
 PAW method is used; the additional fine FFT grid is defined by:
   mgfftf=        96    nfftf =    884736
  Rough estimation (10% accuracy) of disk space for files :

------------- Echo of variables that govern the present computation ------------
-
- outvars: echo of selected default values
-   iomode0 =  0 , fftalg0 =112 , wfoptalg0 = 10
-
- outvars: echo of global parameters not present in the input file
-  max_nthreads =    0
-
 -outvars: echo values of preprocessed input variables --------
            acell1     1.3955240058E+01  1.4225784607E+01  1.3955240058E+01 Bohr
            acell2     1.3941270848E+01  1.4211544583E+01  1.3941270848E+01 Bohr
            acell3     1.3927301639E+01  1.4197304558E+01  1.3927301639E+01 Bohr
            acell4     1.3913332430E+01  1.4183064533E+01  1.3913332430E+01 Bohr
            acell5     1.3899363221E+01  1.4168824509E+01  1.3899363221E+01 Bohr
            acell6     1.3885394011E+01  1.4154584484E+01  1.3885394011E+01 Bohr
            acell7     1.3871424802E+01  1.4140344460E+01  1.3871424802E+01 Bohr
            acell8     1.3857455593E+01  1.4126104435E+01  1.3857455593E+01 Bohr
            acell9     1.3843486384E+01  1.4111864410E+01  1.3843486384E+01 Bohr
            acell10    1.3829517174E+01  1.4097624386E+01  1.3829517174E+01 Bohr
              amu      1.32905430E+02  1.26904470E+02  1.78490000E+02
                       3.54527000E+01
           diemac      1.20000000E+01
          dilatmx      1.15000000E+00
             ecut      1.60000000E+01 Hartree
           ecutsm      5.00000000E-01 Hartree
-          fftalg         112
          getxred1          0
          getxred2         -1
          getxred3         -1
          getxred4         -1
          getxred5         -1
          getxred6         -1
          getxred7         -1
          getxred8         -1
          getxred9         -1
          getxred10        -1
           ionmov           2
              ixc     -101130
           jdtset        1    2    3    4    5    6    7    8    9   10
              kpt      0.00000000E+00 -1.25000000E-01  0.00000000E+00
                       0.00000000E+00 -3.75000000E-01  0.00000000E+00
                       1.25000000E-01 -2.50000000E-01  0.00000000E+00
                       1.25000000E-01 -1.25000000E-01  1.25000000E-01
                       1.25000000E-01  5.00000000E-01  0.00000000E+00
                       2.50000000E-01 -3.75000000E-01  0.00000000E+00
                       1.25000000E-01 -3.75000000E-01  1.25000000E-01
                       2.50000000E-01 -2.50000000E-01  1.25000000E-01
                       2.50000000E-01 -1.25000000E-01  2.50000000E-01
                       1.25000000E-01  2.50000000E-01  0.00000000E+00
                       2.50000000E-01  3.75000000E-01  0.00000000E+00
                       3.75000000E-01  5.00000000E-01  0.00000000E+00
                       1.25000000E-01  3.75000000E-01  1.25000000E-01
                       2.50000000E-01  5.00000000E-01  1.25000000E-01
                       3.75000000E-01 -3.75000000E-01  1.25000000E-01
                       2.50000000E-01 -3.75000000E-01  2.50000000E-01
                       3.75000000E-01 -2.50000000E-01  2.50000000E-01
                       3.75000000E-01 -1.25000000E-01  3.75000000E-01
                       5.00000000E-01  2.50000000E-01  1.25000000E-01
                      -3.75000000E-01  3.75000000E-01  1.25000000E-01
         kptrlatt        4    4   -4     -4    4    4      4   -4    4
          kptrlen1     7.73820656E+01
          kptrlen2     7.73046061E+01
          kptrlen3     7.72271466E+01
          kptrlen4     7.71496870E+01
          kptrlen5     7.70722275E+01
          kptrlen6     7.69947680E+01
          kptrlen7     7.69173085E+01
          kptrlen8     7.68398489E+01
          kptrlen9     7.67623894E+01
          kptrlen10    7.66849299E+01
P           mkmem           4
            natom           9
            nband          42
           ndtset          10
            ngfft          60      60      60
          ngfftdg          96      96      96
             nkpt          20
            nstep        2500
             nsym           8
            ntime        1000
           ntypat           4
              occ      2.000000  2.000000  2.000000  2.000000  2.000000  2.000000
                       2.000000  2.000000  2.000000  2.000000  2.000000  2.000000
                       2.000000  2.000000  2.000000  2.000000  2.000000  2.000000
                       2.000000  2.000000  2.000000  2.000000  2.000000  2.000000
                       2.000000  2.000000  2.000000  2.000000  2.000000  2.000000
                       2.000000  2.000000  2.000000  2.000000  2.000000  2.000000
                       0.000000  0.000000  0.000000  0.000000  0.000000  0.000000
          optcell           3
        optforces           1
        pawecutdg      4.00000000E+01 Hartree
            prtwf           0
            rprim      0.0000000000E+00  6.9312732431E-01  7.2081517208E-01
                       7.0710678119E-01  0.0000000000E+00  7.0710678119E-01
                       7.2081517208E-01  6.9312732431E-01  0.0000000000E+00
           shiftk     -5.00000000E-01  5.00000000E-01  5.00000000E-01
          spgroup         107
           symrel      1  0  0   0  1  0   0  0  1       0  0  1   0  1  0   1  0  0
                       0 -1  1   0 -1  0   1 -1  0       1 -1  0   0 -1  0   0 -1  1
                       0 -1  1  -1  0  1   0  0  1       0  0  1  -1  0  1   0 -1  1
                       1  0  0   1  0 -1   1 -1  0       1 -1  0   1  0 -1   1  0  0
           toldff      1.00000000E-08
           tolmxf      1.00000000E-05
            typat      1  1  2  4  4  4  4  4  3
           useylm           1
              wtk        0.03125    0.03125    0.06250    0.03125    0.06250    0.06250
                         0.03125    0.06250    0.03125    0.06250    0.06250    0.06250
                         0.03125    0.06250    0.06250    0.03125    0.06250    0.03125
                         0.06250    0.06250
           xangst1     2.6615361318E+00  2.6202801937E+00  2.6615361318E+00
                       7.9846083953E+00  7.7388833780E+00  7.9846083953E+00
                       5.3230722635E+00  7.4550702116E+00  5.3230722635E+00
                       5.3230722635E+00  5.1342864420E+00  2.4488470681E+00
                       5.3230722635E+00  5.1342864420E+00  8.1972974590E+00
                       5.3230722635E+00  2.5178113674E+00  5.3230722635E+00
                       8.1972974590E+00  5.1342864420E+00  5.3230722635E+00
                       2.4488470681E+00  5.1342864420E+00  5.3230722635E+00
                       5.8803876448E-14  7.9634555590E-02  5.8803876448E-14
           xangst2     2.6588719314E+00  2.6176572906E+00  2.6588719314E+00
                       7.9766157943E+00  7.7311367480E+00  7.9766157943E+00
                       5.3177438629E+00  7.4476076789E+00  5.3177438629E+00
                       5.3177438629E+00  5.1291470162E+00  2.4463957697E+00
                       5.3177438629E+00  5.1291470162E+00  8.1890919560E+00
                       5.3177438629E+00  2.5152910357E+00  5.3177438629E+00
                       8.1890919560E+00  5.1291470162E+00  5.3177438629E+00
                       2.4463957697E+00  5.1291470162E+00  5.3177438629E+00
                       5.8759729343E-14  7.9554841320E-02  5.8759729343E-14
           xangst3     2.6562077311E+00  2.6150343875E+00  2.6562077311E+00
                       7.9686231933E+00  7.7233901180E+00  7.9686231933E+00
                       5.3124154622E+00  7.4401451461E+00  5.3124154622E+00
                       5.3124154622E+00  5.1240075903E+00  2.4439444714E+00
                       5.3124154622E+00  5.1240075903E+00  8.1808864530E+00
                       5.3124154622E+00  2.5127707040E+00  5.3124154622E+00
                       8.1808864530E+00  5.1240075903E+00  5.3124154622E+00
                       2.4439444714E+00  5.1240075903E+00  5.3124154622E+00
                       5.8703643709E-14  7.9475127050E-02  5.8703643709E-14
           xangst4     2.6535435308E+00  2.6124114844E+00  2.6535435308E+00
                       7.9606305923E+00  7.7156434880E+00  7.9606305923E+00
                       5.3070870615E+00  7.4326826134E+00  5.3070870615E+00
                       5.3070870615E+00  5.1188681644E+00  2.4414931730E+00
                       5.3070870615E+00  5.1188681644E+00  8.1726809501E+00
                       5.3070870615E+00  2.5102503723E+00  5.3070870615E+00
                       8.1726809501E+00  5.1188681644E+00  5.3070870615E+00
                       2.4414931730E+00  5.1188681644E+00  5.3070870615E+00
                       5.8635601858E-14  7.9395412780E-02  5.8635601858E-14
[...]
                       5.9236719499E-14  8.0426103001E-02  5.9229294748E-14
           xangst7     2.6458609853E+00  2.6019040736E+00  2.6458609853E+00
                       7.9375829559E+00  7.6885725232E+00  7.9375829559E+00
                       5.2917219706E+00  7.3977929869E+00  5.2917219706E+00
                       5.2917219706E+00  5.1012046205E+00  2.4492240813E+00
                       5.2917219706E+00  5.1012046205E+00  8.1342198599E+00
                       5.2917219706E+00  2.5197975955E+00  5.2917219706E+00
                       8.1342198599E+00  5.1012046205E+00  5.2917219706E+00
                       2.4492240813E+00  5.1012046205E+00  5.2917219706E+00
                       5.8851645251E-14  8.0461935715E-02  5.8859079865E-14
           xangst8     2.6431594999E+00  2.5992729206E+00  2.6431594999E+00
                       7.9294784997E+00  7.6809610076E+00  7.9294784997E+00
                       5.2863189998E+00  7.3891227733E+00  5.2863189998E+00
                       5.2863189998E+00  5.0959844411E+00  2.4489158029E+00
                       5.2863189998E+00  5.0959844411E+00  8.1237221967E+00
                       5.2863189998E+00  2.5197211067E+00  5.2863189998E+00
                       8.1237221967E+00  5.0959844411E+00  5.2863189998E+00
                       2.4489158029E+00  5.0959844411E+00  5.2863189998E+00
                       5.9639313761E-14  8.0489123025E-02  5.9300012599E-14
           xangst9     2.6409098664E+00  2.5955031539E+00  2.6409098664E+00
                       7.9227295993E+00  7.6704738132E+00  7.9227295993E+00
                       5.2818197329E+00  7.3771654810E+00  5.2818197329E+00
                       5.2818197329E+00  5.0891367465E+00  2.4486289382E+00
                       5.2818197329E+00  5.0891367465E+00  8.1150105276E+00
                       5.2818197329E+00  2.5195178767E+00  5.2818197329E+00
                       8.1150105276E+00  5.0891367465E+00  5.2818197329E+00
                       2.4486289382E+00  5.0891367465E+00  5.2818197329E+00
                       6.1040039975E-14  8.0557963708E-02  6.1040039975E-14
           xangst10    2.6384906374E+00  2.5920209505E+00  2.6384906374E+00
                       7.9154719123E+00  7.6609265053E+00  7.9154719123E+00
                       5.2769812749E+00  7.3664390940E+00  5.2769812749E+00
                       5.2769812749E+00  5.0828926714E+00  2.4483314399E+00
                       5.2769812749E+00  5.0828926714E+00  8.1056311099E+00
                       5.2769812749E+00  2.5195617007E+00  5.2769812749E+00
                       8.1056311099E+00  5.0828926714E+00  5.2769812749E+00
                       2.4483314399E+00  5.0828926714E+00  5.2769812749E+00
                       5.9793905913E-14  8.0725501910E-02  5.9208043301E-14
            xcart1     5.0299132238E+00  4.9493558910E+00  5.0299132238E+00
                       1.5089739671E+01  1.4620810918E+01  1.5089739671E+01
                       1.0059826448E+01  1.4083153805E+01  1.0059826448E+01
                       1.0059826448E+01  9.7010543948E+00  4.6317357942E+00
                       1.0059826448E+01  9.7010543948E+00  1.5487917101E+01
                       1.0059826448E+01  4.7628755067E+00  1.0059826448E+01
                       1.5487917101E+01  9.7010543948E+00  1.0059826448E+01
                       4.6317357942E+00  9.7010543948E+00  1.0059826448E+01
                       1.1161364800E-13  1.5122651758E-01  1.1161364800E-13
            xcart2     5.0247878160E+00  4.9444433162E+00  5.0247878160E+00
                       1.5074363448E+01  1.4606565086E+01  1.5074363448E+01
                       1.0049575632E+01  1.4066663110E+01  1.0049575632E+01
                       1.0049575632E+01  9.6912989026E+00  4.6311296520E+00
                       1.0049575632E+01  9.6912989026E+00  1.5468021612E+01
                       1.0049575632E+01  4.7627502576E+00  1.0049575632E+01
                       1.5468021612E+01  9.6912989026E+00  1.0049575632E+01
                       4.6311296520E+00  9.6912989026E+00  1.0049575632E+01
                       1.1457788709E-13  1.5135677850E-01  1.1457788709E-13
            xcart3     5.0197883411E+00  4.9390397087E+00  5.0197883411E+00
                       1.5059365023E+01  1.4591343921E+01  1.5059365023E+01
                       1.0039576682E+01  1.4049476256E+01  1.0039576682E+01
                       1.0039576682E+01  9.6810246445E+00  4.6305800672E+00
                       1.0039576682E+01  9.6810246445E+00  1.5448573297E+01
                       1.0039576682E+01  4.7628460561E+00  1.0039576682E+01
                       1.5448573297E+01  9.6810246445E+00  1.0039576682E+01
                       4.6305800672E+00  9.6810246445E+00  1.0039576682E+01
                       1.1115086796E-13  1.5162917946E-01  1.1226548488E-13
            xcart4     5.0151983567E+00  4.9322091920E+00  5.0151983567E+00
                       1.5045595070E+01  1.4573121298E+01  1.5045595070E+01
                       1.0030396713E+01  1.4029545276E+01  1.0030396713E+01
                       1.0030396713E+01  9.6695253656E+00  4.6301320472E+00
                       1.0030396713E+01  9.6695253656E+00  1.5430661380E+01
                       1.0030396713E+01  4.7625045012E+00  1.0030396713E+01
                       1.5430661380E+01  9.6695253656E+00  1.0030396713E+01
                       4.6301320472E+00  9.6695253656E+00  1.0030396713E+01
                       1.1211929837E-13  1.5181511930E-01  1.1213328449E-13
            xcart5     5.0098536597E+00  4.9278642691E+00  5.0098536597E+00
                       1.5029560979E+01  1.4560286234E+01  1.5029560979E+01
                       1.0019707319E+01  1.4014779067E+01  1.0019707319E+01
                       1.0019707319E+01  9.6606073459E+00  4.6295462954E+00
                       1.0019707319E+01  9.6606073459E+00  1.5409868344E+01
                       1.0019707319E+01  4.7621896488E+00  1.0019707319E+01
                       1.5409868344E+01  9.6606073459E+00  1.0019707319E+01
                       4.6295462954E+00  9.6606073459E+00  1.0019707319E+01
                       1.1074717536E-13  1.5182711622E-01  1.1074717536E-13
            xcart6     5.0052995284E+00  4.9212493294E+00  5.0052995284E+00
                       1.5015898585E+01  1.4542141496E+01  1.5015898585E+01
                       1.0010599057E+01  1.3994439768E+01  1.0010599057E+01
                       1.0010599057E+01  9.6488449243E+00  4.6290228745E+00
                       1.0010599057E+01  9.6488449243E+00  1.5392175239E+01
                       1.0010599057E+01  4.7619437328E+00  1.0010599057E+01
                       1.5392175239E+01  9.6488449243E+00  1.0010599057E+01
                       4.6290228745E+00  9.6488449243E+00  1.0010599057E+01
                       1.1194117686E-13  1.5198330861E-01  1.1192714612E-13
            xcart7     4.9999526479E+00  4.9168861231E+00  4.9999526479E+00
                       1.4999857944E+01  1.4529296422E+01  1.4999857944E+01
                       9.9999052958E+00  1.3979802733E+01  9.9999052958E+00
                       9.9999052958E+00  9.6398796805E+00  4.6283627517E+00
                       9.9999052958E+00  9.6398796805E+00  1.5371447840E+01
                       9.9999052958E+00  4.7617273657E+00  9.9999052958E+00
                       1.5371447840E+01  9.6398796805E+00  9.9999052958E+00
                       4.6283627517E+00  9.6398796805E+00  9.9999052958E+00
                       1.1121349199E-13  1.5205102262E-01  1.1122754138E-13
            xcart8     4.9948475804E+00  4.9119139646E+00  4.9948475804E+00
                       1.4984542741E+01  1.4514912742E+01  1.4984542741E+01
                       9.9896951608E+00  1.3963418404E+01  9.9896951608E+00
                       9.9896951608E+00  9.6300149710E+00  4.6277801900E+00
                       9.9896951607E+00  9.6300149710E+00  1.5351610131E+01
                       9.9896951607E+00  4.7615828228E+00  9.9896951607E+00
                       1.5351610131E+01  9.6300149710E+00  9.9896951607E+00
                       4.6277801900E+00  9.6300149710E+00  9.9896951608E+00
                       1.1270196976E-13  1.5210239919E-01  1.1206078349E-13
            xcart9     4.9905963892E+00  4.9047901378E+00  4.9905963892E+00
                       1.4971789168E+01  1.4495094816E+01  1.4971789168E+01
                       9.9811927784E+00  1.3940822396E+01  9.9811927784E+00
                       9.9811927785E+00  9.6170747036E+00  4.6272380942E+00
                       9.9811927784E+00  9.6170747036E+00  1.5335147463E+01
                       9.9811927784E+00  4.7611987739E+00  9.9811927784E+00
                       1.5335147463E+01  9.6170747036E+00  9.9811927784E+00
                       4.6272380942E+00  9.6170747036E+00  9.9811927785E+00
                       1.1534895869E-13  1.5223248923E-01  1.1534895869E-13
            xcart10    4.9860247089E+00  4.8982097272E+00  4.9860247089E+00
                       1.4958074127E+01  1.4477053019E+01  1.4958074127E+01
                       9.9720494179E+00  1.3920552462E+01  9.9720494179E+00
                       9.9720494179E+00  9.6052751117E+00  4.6266759039E+00
                       9.9720494179E+00  9.6052751117E+00  1.5317422932E+01
                       9.9720494179E+00  4.7612815891E+00  9.9720494179E+00
                       1.5317422932E+01  9.6052751117E+00  9.9720494179E+00
                       4.6266759039E+00  9.6052751117E+00  9.9720494179E+00
                       1.1299410659E-13  1.5254909055E-01  1.1188698670E-13
             xred1     2.5587441998E-01  2.4412558002E-01  2.5587441998E-01
                       7.5587441998E-01  7.4412558002E-01  7.5587441998E-01
                       7.2807833802E-01  2.7192166198E-01  7.2807833802E-01
                       2.3173977165E-01  2.2867928412E-01  7.7132071588E-01
                       7.7132071588E-01  7.6826022835E-01  2.3173977165E-01
                       2.4623365839E-01  7.5376634161E-01  2.4623365839E-01
                       2.3173977165E-01  7.6826022835E-01  7.7132071588E-01
                       7.7132071588E-01  2.2867928412E-01  2.3173977165E-01
                       7.8181885330E-03 -7.8181885330E-03  7.8181885330E-03
             xred2     2.5586736712E-01  2.4413263288E-01  2.5586736712E-01
                       7.5586736712E-01  7.4413263288E-01  7.5586736712E-01
                       7.2792826696E-01  2.7207173304E-01  7.2792826696E-01
                       2.3192406161E-01  2.2890431778E-01  7.7109568222E-01
                       7.7109568222E-01  7.6807593839E-01  2.3192406161E-01
                       2.4646502968E-01  7.5353497032E-01  2.4646502968E-01
                       2.3192406161E-01  7.6807593839E-01  7.7109568222E-01
                       7.7109568222E-01  2.2890431778E-01  2.3192406161E-01
                       7.8324814210E-03 -7.8324814210E-03  7.8324814210E-03
             xred3     2.5584770227E-01  2.4415229773E-01  2.5584770227E-01
                       7.5584770227E-01  7.4415229773E-01  7.5584770227E-01
                       7.2777835979E-01  2.7222164021E-01  7.2777835979E-01
                       2.3210405060E-01  2.2912855051E-01  7.7087144949E-01
                       7.7087144949E-01  7.6789594940E-01  2.3210405060E-01
                       2.4672067681E-01  7.5327932319E-01  2.4672067681E-01
                       2.3210405060E-01  7.6789594940E-01  7.7087144949E-01
                       7.7087144949E-01  2.2912855051E-01  2.3210405060E-01
                       7.8545586694E-03 -7.8545586694E-03  7.8545586694E-03
             xred4     2.5579577626E-01  2.4420422374E-01  2.5579577626E-01
                       7.5579577626E-01  7.4420422374E-01  7.5579577626E-01
                       7.2760466651E-01  2.7239533349E-01  7.2760466651E-01
                       2.3228898074E-01  2.2932108111E-01  7.7067891889E-01
                       7.7067891889E-01  7.6771101926E-01  2.3228898074E-01
                       2.4699449849E-01  7.5300550151E-01  2.4699449849E-01
                       2.3228898074E-01  7.6771101926E-01  7.7067891889E-01
                       7.7067891889E-01  2.2932108111E-01  2.3228898074E-01
                       7.8734832155E-03 -7.8734832155E-03  7.8734832155E-03
             xred5     2.5579570160E-01  2.4420429840E-01  2.5579570160E-01
                       7.5579570160E-01  7.4420429840E-01  7.5579570160E-01
                       7.2747950194E-01  2.7252049806E-01  7.2747950194E-01
                       2.3248507973E-01  2.2955898481E-01  7.7044101519E-01
                       7.7044101519E-01  7.6751492027E-01  2.3248507973E-01
                       2.4719585926E-01  7.5280414074E-01  2.4719585926E-01
                       2.3248507973E-01  7.6751492027E-01  7.7044101519E-01
                       7.7044101519E-01  2.2955898481E-01  2.3248507973E-01
                       7.8810457417E-03 -7.8810457417E-03  7.8810457417E-03
             xred6     2.5575847043E-01  2.4424152957E-01  2.5575847043E-01
                       7.5575847043E-01  7.4424152957E-01  7.5575847043E-01
                       7.2729428443E-01  2.7270571557E-01  7.2729428443E-01
                       2.3265879839E-01  2.2975337577E-01  7.7024662423E-01
                       7.7024662423E-01  7.6734120161E-01  2.3265879839E-01
                       2.4747932158E-01  7.5252067842E-01  2.4747932158E-01
                       2.3265879839E-01  7.6734120161E-01  7.7024662423E-01
                       7.7024662423E-01  2.2975337577E-01  2.3265879839E-01
                       7.8986078410E-03 -7.8986078410E-03  7.8986078410E-03
             xred7     2.5575719151E-01  2.4424280849E-01  2.5575719151E-01
                       7.5575719151E-01  7.4424280849E-01  7.5575719151E-01
                       7.2717467830E-01  2.7282532170E-01  7.2717467830E-01
                       2.3284917908E-01  2.2999147939E-01  7.7000852061E-01
                       7.7000852061E-01  7.6715082092E-01  2.3284917908E-01
                       2.4768643960E-01  7.5231356040E-01  2.4768643960E-01
                       2.3284917908E-01  7.6715082092E-01  7.7000852061E-01
                       7.7000852061E-01  2.2999147939E-01  2.3284917908E-01
                       7.9090996899E-03 -7.9090996899E-03  7.9090996899E-03
             xred8     2.5574896335E-01  2.4425103665E-01  2.5574896335E-01
                       7.5574896335E-01  7.4425103665E-01  7.5574896335E-01
                       7.2703426960E-01  2.7296573040E-01  7.2703426960E-01
                       2.3303435216E-01  2.3022104409E-01  7.6977895591E-01
                       7.6977895591E-01  7.6696564784E-01  2.3303435216E-01
                       2.4792166142E-01  7.5207833858E-01  2.4792166142E-01
                       2.3303435216E-01  7.6696564784E-01  7.6977895591E-01
                       7.6977895591E-01  2.3022104409E-01  2.3303435216E-01
                       7.9195261149E-03 -7.9195261149E-03  7.9195261149E-03
             xred9     2.5571607484E-01  2.4428392516E-01  2.5571607484E-01
                       7.5571607484E-01  7.4428392516E-01  7.5571607484E-01
                       7.2681853515E-01  2.7318146485E-01  7.2681853515E-01
                       2.3319353374E-01  2.3040217038E-01  7.6959782962E-01
                       7.6959782962E-01  7.6680646626E-01  2.3319353374E-01
                       2.4822979736E-01  7.5177020264E-01  2.4822979736E-01
                       2.3319353374E-01  7.6680646626E-01  7.6959782962E-01
                       7.6959782962E-01  2.3040217038E-01  2.3319353374E-01
                       7.9367910788E-03 -7.9367910788E-03  7.9367910788E-03
             xred10    2.5567856044E-01  2.4432143956E-01  2.5567856044E-01
                       7.5567856044E-01  7.4432143956E-01  7.5567856044E-01
                       7.2663013884E-01  2.7336986116E-01  7.2663013884E-01
                       2.3336189684E-01  2.3060250105E-01  7.6939749895E-01
                       7.6939749895E-01  7.6663810316E-01  2.3336189684E-01
                       2.4853113492E-01  7.5146886508E-01  2.4853113492E-01
                       2.3336189684E-01  7.6663810316E-01  7.6939749895E-01
                       7.6939749895E-01  2.3060250105E-01  2.3336189684E-01
                       7.9628137710E-03 -7.9628137710E-03  7.9628137710E-03
            znucl       55.00000   53.00000   72.00000   17.00000

- Timing analysis has been suppressed with timopt=0

 Suggested references for the acknowledgment of ABINIT usage.

 Calculation completed.
.Delivered   0 WARNINGs and 144 COMMENTs to log file.