.Version 9.2.2 of ABINIT

 ABINIT is a project of the Universite Catholique de Louvain,
 Corning Inc. and other collaborators, see ~abinit/doc/developers/contributors.txt .
 acknowledgments of the ABINIT effort.

.Starting date : Wed 16 Nov 2022.
- ( at 22h15 )

- input  file    -> Cs2TiI6.in
- output file    -> Cs2TiI6.out
- root for input  files -> Cs2TiI6i
- root for output files -> Cs2TiI6o

- inpspheads : Reading pseudopotential header in XML form from
-   ../../../Psps_for_tests/ATOMICDATA/Cs.GGA_PBE-JTH.xml
- inpspheads : Reading pseudopotential header in XML form from
-   ../../../Psps_for_tests/ATOMICDATA/Cl.GGA_PBE-JTH.xml
- inpspheads : Reading pseudopotential header in XML form from
-   ../../../Psps_for_tests/ATOMICDATA/Hf.GGA_PBE-JTH.xml

 DATASET    1 : space group Fm -3 m (#225); Bravais cF (face-center cubic)
     intxc =       0    ionmov =       0      iscf =      17    lmnmax =      18
     lnmax =       6     mgfft =      50  mpssoang =       3    mqgrid =    3142
     natom =       9  nloc_mem =       2    nspden =       1   nspinor =       1
    nsppol =       1      nsym =      48    n1xccc =       1    ntypat =       3
    occopt =       1   xclevel =       2
-    mband =          42        mffmem =           1         mkmem =          12
       mpw =        5365          nfft =      125000          nkpt =          72
Pmy_natom=         2
 PAW method is used; the additional fine FFT grid is defined by:
   mgfftf=        80    nfftf =    512000
  Rough estimation (10% accuracy) of disk space for files :

[...]

 DATASET   13 : space group Fm -3 m (#225); Bravais cF (face-center cubic)
     intxc =       0    ionmov =       0      iscf =      17    lmnmax =      18
     lnmax =       6     mgfft =      50  mpssoang =       3    mqgrid =    3104
     natom =       9  nloc_mem =       2    nspden =       1   nspinor =       1
    nsppol =       1      nsym =      48    n1xccc =       1    ntypat =       3
    occopt =       1   xclevel =       2
-    mband =          42        mffmem =           1         mkmem =          12
       mpw =        5166          nfft =      125000          nkpt =          72
Pmy_natom=         2
 PAW method is used; the additional fine FFT grid is defined by:
   mgfftf=        80    nfftf =    512000
  Rough estimation (10% accuracy) of disk space for files :

------------- Echo of variables that govern the present computation ------------
-
- outvars: echo of selected default values
-   iomode0 =  0 , fftalg0 =112 , wfoptalg0 = 10
-
- outvars: echo of global parameters not present in the input file
-  max_nthreads =    0
-
 -outvars: echo values of preprocessed input variables --------
            acell1     1.3513275032E+01  1.3513275032E+01  1.3513275032E+01 Bohr
            acell2     1.3499748230E+01  1.3499748230E+01  1.3499748230E+01 Bohr
            acell3     1.3486221428E+01  1.3486221428E+01  1.3486221428E+01 Bohr
            acell4     1.3472694627E+01  1.3472694627E+01  1.3472694627E+01 Bohr
            acell5     1.3459167825E+01  1.3459167825E+01  1.3459167825E+01 Bohr
            acell6     1.3445641023E+01  1.3445641023E+01  1.3445641023E+01 Bohr
            acell7     1.3432114221E+01  1.3432114221E+01  1.3432114221E+01 Bohr
            acell8     1.3418587419E+01  1.3418587419E+01  1.3418587419E+01 Bohr
            acell9     1.3405060617E+01  1.3405060617E+01  1.3405060617E+01 Bohr
            acell10    1.3391533816E+01  1.3391533816E+01  1.3391533816E+01 Bohr
            acell11    1.3378007014E+01  1.3378007014E+01  1.3378007014E+01 Bohr
            acell12    1.3364480212E+01  1.3364480212E+01  1.3364480212E+01 Bohr
            acell13    1.3350953410E+01  1.3350953410E+01  1.3350953410E+01 Bohr
              amu      1.32905430E+02  3.54527000E+01  1.78490000E+02
           diemac      1.20000000E+01
             ecut      1.60000000E+01 Hartree
-          fftalg         112
           istwfk        2    0    0    0    0    0    3    0    0    0
                         0    0    0    0    0    0    0    0    0    0
                         0    0    0    0    0    0    0    0    0    0
                         0    0    0    0    0    0    0    0    0    0
                         0    0    7    0    0    0    0    0    0    0
                       outvar_i_n : Printing only first  50 k-points.
              ixc     -101130
           jdtset        1    2    3    4    5    6    7    8    9   10
                        11   12   13
              kpt      0.00000000E+00  0.00000000E+00  0.00000000E+00
                       8.33333333E-02  0.00000000E+00  0.00000000E+00
                       1.66666667E-01  0.00000000E+00  0.00000000E+00
                       2.50000000E-01  0.00000000E+00  0.00000000E+00
                       3.33333333E-01  0.00000000E+00  0.00000000E+00
                       4.16666667E-01  0.00000000E+00  0.00000000E+00
                       5.00000000E-01  0.00000000E+00  0.00000000E+00
                       8.33333333E-02  8.33333333E-02  0.00000000E+00
                       1.66666667E-01  8.33333333E-02  0.00000000E+00
                       2.50000000E-01  8.33333333E-02  0.00000000E+00
                       3.33333333E-01  8.33333333E-02  0.00000000E+00
                       4.16666667E-01  8.33333333E-02  0.00000000E+00
                       5.00000000E-01  8.33333333E-02  0.00000000E+00
                      -4.16666667E-01  8.33333333E-02  0.00000000E+00
                      -3.33333333E-01  8.33333333E-02  0.00000000E+00
                      -2.50000000E-01  8.33333333E-02  0.00000000E+00
                      -1.66666667E-01  8.33333333E-02  0.00000000E+00
                      -8.33333333E-02  8.33333333E-02  0.00000000E+00
                       1.66666667E-01  1.66666667E-01  0.00000000E+00
                       2.50000000E-01  1.66666667E-01  0.00000000E+00
                       3.33333333E-01  1.66666667E-01  0.00000000E+00
                       4.16666667E-01  1.66666667E-01  0.00000000E+00
                       5.00000000E-01  1.66666667E-01  0.00000000E+00
                      -4.16666667E-01  1.66666667E-01  0.00000000E+00
                      -3.33333333E-01  1.66666667E-01  0.00000000E+00
                      -2.50000000E-01  1.66666667E-01  0.00000000E+00
                      -1.66666667E-01  1.66666667E-01  0.00000000E+00
                       2.50000000E-01  2.50000000E-01  0.00000000E+00
                       3.33333333E-01  2.50000000E-01  0.00000000E+00
                       4.16666667E-01  2.50000000E-01  0.00000000E+00
                       5.00000000E-01  2.50000000E-01  0.00000000E+00
                      -4.16666667E-01  2.50000000E-01  0.00000000E+00
                      -3.33333333E-01  2.50000000E-01  0.00000000E+00
                      -2.50000000E-01  2.50000000E-01  0.00000000E+00
                       3.33333333E-01  3.33333333E-01  0.00000000E+00
                       4.16666667E-01  3.33333333E-01  0.00000000E+00
                       5.00000000E-01  3.33333333E-01  0.00000000E+00
                      -4.16666667E-01  3.33333333E-01  0.00000000E+00
                      -3.33333333E-01  3.33333333E-01  0.00000000E+00
                       4.16666667E-01  4.16666667E-01  0.00000000E+00
                       5.00000000E-01  4.16666667E-01  0.00000000E+00
                      -4.16666667E-01  4.16666667E-01  0.00000000E+00
                       5.00000000E-01  5.00000000E-01  0.00000000E+00
                       2.50000000E-01  1.66666667E-01  8.33333333E-02
                       3.33333333E-01  1.66666667E-01  8.33333333E-02
                       4.16666667E-01  1.66666667E-01  8.33333333E-02
                       5.00000000E-01  1.66666667E-01  8.33333333E-02
                      -4.16666667E-01  1.66666667E-01  8.33333333E-02
                       3.33333333E-01  2.50000000E-01  8.33333333E-02
                       4.16666667E-01  2.50000000E-01  8.33333333E-02
                       outvar_i_n : Printing only first  50 k-points.
         kptrlatt       12    0    0      0   12    0      0    0   12
          kptrlen1     1.62159300E+02
          kptrlen2     1.61996979E+02
          kptrlen3     1.61834657E+02
          kptrlen4     1.61672336E+02
          kptrlen5     1.61510014E+02
          kptrlen6     1.61347692E+02
          kptrlen7     1.61185371E+02
          kptrlen8     1.61023049E+02
          kptrlen9     1.60860727E+02
          kptrlen10    1.60698406E+02
          kptrlen11    1.60536084E+02
          kptrlen12    1.60373763E+02
          kptrlen13    1.60211441E+02
P           mkmem          12
            natom           9
            nband          42
           ndtset          13
            ngfft          50      50      50
          ngfftdg          80      80      80
             nkpt          72
            nstep        2500
             nsym          48
           ntypat           3
              occ      2.000000  2.000000  2.000000  2.000000  2.000000  2.000000
                       2.000000  2.000000  2.000000  2.000000  2.000000  2.000000
                       2.000000  2.000000  2.000000  2.000000  2.000000  2.000000
                       2.000000  2.000000  2.000000  2.000000  2.000000  2.000000
                       2.000000  2.000000  2.000000  2.000000  2.000000  2.000000
                       2.000000  2.000000  2.000000  2.000000  2.000000  2.000000
                       0.000000  0.000000  0.000000  0.000000  0.000000  0.000000
        pawecutdg      4.00000000E+01 Hartree
            prtwf           0
            rprim      0.0000000000E+00  7.0710678119E-01  7.0710678119E-01
                       7.0710678119E-01  0.0000000000E+00  7.0710678119E-01
                       7.0710678119E-01  7.0710678119E-01  0.0000000000E+00
          spgroup         225
           symrel      1  0  0   0  1  0   0  0  1      -1  0  0   0 -1  0   0  0 -1
                       0 -1  1   0 -1  0   1 -1  0       0  1 -1   0  1  0  -1  1  0
                      -1  0  0  -1  0  1  -1  1  0       1  0  0   1  0 -1   1 -1  0
                       0  1 -1   1  0 -1   0  0 -1       0 -1  1  -1  0  1   0  0  1
                      -1  0  0  -1  1  0  -1  0  1       1  0  0   1 -1  0   1  0 -1
                       0 -1  1   1 -1  0   0 -1  0       0  1 -1  -1  1  0   0  1  0
                       1  0  0   0  0  1   0  1  0      -1  0  0   0  0 -1   0 -1  0
                       0  1 -1   0  0 -1   1  0 -1       0 -1  1   0  0  1  -1  0  1
                      -1  0  1  -1  1  0  -1  0  0       1  0 -1   1 -1  0   1  0  0
                       0 -1  0   1 -1  0   0 -1  1       0  1  0  -1  1  0   0  1 -1
                       1  0 -1   0  0 -1   0  1 -1      -1  0  1   0  0  1   0 -1  1
                       0  1  0   0  0  1   1  0  0       0 -1  0   0  0 -1  -1  0  0
                       1  0 -1   0  1 -1   0  0 -1      -1  0  1   0 -1  1   0  0  1
                       0 -1  0   0 -1  1   1 -1  0       0  1  0   0  1 -1  -1  1  0
                      -1  0  1  -1  0  0  -1  1  0       1  0 -1   1  0  0   1 -1  0
[...]
                       9.8320300577E-20 -1.2485688495E-18  2.0378350359E-19
            xcart3     4.7680993122E+00  4.7680993122E+00  4.7680993122E+00
                       1.4304297937E+01  1.4304297937E+01  1.4304297937E+01
                       9.5361986244E+00  1.4442329516E+01  9.5361986244E+00
                       9.5361986244E+00  9.5361986244E+00  4.6300677326E+00
                       9.5361986244E+00  9.5361986244E+00  1.4442329516E+01
                       9.5361986244E+00  4.6300677326E+00  9.5361986244E+00
                       1.4442329516E+01  9.5361986244E+00  9.5361986244E+00
                       4.6300677326E+00  9.5361986244E+00  9.5361986244E+00
                       4.5515292642E-20 -1.2522463821E-18  3.8077789181E-19
            xcart4     4.7633168658E+00  4.7633168658E+00  4.7633168658E+00
                       1.4289950597E+01  1.4289950597E+01  1.4289950597E+01
                       9.5266337317E+00  1.4423952586E+01  9.5266337317E+00
                       9.5266337317E+00  9.5266337317E+00  4.6293148772E+00
                       9.5266337317E+00  9.5266337317E+00  1.4423952586E+01
                       9.5266337317E+00  4.6293148772E+00  9.5266337317E+00
                       1.4423952586E+01  9.5266337317E+00  9.5266337317E+00
                       4.6293148772E+00  9.5266337317E+00  9.5266337317E+00
                       5.9037894882E-20 -1.2246258159E-18  2.4256093619E-19
            xcart5     4.7585344191E+00  4.7585344191E+00  4.7585344191E+00
                       1.4275603257E+01  1.4275603257E+01  1.4275603257E+01
                       9.5170688382E+00  1.4405547554E+01  9.5170688382E+00
                       9.5170688382E+00  9.5170688382E+00  4.6285901228E+00
                       9.5170688382E+00  9.5170688382E+00  1.4405547554E+01
                       9.5170688382E+00  4.6285901228E+00  9.5170688382E+00
                       1.4405547554E+01  9.5170688382E+00  9.5170688382E+00
                       4.6285901228E+00  9.5170688382E+00  9.5170688382E+00
                       1.6290776239E-19 -1.3090882686E-18  3.0765056655E-19
            xcart6     4.7537519724E+00  4.7537519724E+00  4.7537519724E+00
                       1.4261255917E+01  1.4261255917E+01  1.4261255917E+01
                       9.5075039448E+00  1.4387150547E+01  9.5075039448E+00
                       9.5075039448E+00  9.5075039448E+00  4.6278573422E+00
                       9.5075039448E+00  9.5075039448E+00  1.4387150547E+01
                       9.5075039448E+00  4.6278573422E+00  9.5075039448E+00
                       1.4387150547E+01  9.5075039448E+00  9.5075039448E+00
                       4.6278573422E+00  9.5075039448E+00  9.5075039448E+00
                       2.9343756201E-19 -1.4741736274E-18  3.5619314694E-19
            xcart7     4.7489695257E+00  4.7489695257E+00  4.7489695257E+00
                       1.4246908577E+01  1.4246908577E+01  1.4246908577E+01
                       9.4979390514E+00  1.4368733630E+01  9.4979390514E+00
                       9.4979390514E+00  9.4979390514E+00  4.6271444724E+00
                       9.4979390514E+00  9.4979390514E+00  1.4368733630E+01
                       9.4979390514E+00  4.6271444724E+00  9.4979390514E+00
                       1.4368733630E+01  9.4979390514E+00  9.4979390514E+00
                       4.6271444724E+00  9.4979390514E+00  9.4979390514E+00
                       1.9051889071E-19 -1.5037194551E-18  4.0356222089E-19
            xcart8     4.7441870790E+00  4.7441870790E+00  4.7441870790E+00
                       1.4232561237E+01  1.4232561237E+01  1.4232561237E+01
                       9.4883741580E+00  1.4350391065E+01  9.4883741580E+00
                       9.4883741580E+00  9.4883741580E+00  4.6263572507E+00
                       9.4883741580E+00  9.4883741580E+00  1.4350391065E+01
                       9.4883741580E+00  4.6263572507E+00  9.4883741580E+00
                       1.4350391065E+01  9.4883741580E+00  9.4883741580E+00
                       4.6263572507E+00  9.4883741580E+00  9.4883741580E+00
                       3.0758076158E-19 -1.6811668563E-18  4.9846489406E-19
            xcart9     4.7394046323E+00  4.7394046323E+00  4.7394046323E+00
                       1.4218213897E+01  1.4218213897E+01  1.4218213897E+01
                       9.4788092645E+00  1.4332115530E+01  9.4788092645E+00
                       9.4788092645E+00  9.4788092645E+00  4.6255029989E+00
                       9.4788092645E+00  9.4788092645E+00  1.4332115530E+01
                       9.4788092645E+00  4.6255029989E+00  9.4788092645E+00
                       1.4332115530E+01  9.4788092645E+00  9.4788092645E+00
                       4.6255029989E+00  9.4788092645E+00  9.4788092645E+00
                       3.3782852738E-19 -1.7599785813E-18  4.4473163438E-19
            xcart10    4.7346221859E+00  4.7346221859E+00  4.7346221859E+00
                       1.4203866558E+01  1.4203866558E+01  1.4203866558E+01
                       9.4692443718E+00  1.4313757745E+01  9.4692443718E+00
                       9.4692443718E+00  9.4692443718E+00  4.6247309986E+00
                       9.4692443718E+00  9.4692443718E+00  1.4313757745E+01
                       9.4692443718E+00  4.6247309986E+00  9.4692443718E+00
                       1.4313757745E+01  9.4692443718E+00  9.4692443718E+00
                       4.6247309986E+00  9.4692443718E+00  9.4692443718E+00
                       1.8479792789E-19 -1.8813171650E-18  5.7016161237E-19
            xcart11    4.7298397392E+00  4.7298397392E+00  4.7298397392E+00
                       1.4189519218E+01  1.4189519218E+01  1.4189519218E+01
                       9.4596794784E+00  1.4295591421E+01  9.4596794784E+00
                       9.4596794784E+00  9.4596794784E+00  4.6237675355E+00
                       9.4596794784E+00  9.4596794784E+00  1.4295591421E+01
                       9.4596794784E+00  4.6237675355E+00  9.4596794784E+00
                       1.4295591421E+01  9.4596794784E+00  9.4596794784E+00
                       4.6237675355E+00  9.4596794784E+00  9.4596794784E+00
                       9.3855750359E-20 -1.9352552594E-18  6.2322987471E-19
            xcart12    4.7250572925E+00  4.7250572925E+00  4.7250572925E+00
                       1.4175171877E+01  1.4175171877E+01  1.4175171877E+01
                       9.4501145850E+00  1.4277360512E+01  9.4501145850E+00
                       9.4501145850E+00  9.4501145850E+00  4.6228686578E+00
                       9.4501145850E+00  9.4501145850E+00  1.4277360512E+01
                       9.4501145850E+00  4.6228686578E+00  9.4501145850E+00
                       1.4277360512E+01  9.4501145850E+00  9.4501145850E+00
                       4.6228686578E+00  9.4501145850E+00  9.4501145850E+00
                       1.4287461390E-19 -1.9783897756E-18  6.3033802681E-19
            xcart13    4.7202748458E+00  4.7202748458E+00  4.7202748458E+00
                       1.4160824537E+01  1.4160824537E+01  1.4160824537E+01
                       9.4405496916E+00  1.4259155376E+01  9.4405496916E+00
                       9.4405496916E+00  9.4405496916E+00  4.6219440076E+00
                       9.4405496916E+00  9.4405496916E+00  1.4259155376E+01
                       9.4405496916E+00  4.6219440076E+00  9.4405496916E+00
                       1.4259155376E+01  9.4405496916E+00  9.4405496916E+00
                       4.6219440076E+00  9.4405496916E+00  9.4405496916E+00
                       1.6159795124E-19 -1.2985629357E-18  3.0517699415E-19
             xred1     2.5000000000E-01  2.5000000000E-01  2.5000000000E-01
                       7.5000000000E-01  7.5000000000E-01  7.5000000000E-01
                       7.5765309954E-01  2.4234690046E-01  7.5765309954E-01
                       2.4234690046E-01  2.4234690046E-01  7.5765309954E-01
                       7.5765309954E-01  7.5765309954E-01  2.4234690046E-01
                       2.4234690046E-01  7.5765309954E-01  2.4234690046E-01
                       2.4234690046E-01  7.5765309954E-01  7.5765309954E-01
                       7.5765309954E-01  2.4234690046E-01  2.4234690046E-01
                      -6.1171432307E-20  9.3497621366E-20 -7.6380191077E-20
             xred2     2.5000000000E-01  2.5000000000E-01  2.5000000000E-01
                       7.5000000000E-01  7.5000000000E-01  7.5000000000E-01
                       7.5744495222E-01  2.4255504778E-01  7.5744495222E-01
                       2.4255504778E-01  2.4255504778E-01  7.5744495222E-01
                       7.5744495222E-01  7.5744495222E-01  2.4255504778E-01
                       2.4255504778E-01  7.5744495222E-01  2.4255504778E-01
                       2.4255504778E-01  7.5744495222E-01  7.5744495222E-01
                       7.5744495222E-01  2.4255504778E-01  2.4255504778E-01
                      -5.9875024369E-20  8.1223081359E-20 -7.0923192786E-20
             xred3     2.5000000000E-01  2.5000000000E-01  2.5000000000E-01
                       7.5000000000E-01  7.5000000000E-01  7.5000000000E-01
                       7.5723724332E-01  2.4276275668E-01  7.5723724332E-01
                       2.4276275668E-01  2.4276275668E-01  7.5723724332E-01
                       7.5723724332E-01  7.5723724332E-01  2.4276275668E-01
                       2.4276275668E-01  7.5723724332E-01  2.4276275668E-01
                       2.4276275668E-01  7.5723724332E-01  7.5723724332E-01
                       7.5723724332E-01  2.4276275668E-01  2.4276275668E-01
                      -4.8079104632E-20  8.8008840453E-20 -8.3235943575E-20
             xred4     2.5000000000E-01  2.5000000000E-01  2.5000000000E-01
                       7.5000000000E-01  7.5000000000E-01  7.5000000000E-01
                       7.5703301882E-01  2.4296698118E-01  7.5703301882E-01
                       2.4296698118E-01  2.4296698118E-01  7.5703301882E-01
                       7.5703301882E-01  7.5703301882E-01  2.4296698118E-01
                       2.4296698118E-01  7.5703301882E-01  2.4296698118E-01
                       2.4296698118E-01  7.5703301882E-01  7.5703301882E-01
                       7.5703301882E-01  2.4296698118E-01  2.4296698118E-01
                      -5.4641692120E-20  8.0103040065E-20 -7.3905898814E-20
             xred5     2.5000000000E-01  2.5000000000E-01  2.5000000000E-01
                       7.5000000000E-01  7.5000000000E-01  7.5000000000E-01
                       7.5682690745E-01  2.4317309255E-01  7.5682690745E-01
                       2.4317309255E-01  2.4317309255E-01  7.5682690745E-01
                       7.5682690745E-01  7.5682690745E-01  2.4317309255E-01
                       2.4317309255E-01  7.5682690745E-01  2.4317309255E-01
                       2.4317309255E-01  7.5682690745E-01  7.5682690745E-01
                       7.5682690745E-01  2.4317309255E-01  2.4317309255E-01
                      -6.1171432307E-20  9.3497621366E-20 -7.6380191077E-20
             xred6     2.5000000000E-01  2.5000000000E-01  2.5000000000E-01
                       7.5000000000E-01  7.5000000000E-01  7.5000000000E-01
                       7.5662080347E-01  2.4337919653E-01  7.5662080347E-01
                       2.4337919653E-01  2.4337919653E-01  7.5662080347E-01
                       7.5662080347E-01  7.5662080347E-01  2.4337919653E-01
                       2.4337919653E-01  7.5662080347E-01  2.4337919653E-01
                       2.4337919653E-01  7.5662080347E-01  7.5662080347E-01
                       7.5662080347E-01  2.4337919653E-01  2.4337919653E-01
                      -7.4226529415E-20  1.1169095215E-19 -8.0827166690E-20
             xred7     2.5000000000E-01  2.5000000000E-01  2.5000000000E-01
                       7.5000000000E-01  7.5000000000E-01  7.5000000000E-01
                       7.5641323621E-01  2.4358676379E-01  7.5641323621E-01
                       2.4358676379E-01  2.4358676379E-01  7.5641323621E-01
                       7.5641323621E-01  7.5641323621E-01  2.4358676379E-01
                       2.4358676379E-01  7.5641323621E-01  2.4358676379E-01
                       2.4358676379E-01  7.5641323621E-01  7.5641323621E-01
                       7.5641323621E-01  2.4358676379E-01  2.4358676379E-01
                      -6.7945062497E-20  1.1043451402E-19 -9.0375542313E-20
             xred8     2.5000000000E-01  2.5000000000E-01  2.5000000000E-01
                       7.5000000000E-01  7.5000000000E-01  7.5000000000E-01
                       7.5620916852E-01  2.4379083148E-01  7.5620916852E-01
                       2.4379083148E-01  2.4379083148E-01  7.5620916852E-01
                       7.5620916852E-01  7.5620916852E-01  2.4379083148E-01
                       2.4379083148E-01  7.5620916852E-01  2.4379083148E-01
                       2.4379083148E-01  7.5620916852E-01  7.5620916852E-01
                       7.5620916852E-01  2.4379083148E-01  2.4379083148E-01
                      -7.8532038208E-20  1.3106631708E-19 -9.8649724262E-20
             xred9     2.5000000000E-01  2.5000000000E-01  2.5000000000E-01
                       7.5000000000E-01  7.5000000000E-01  7.5000000000E-01
                       7.5600822478E-01  2.4399177522E-01  7.5600822478E-01
                       2.4399177522E-01  2.4399177522E-01  7.5600822478E-01
                       7.5600822478E-01  7.5600822478E-01  2.4399177522E-01
                       2.4399177522E-01  7.5600822478E-01  2.4399177522E-01
                       2.4399177522E-01  7.5600822478E-01  7.5600822478E-01
                       7.5600822478E-01  2.4399177522E-01  2.4399177522E-01
                      -8.7198477580E-20  1.3411699044E-19 -9.8476593218E-20
             xred10    2.5000000000E-01  2.5000000000E-01  2.5000000000E-01
                       7.5000000000E-01  7.5000000000E-01  7.5000000000E-01
                       7.5580253202E-01  2.4419746798E-01  7.5580253202E-01
                       2.4419746798E-01  2.4419746798E-01  7.5580253202E-01
                       7.5580253202E-01  7.5580253202E-01  2.4419746798E-01
                       2.4419746798E-01  7.5580253202E-01  2.4419746798E-01
                       2.4419746798E-01  7.5580253202E-01  7.5580253202E-01
                       7.5580253202E-01  2.4419746798E-01  2.4419746798E-01
                      -7.8990119054E-20  1.3920206311E-19 -1.1968646919E-19
             xred11    2.5000000000E-01  2.5000000000E-01  2.5000000000E-01
                       7.5000000000E-01  7.5000000000E-01  7.5000000000E-01
                       7.5560654322E-01  2.4439345678E-01  7.5560654322E-01
                       2.4439345678E-01  2.4439345678E-01  7.5560654322E-01
                       7.5560654322E-01  7.5560654322E-01  2.4439345678E-01
                       2.4439345678E-01  7.5560654322E-01  2.4439345678E-01
                       2.4439345678E-01  7.5560654322E-01  7.5560654322E-01
                       7.5560654322E-01  2.4439345678E-01  2.4439345678E-01
                      -7.4309131626E-20  1.4019190029E-19 -1.3027023745E-19
             xred12    2.5000000000E-01  2.5000000000E-01  2.5000000000E-01
                       7.5000000000E-01  7.5000000000E-01  7.5000000000E-01
                       7.5540674051E-01  2.4459325949E-01  7.5540674051E-01
                       2.4459325949E-01  2.4459325949E-01  7.5540674051E-01
                       7.5540674051E-01  7.5540674051E-01  2.4459325949E-01
                       2.4459325949E-01  7.5540674051E-01  2.4459325949E-01
                       2.4459325949E-01  7.5540674051E-01  7.5540674051E-01
                       7.5540674051E-01  2.4459325949E-01  2.4459325949E-01
                      -7.8884036234E-20  1.4558566415E-19 -1.3046684071E-19
             xred13    2.5000000000E-01  2.5000000000E-01  2.5000000000E-01
                       7.5000000000E-01  7.5000000000E-01  7.5000000000E-01
                       7.5520789792E-01  2.4479210208E-01  7.5520789792E-01
                       2.4479210208E-01  2.4479210208E-01  7.5520789792E-01
                       7.5520789792E-01  7.5520789792E-01  2.4479210208E-01
                       2.4479210208E-01  7.5520789792E-01  2.4479210208E-01
                       2.4479210208E-01  7.5520789792E-01  7.5520789792E-01
                       7.5520789792E-01  2.4479210208E-01  2.4479210208E-01
                      -6.1171432307E-20  9.3497621366E-20 -7.6380191077E-20
            znucl       55.00000   17.00000   72.00000

- Timing analysis has been suppressed with timopt=0

 Suggested references for the acknowledgment of ABINIT usage.

 Calculation completed.
.Delivered   0 WARNINGs and   0 COMMENTs to log file.