.Version 9.2.2 of ABINIT

 ABINIT is a project of the Universite Catholique de Louvain,
 Corning Inc. and other collaborators, see ~abinit/doc/developers/contributors.txt .
 acknowledgments of the ABINIT effort.

.Starting date : Sun 11 Dec 2022.
- ( at 21h31 )

- The starting date is more than 2 years after the initial release
- of this version of ABINIT, namely Nov 2020.
- Note that the use beyond 3 years after the release will not be supported.
- Action: please, switch to a more recent version of ABINIT.

- input  file    -> Cs2TiI6.in
- output file    -> Cs2TiI6.out
- root for input  files -> Cs2TiI6i
- root for output files -> Cs2TiI6o

- inpspheads : Reading pseudopotential header in XML form from
-   ../../../Psps_for_tests/ATOMICDATA/Cs.GGA_PBE-JTH.xml
- inpspheads : Reading pseudopotential header in XML form from
-   ../../../Psps_for_tests/ATOMICDATA/I.GGA_PBE-JTH.xml
- inpspheads : Reading pseudopotential header in XML form from
-   ../../../Psps_for_tests/ATOMICDATA/Zr.GGA_PBE-JTH.xml
- inpspheads : Reading pseudopotential header in XML form from
-   ../../../Psps_for_tests/ATOMICDATA/Cl.GGA_PBE-JTH.xml

 DATASET    1 : space group Fm m 2 (# 42); Bravais oF (face-center ortho.)
     intxc =       0    ionmov =       2      iscf =      17    lmnmax =      18
     lnmax =       6     mgfft =      60  mpssoang =       3    mqgrid =    3776
     natom =       9  nloc_mem =       2    nspden =       1   nspinor =       1
    nsppol =       1      nsym =       4    n1xccc =       1    ntypat =       4
    occopt =       1   xclevel =       2
-    mband =          42        mffmem =           1         mkmem =           8
       mpw =        9293          nfft =      216000          nkpt =          32
Pmy_natom=         3
 PAW method is used; the additional fine FFT grid is defined by:
   mgfftf=        96    nfftf =    884736
  Rough estimation (10% accuracy) of disk space for files :

[...]

 DATASET   10 : space group Fm m 2 (# 42); Bravais oF (face-center ortho.)
     intxc =       0    ionmov =       2      iscf =      17    lmnmax =      18
     lnmax =       6     mgfft =      60  mpssoang =       3    mqgrid =    3738
     natom =       9  nloc_mem =       2    nspden =       1   nspinor =       1
    nsppol =       1      nsym =       4    n1xccc =       1    ntypat =       4
    occopt =       1   xclevel =       2
-    mband =          42        mffmem =           1         mkmem =           8
       mpw =        9016          nfft =      216000          nkpt =          32
Pmy_natom=         3
 PAW method is used; the additional fine FFT grid is defined by:
   mgfftf=        96    nfftf =    884736
  Rough estimation (10% accuracy) of disk space for files :

------------- Echo of variables that govern the present computation ------------
-
- outvars: echo of selected default values
-   iomode0 =  0 , fftalg0 =112 , wfoptalg0 = 10
-
- outvars: echo of global parameters not present in the input file
-  max_nthreads =    0
-
 -outvars: echo values of preprocessed input variables --------
            acell1     1.4168255854E+01  1.3946336795E+01  1.4285571064E+01 Bohr
            acell2     1.4154158087E+01  1.3932459843E+01  1.4271356565E+01 Bohr
            acell3     1.4140060320E+01  1.3918582891E+01  1.4257142067E+01 Bohr
            acell4     1.4125962553E+01  1.3904705939E+01  1.4242927568E+01 Bohr
            acell5     1.4111864786E+01  1.3890828987E+01  1.4228713070E+01 Bohr
            acell6     1.4083669252E+01  1.3863075083E+01  1.4200284072E+01 Bohr
            acell7     1.4069571485E+01  1.3849198131E+01  1.4186069574E+01 Bohr
            acell8     1.4055473718E+01  1.3835321179E+01  1.4171855075E+01 Bohr
            acell9     1.4041375951E+01  1.3821444227E+01  1.4157640577E+01 Bohr
            acell10    1.4027278184E+01  1.3807567275E+01  1.4143426078E+01 Bohr
              amu      1.32905430E+02  1.26904470E+02  9.12240000E+01
                       3.54527000E+01
           diemac      1.20000000E+01
          dilatmx      1.15000000E+00
             ecut      1.60000000E+01 Hartree
           ecutsm      5.00000000E-01 Hartree
-          fftalg         112
           ionmov           2
              ixc     -101130
           jdtset        1    2    3    4    5    6    7    8    9   10
              kpt     -1.25000000E-01 -2.50000000E-01  0.00000000E+00
                      -1.25000000E-01  5.00000000E-01  0.00000000E+00
                      -2.50000000E-01 -3.75000000E-01  0.00000000E+00
                      -1.25000000E-01 -3.75000000E-01  1.25000000E-01
                      -3.75000000E-01 -1.25000000E-01  1.25000000E-01
                      -1.25000000E-01  2.50000000E-01  0.00000000E+00
                      -2.50000000E-01  3.75000000E-01  0.00000000E+00
                      -1.25000000E-01  3.75000000E-01  1.25000000E-01
                      -3.75000000E-01  5.00000000E-01  0.00000000E+00
                      -2.50000000E-01  5.00000000E-01  1.25000000E-01
                      -1.25000000E-01  5.00000000E-01  2.50000000E-01
                       5.00000000E-01 -2.50000000E-01  1.25000000E-01
                       3.75000000E-01 -1.25000000E-01  1.25000000E-01
                       5.00000000E-01 -1.25000000E-01  2.50000000E-01
                      -1.25000000E-01  0.00000000E+00  0.00000000E+00
                      -1.25000000E-01  1.25000000E-01  1.25000000E-01
                      -1.25000000E-01  2.50000000E-01  2.50000000E-01
                      -1.25000000E-01  3.75000000E-01  3.75000000E-01
                       1.25000000E-01 -1.25000000E-01  1.25000000E-01
                       2.50000000E-01 -1.25000000E-01  2.50000000E-01
                       3.75000000E-01 -1.25000000E-01  3.75000000E-01
                      -3.75000000E-01  0.00000000E+00  0.00000000E+00
                      -2.50000000E-01  0.00000000E+00  1.25000000E-01
                      -3.75000000E-01  1.25000000E-01  1.25000000E-01
                      -2.50000000E-01  1.25000000E-01  2.50000000E-01
                      -3.75000000E-01  2.50000000E-01  2.50000000E-01
                      -2.50000000E-01  2.50000000E-01  3.75000000E-01
                       1.25000000E-01 -3.75000000E-01  1.25000000E-01
                       2.50000000E-01 -3.75000000E-01  2.50000000E-01
                       0.00000000E+00 -2.50000000E-01  1.25000000E-01
                       1.25000000E-01 -2.50000000E-01  2.50000000E-01
                       2.50000000E-01 -2.50000000E-01  3.75000000E-01
         kptrlatt        4   -4    4     -4    4    4     -4   -4    4
          kptrlen1     7.82124785E+01
          kptrlen2     7.81346551E+01
          kptrlen3     7.80568317E+01
          kptrlen4     7.79790084E+01
          kptrlen5     7.79011850E+01
          kptrlen6     7.77455383E+01
          kptrlen7     7.76677149E+01
          kptrlen8     7.75898916E+01
          kptrlen9     7.75120682E+01
          kptrlen10    7.74342448E+01
P           mkmem           8
            natom           9
            nband          42
           ndtset          10
            ngfft          60      60      60
          ngfftdg          96      96      96
             nkpt          32
            nstep        2500
             nsym           4
            ntime        1000
           ntypat           4
              occ      2.000000  2.000000  2.000000  2.000000  2.000000  2.000000
                       2.000000  2.000000  2.000000  2.000000  2.000000  2.000000
                       2.000000  2.000000  2.000000  2.000000  2.000000  2.000000
                       2.000000  2.000000  2.000000  2.000000  2.000000  2.000000
                       2.000000  2.000000  2.000000  2.000000  2.000000  2.000000
                       2.000000  2.000000  2.000000  2.000000  2.000000  2.000000
                       0.000000  0.000000  0.000000  0.000000  0.000000  0.000000
          optcell           3
        optforces           1
        pawecutdg      4.00000000E+01 Hartree
            prtwf           0
            rprim      0.0000000000E+00  7.2377819548E-01  6.9003269760E-01
                       7.1314874649E-01  0.0000000000E+00  7.0101274267E-01
                       6.9621386217E-01  7.1783442250E-01  0.0000000000E+00
           shiftk      5.00000000E-01  5.00000000E-01  5.00000000E-01
          spgroup          42
           symrel      1  0  0   0  1  0   0  0  1       1  0  0   1  0 -1   1 -1  0
                       0 -1  1   0 -1  0   1 -1  0       0 -1  1  -1  0  1   0  0  1
           toldff      1.00000000E-08
           tolmxf      1.00000000E-05
            typat      1  1  4  4  2  4  2  2  3
           useylm           1
              wtk        0.03125    0.03125    0.03125    0.03125    0.03125    0.03125
                         0.03125    0.03125    0.03125    0.03125    0.03125    0.03125
                         0.03125    0.03125    0.03125    0.03125    0.03125    0.03125
                         0.03125    0.03125    0.03125    0.03125    0.03125    0.03125
                         0.03125    0.03125    0.03125    0.03125    0.03125    0.03125
                         0.03125    0.03125
           xangst1     2.6315486754E+00  2.7227806289E+00  2.5867663142E+00
                       7.8946460261E+00  8.1493207378E+00  7.7602989425E+00
                       5.2630973508E+00  5.3565460647E+00  2.4557306418E+00
                       5.2630973507E+00  5.3565460648E+00  7.8913346149E+00
                       7.6887981554E+00  5.4756780681E+00  5.1735326283E+00
                       5.2630973508E+00  8.2647196991E+00  5.1735326284E+00
                       5.2630973507E+00  2.7362921198E+00  5.1735326283E+00
                       2.8373965461E+00  5.4756780682E+00  5.1735326284E+00
                      -3.9123895955E-13 -1.2524058002E-01 -1.8502762232E-12
           xangst2     2.6289302190E+00  2.7200713945E+00  2.5841924173E+00
                       7.8867906569E+00  8.1412119610E+00  7.7525772520E+00
                       5.2578604380E+00  5.3512161681E+00  2.4532871287E+00
                       5.2578604380E+00  5.3512161683E+00  7.8834825406E+00
                       7.6811476100E+00  5.4702296322E+00  5.1683848347E+00
                       5.2578604380E+00  8.2564960974E+00  5.1683848347E+00
                       5.2578604380E+00  2.7335694411E+00  5.1683848347E+00
                       2.8345732659E+00  5.4702296323E+00  5.1683848347E+00
                      -3.9084079546E-13 -1.2511596253E-01 -1.8484212236E-12
           xangst3     2.6263117626E+00  2.7173621600E+00  2.5816185205E+00
                       7.8789352878E+00  8.1331031841E+00  7.7448555616E+00
                       5.2526235252E+00  5.3458862715E+00  2.4508436157E+00
                       5.2526235252E+00  5.3458862717E+00  7.8756304664E+00
                       7.6734970646E+00  5.4647811963E+00  5.1632370410E+00
                       5.2526235252E+00  8.2482724957E+00  5.1632370411E+00
                       5.2526235252E+00  2.7308467624E+00  5.1632370410E+00
                       2.8317499858E+00  5.4647811964E+00  5.1632370411E+00
[...]
                      -3.9025384143E-13 -1.2492582451E-01 -1.8456096926E-12
           xangst7     2.6135252122E+00  2.7046086060E+00  2.5683256043E+00
                       7.8405756365E+00  8.0936098619E+00  7.7049768130E+00
                       5.2270504243E+00  5.3198658029E+00  2.4426001274E+00
                       5.2270504243E+00  5.3198658030E+00  7.8307022899E+00
                       7.6334317115E+00  5.4388256094E+00  5.1366512086E+00
                       5.2270504243E+00  8.2023704026E+00  5.1366512087E+00
                       5.2270504243E+00  2.7194920253E+00  5.1366512086E+00
                       2.8206691371E+00  5.4388256095E+00  5.1366512087E+00
                      -3.9181357756E-13 -1.2545367275E-01 -1.8535583246E-12
           xangst8     2.6111124168E+00  2.7022586796E+00  2.5655240037E+00
                       7.8333372505E+00  8.0859141459E+00  7.6965720111E+00
                       5.2222248337E+00  5.3148417466E+00  2.4421811850E+00
                       5.2222248337E+00  5.3148417467E+00  7.8199148299E+00
                       7.6250975567E+00  5.4338436817E+00  5.1310480074E+00
                       5.2222248337E+00  8.1916503243E+00  5.1310480075E+00
                       5.2222248337E+00  2.7178773361E+00  5.1310480074E+00
                       2.8193521106E+00  5.4338436818E+00  5.1310480075E+00
                      -3.9300356873E-13 -1.2582761210E-01 -1.8590716582E-12
           xangst9     2.6088811213E+00  2.6997476441E+00  2.5625830631E+00
                       7.8266433640E+00  8.0779756529E+00  7.6877491892E+00
                       5.2177622427E+00  5.3093954479E+00  2.4417658847E+00
                       5.2177622427E+00  5.3093954481E+00  7.8085663676E+00
                       7.6174992680E+00  5.4290020390E+00  5.1251661261E+00
                       5.2177622427E+00  8.1810027327E+00  5.1251661262E+00
                       5.2177622427E+00  2.7163605211E+00  5.1251661261E+00
                       2.8180252173E+00  5.4290020391E+00  5.1251661262E+00
                      -3.9375682757E-13 -1.2605745448E-01 -1.8625083008E-12
           xangst10    2.6065888685E+00  2.6972614230E+00  2.5597486903E+00
                       7.8197666054E+00  8.0699641655E+00  7.6792460708E+00
                       5.2131777370E+00  5.3041159979E+00  2.4413168945E+00
                       5.2131777369E+00  5.3041159980E+00  7.7976778666E+00
                       7.6096693233E+00  5.4239243664E+00  5.1194973805E+00
                       5.2131777370E+00  8.1699915729E+00  5.1194973806E+00
                       5.2131777369E+00  2.7147447051E+00  5.1194973805E+00
                       2.8166861506E+00  5.4239243665E+00  5.1194973806E+00
                      -3.9467591097E-13 -1.2642065469E-01 -1.8683671528E-12
            xcart1     4.9710632456E+00  5.1427445895E+00  4.8903722599E+00
                       1.4913189737E+01  1.5396832125E+01  1.4671116780E+01
                       9.9421264911E+00  1.0119833376E+01  4.6213557868E+00
                       9.9421264911E+00  1.0119833376E+01  1.4940133253E+01
                       1.4537181534E+01  1.0342453771E+01  9.7807445197E+00
                       9.9421264911E+00  1.5641303791E+01  9.7807445198E+00
                       9.9421264911E+00  5.1595880400E+00  9.7807445196E+00
                       5.3470714478E+00  1.0342453771E+01  9.7807445198E+00
                      -7.2577575205E-13 -2.3234255484E-01 -3.4323740121E-12
            xcart2     4.9670316034E+00  5.1375841999E+00  4.8847660874E+00
                       1.4901094810E+01  1.5381134078E+01  1.4654298262E+01
                       9.9340632068E+00  1.0109559686E+01  4.6207171522E+00
                       9.9340632067E+00  1.0109559686E+01  1.4918347197E+01
                       1.4523271978E+01  1.0332936967E+01  9.7695321747E+00
                       9.9340632068E+00  1.5620481094E+01  9.7695321748E+00
                       9.9340632067E+00  5.1569023064E+00  9.7695321747E+00
                       5.3448544353E+00  1.0332936968E+01  9.7695321748E+00
                      -7.2706730678E-13 -2.3269595941E-01 -3.4375798252E-12
            xcart3     4.9624098299E+00  5.1330071587E+00  4.8794729292E+00
                       1.4887229490E+01  1.5366580370E+01  1.4638418787E+01
                       9.9248196598E+00  1.0100268664E+01  4.6199334237E+00
                       9.9248196598E+00  1.0100268665E+01  1.4897958293E+01
                       1.4507152564E+01  1.0323603829E+01  9.7589458583E+00
                       9.9248196598E+00  1.5600560492E+01  9.7589458584E+00
                       9.9248196598E+00  5.1539990719E+00  9.7589458583E+00
                       5.3424867556E+00  1.0323603829E+01  9.7589458584E+00
                      -7.2869478498E-13 -2.3330638888E-01 -3.4469060161E-12
            xcart4     4.9576299570E+00  5.1286404280E+00  4.8742650226E+00
                       1.4872889871E+01  1.5352384314E+01  1.4622795068E+01
                       9.9152599140E+00  1.0090976180E+01  4.6191295608E+00
                       9.9152599140E+00  1.0090976181E+01  1.4877930530E+01
                       1.4490438079E+01  1.0314529625E+01  9.7485300452E+00
                       9.9152599140E+00  1.5580852277E+01  9.7485300454E+00
                       9.9152599140E+00  5.1510512521E+00  9.7485300452E+00
                       5.3400817489E+00  1.0314529626E+01  9.7485300454E+00
                      -7.3206723434E-13 -2.3398879794E-01 -3.4543878631E-12
            xcart5     4.9530830230E+00  5.1245059710E+00  4.8689372667E+00
                       1.4859249069E+01  1.5338191661E+01  1.4606811800E+01
                       9.9061660461E+00  1.0081338886E+01  4.6182935687E+00
                       9.9061660460E+00  1.0081338886E+01  1.4857455498E+01
                       1.4474584673E+01  1.0305197808E+01  9.7378745333E+00
                       9.9061660461E+00  1.5560473419E+01  9.7378745335E+00
                       9.9061660461E+00  5.1480945178E+00  9.7378745333E+00
                       5.3377474187E+00  1.0305197808E+01  9.7378745335E+00
                      -7.3372216941E-13 -2.3485343730E-01 -3.4696991385E-12
            xcart6     4.9433173108E+00  5.1149434233E+00  4.8588583408E+00
                       1.4829951932E+01  1.5308688807E+01  1.4576575022E+01
                       9.8866346217E+00  1.0062649759E+01  4.6168010250E+00
                       9.8866346216E+00  1.0062649759E+01  1.4818632338E+01
                       1.4440543827E+01  1.0287192500E+01  9.7177166815E+00
                       9.8866346217E+00  1.5520521577E+01  9.7177166817E+00
                       9.8866346216E+00  5.1422003406E+00  9.7177166815E+00
                       5.3327254164E+00  1.0287192500E+01  9.7177166817E+00
                      -7.3747288261E-13 -2.3607559524E-01 -3.4876968672E-12
            xcart7     4.9388468924E+00  5.1109695619E+00  4.8534320123E+00
                       1.4816540677E+01  1.5294706065E+01  1.4560296037E+01
                       9.8776937847E+00  1.0053089431E+01  4.6158452930E+00
                       9.8776937847E+00  1.0053089431E+01  1.4797882756E+01
                       1.4425095389E+01  1.0277890886E+01  9.7068640245E+00
                       9.8776937847E+00  1.5500233701E+01  9.7068640246E+00
                       9.8776937847E+00  5.1390951484E+00  9.7068640245E+00
                       5.3302921805E+00  1.0277890886E+01  9.7068640246E+00
                      -7.4042035673E-13 -2.3707308386E-01 -3.5027176048E-12
            xcart8     4.9342873700E+00  5.1065288447E+00  4.8481377543E+00
                       1.4802862110E+01  1.5280163270E+01  1.4544413263E+01
                       9.8685747400E+00  1.0043595341E+01  4.6150536065E+00
                       9.8685747400E+00  1.0043595341E+01  1.4777497411E+01
                       1.4409346119E+01  1.0268476407E+01  9.6962755086E+00
                       9.8685747400E+00  1.5479975689E+01  9.6962755088E+00
                       9.8685747400E+00  5.1360438280E+00  9.6962755086E+00
                       5.3278033613E+00  1.0268476408E+01  9.6962755088E+00
                      -7.4266911415E-13 -2.3777972683E-01 -3.5131362954E-12
            xcart9     4.9300708326E+00  5.1017836753E+00  4.8425801820E+00
                       1.4790212498E+01  1.5265161692E+01  1.4527740546E+01
                       9.8601416652E+00  1.0033303328E+01  4.6142688027E+00
                       9.8601416652E+00  1.0033303328E+01  1.4756051925E+01
                       1.4394987434E+01  1.0259327029E+01  9.6851603639E+00
                       9.8601416652E+00  1.5459854657E+01  9.6851603640E+00
                       9.8601416652E+00  5.1331774630E+00  9.6851603639E+00
                       5.3252958963E+00  1.0259327029E+01  9.6851603640E+00
                      -7.4409256705E-13 -2.3821406597E-01 -3.5196306087E-12
            xcart10    4.9257391024E+00  5.0970853982E+00  4.8372239936E+00
                       1.4777217307E+01  1.5250022175E+01  1.4511671981E+01
                       9.8514782049E+00  1.0023326613E+01  4.6134203342E+00
                       9.8514782049E+00  1.0023326613E+01  1.4735475640E+01
                       1.4380190983E+01  1.0249731618E+01  9.6744479872E+00
                       9.8514782049E+00  1.5439046581E+01  9.6744479873E+00
                       9.8514782049E+00  5.1301240134E+00  9.6744479872E+00
                       5.3227654269E+00  1.0249731618E+01  9.6744479873E+00
                      -7.4582938298E-13 -2.3890041491E-01 -3.5307022344E-12
             xred1     2.5076558844E-01  2.4923441156E-01  2.5076558844E-01
                       7.5076558844E-01  7.4923441156E-01  7.5076558844E-01
                       2.2970127571E-01  2.4279402130E-01  7.5720597870E-01
                       7.5720597870E-01  7.7029872429E-01  2.2970127571E-01
                       2.7321867782E-01  7.2678132218E-01  7.3539898175E-01
                       7.6268628176E-01  2.3731371824E-01  7.6268628176E-01
                       2.5158689265E-01  7.4841310735E-01  2.5158689265E-01
                       7.3539898175E-01  2.6460101825E-01  2.7321867782E-01
                      -1.1329265234E-02  1.1329265234E-02 -1.1329265234E-02
             xred2     2.5077166905E-01  2.4922833095E-01  2.5077166905E-01
                       7.5077166905E-01  7.4922833095E-01  7.5077166905E-01
                       2.2994587880E-01  2.4302632392E-01  7.5697367608E-01
                       7.5697367608E-01  7.7005412120E-01  2.2994587880E-01
                       2.7337962192E-01  7.2662037808E-01  7.3534656092E-01
                       7.6245448502E-01  2.3754551498E-01  7.6245448502E-01
                       2.5171460908E-01  7.4828539092E-01  2.5171460908E-01
                       7.3534656092E-01  2.6465343908E-01  2.7337962192E-01
                      -1.1358169881E-02  1.1358169881E-02 -1.1358169881E-02
             xred3     2.5079251659E-01  2.4920748341E-01  2.5079251659E-01
                       7.5079251659E-01  7.4920748341E-01  7.5079251659E-01
                       2.3018938377E-01  2.4321558136E-01  7.5678441864E-01
                       7.5678441864E-01  7.6981061623E-01  2.3018938377E-01
                       2.7354658710E-01  7.2645341290E-01  7.3525098691E-01
                       7.6222450213E-01  2.3777549787E-01  7.6222450213E-01
                       2.5181815606E-01  7.4818184394E-01  2.5181815606E-01
                       7.3525098691E-01  2.6474901309E-01  2.7354658710E-01
                      -1.1399067758E-02  1.1399067758E-02 -1.1399067758E-02
             xred4     2.5082007557E-01  2.4917992443E-01  2.5082007557E-01
                       7.5082007557E-01  7.4917992443E-01  7.5082007557E-01
                       2.3042105130E-01  2.4340726326E-01  7.5659273674E-01
                       7.5659273674E-01  7.6957894870E-01  2.3042105130E-01
                       2.7372596541E-01  7.2627403459E-01  7.3515392643E-01
                       7.6199347576E-01  2.3800652424E-01  7.6199347576E-01
                       2.5191609403E-01  7.4808390597E-01  2.5191609403E-01
                       7.3515392643E-01  2.6484607357E-01  2.7372596541E-01
                      -1.1443400801E-02  1.1443400801E-02 -1.1443400801E-02
             xred5     2.5086467934E-01  2.4913532066E-01  2.5086467934E-01
                       7.5086467934E-01  7.4913532066E-01  7.5086467934E-01
                       2.3065157654E-01  2.4360936745E-01  7.5639063255E-01
                       7.5639063255E-01  7.6934842346E-01  2.3065157654E-01
                       2.7389527951E-01  7.2610472049E-01  7.3506447515E-01
                       7.6174624379E-01  2.3825375621E-01  7.6174624379E-01
                       2.5201943129E-01  7.4798056871E-01  2.5201943129E-01
                       7.3506447515E-01  2.6493552485E-01  2.7389527951E-01
                      -1.1496997481E-02  1.1496997481E-02 -1.1496997481E-02
             xred6     2.5088636368E-01  2.4911363632E-01  2.5088636368E-01
                       7.5088636368E-01  7.4911363632E-01  7.5088636368E-01
                       2.3111536723E-01  2.4397576541E-01  7.5602423459E-01
                       7.5602423459E-01  7.6888463277E-01  2.3111536723E-01
                       2.7427721484E-01  7.2572278516E-01  7.3488988837E-01
                       7.6127669432E-01  2.3872330568E-01  7.6127669432E-01
                       2.5222330689E-01  7.4777669311E-01  2.5222330689E-01
                       7.3488988837E-01  2.6511011163E-01  2.7427721484E-01
                      -1.1579433582E-02  1.1579433582E-02 -1.1579433582E-02
             xred7     2.5093783407E-01  2.4906216593E-01  2.5093783407E-01
                       7.5093783407E-01  7.4906216593E-01  7.5093783407E-01
                       2.3134742603E-01  2.4417641785E-01  7.5582358215E-01
                       7.5582358215E-01  7.6865257397E-01  2.3134742603E-01
                       2.7443739116E-01  7.2556260884E-01  7.3480817237E-01
                       7.6102880785E-01  2.3897119215E-01  7.6102880785E-01
                       2.5231874110E-01  7.4768125890E-01  2.5231874110E-01
                       7.3480817237E-01  2.6519182763E-01  2.7443739116E-01
                      -1.1639788784E-02  1.1639788784E-02 -1.1639788784E-02
             xred8     2.5096876059E-01  2.4903123941E-01  2.5096876059E-01
                       7.5096876059E-01  7.4903123941E-01  7.5096876059E-01
                       2.3158975347E-01  2.4437172291E-01  7.5562827709E-01
                       7.5562827709E-01  7.6841024653E-01  2.3158975347E-01
                       2.7459899829E-01  7.2540100171E-01  7.3472333219E-01
                       7.6078887064E-01  2.3921112936E-01  7.6078887064E-01
                       2.5241932300E-01  7.4758067700E-01  2.5241932300E-01
                       7.3472333219E-01  2.6527666781E-01  2.7459899829E-01
                      -1.1686075835E-02  1.1686075835E-02 -1.1686075835E-02
             xred9     2.5098858209E-01  2.4901141791E-01  2.5098858209E-01
                       7.5098858209E-01  7.4901141791E-01  7.5098858209E-01
                       2.3181415446E-01  2.4461252609E-01  7.5538747391E-01
                       7.5538747391E-01  7.6818584554E-01  2.3181415446E-01
                       2.7476188175E-01  7.2523811825E-01  7.3467877979E-01
                       7.6056674423E-01  2.3943325577E-01  7.6056674423E-01
                       2.5253303845E-01  7.4746696155E-01  2.5253303845E-01
                       7.3467877979E-01  2.6532122021E-01  2.7476188175E-01
                      -1.1719236733E-02  1.1719236733E-02 -1.1719236733E-02
             xred10    2.5101532248E-01  2.4898467752E-01  2.5101532248E-01
                       7.5101532248E-01  7.4898467752E-01  7.5101532248E-01
                       2.3205036915E-01  2.4481614978E-01  7.5518385022E-01
                       7.5518385022E-01  7.6794963085E-01  2.3205036915E-01
                       2.7491743606E-01  7.2508256394E-01  7.3461624305E-01
                       7.6032417615E-01  2.3967582385E-01  7.6032417615E-01
                       2.5264236970E-01  7.4735763030E-01  2.5264236970E-01
                       7.3461624305E-01  2.6538375695E-01  2.7491743606E-01
                      -1.1765089263E-02  1.1765089263E-02 -1.1765089263E-02
            znucl       55.00000   53.00000   40.00000   17.00000

- Timing analysis has been suppressed with timopt=0

 Suggested references for the acknowledgment of ABINIT usage.

 Calculation completed.
.Delivered   0 WARNINGs and 209 COMMENTs to log file.