.Version 9.2.2 of ABINIT

 ABINIT is a project of the Universite Catholique de Louvain,
 Corning Inc. and other collaborators, see ~abinit/doc/developers/contributors.txt .
 acknowledgments of the ABINIT effort.

.Starting date : Mon 21 Nov 2022.
- ( at 21h07 )

- input  file    -> Cs2TiI6.in
- output file    -> Cs2TiI6.out
- root for input  files -> Cs2TiI6i
- root for output files -> Cs2TiI6o

- inpspheads : Reading pseudopotential header in XML form from
-   ../../../Psps_for_tests/ATOMICDATA/Cs.GGA_PBE-JTH.xml
- inpspheads : Reading pseudopotential header in XML form from
-   ../../../Psps_for_tests/ATOMICDATA/I.GGA_PBE-JTH.xml
- inpspheads : Reading pseudopotential header in XML form from
-   ../../../Psps_for_tests/ATOMICDATA/Hf.GGA_PBE-JTH.xml
- inpspheads : Reading pseudopotential header in XML form from
-   ../../../Psps_for_tests/ATOMICDATA/Cl.GGA_PBE-JTH.xml

 DATASET    1 : space group I4/m m m (#139); Bravais tI (body-center tetrag.)
     intxc =       0    ionmov =       2      iscf =      17    lmnmax =      18
     lnmax =       6     mgfft =      64  mpssoang =       3    mqgrid =    3822
     natom =       9  nloc_mem =       2    nspden =       1   nspinor =       1
    nsppol =       1      nsym =      16    n1xccc =       1    ntypat =       4
    occopt =       1   xclevel =       2
-    mband =          42        mffmem =           1         mkmem =           4
       mpw =        9648          nfft =      262144          nkpt =          20
Pmy_natom=         2
 PAW method is used; the additional fine FFT grid is defined by:
   mgfftf=        96    nfftf =    884736
  Rough estimation (10% accuracy) of disk space for files :

[...]

 DATASET   10 : space group I4/m m m (#139); Bravais tI (body-center tetrag.)
     intxc =       0    ionmov =       2      iscf =      17    lmnmax =      18
     lnmax =       6     mgfft =      60  mpssoang =       3    mqgrid =    3788
     natom =       9  nloc_mem =       2    nspden =       1   nspinor =       1
    nsppol =       1      nsym =      16    n1xccc =       1    ntypat =       4
    occopt =       1   xclevel =       2
-    mband =          42        mffmem =           1         mkmem =           4
       mpw =        9393          nfft =      216000          nkpt =          20
Pmy_natom=         2
 PAW method is used; the additional fine FFT grid is defined by:
   mgfftf=        96    nfftf =    884736
  Rough estimation (10% accuracy) of disk space for files :

------------- Echo of variables that govern the present computation ------------
-
- outvars: echo of selected default values
-   iomode0 =  0 , fftalg0 =112 , wfoptalg0 = 10
-
- outvars: echo of global parameters not present in the input file
-  max_nthreads =    0
-
 -outvars: echo values of preprocessed input variables --------
            acell1     1.4173004415E+01  1.4614749451E+01  1.4173004415E+01 Bohr
            acell2     1.4158817224E+01  1.4600120072E+01  1.4158817224E+01 Bohr
            acell3     1.4144630032E+01  1.4585490694E+01  1.4144630032E+01 Bohr
            acell4     1.4130442841E+01  1.4570861315E+01  1.4130442841E+01 Bohr
            acell5     1.4116255649E+01  1.4556231936E+01  1.4116255649E+01 Bohr
            acell6     1.4102068457E+01  1.4541602557E+01  1.4102068457E+01 Bohr
            acell7     1.4087881266E+01  1.4526973178E+01  1.4087881266E+01 Bohr
            acell8     1.4073694074E+01  1.4512343799E+01  1.4073694074E+01 Bohr
            acell9     1.4059506883E+01  1.4497714421E+01  1.4059506883E+01 Bohr
            acell10    1.4045319691E+01  1.4483085042E+01  1.4045319691E+01 Bohr
              amu      1.32905430E+02  1.26904470E+02  1.78490000E+02
                       3.54527000E+01
           diemac      1.20000000E+01
          dilatmx      1.15000000E+00
             ecut      1.60000000E+01 Hartree
           ecutsm      5.00000000E-01 Hartree
-          fftalg         112
          getxred1          0
          getxred2         -1
          getxred3         -1
          getxred4         -1
          getxred5         -1
          getxred6         -1
          getxred7         -1
          getxred8         -1
          getxred9         -1
          getxred10        -1
           ionmov           2
              ixc     -101130
           jdtset        1    2    3    4    5    6    7    8    9   10
              kpt      0.00000000E+00 -1.25000000E-01  0.00000000E+00
                       0.00000000E+00 -3.75000000E-01  0.00000000E+00
                       1.25000000E-01 -2.50000000E-01  0.00000000E+00
                       1.25000000E-01 -1.25000000E-01  1.25000000E-01
                       1.25000000E-01  5.00000000E-01  0.00000000E+00
                       2.50000000E-01 -3.75000000E-01  0.00000000E+00
                       1.25000000E-01 -3.75000000E-01  1.25000000E-01
                       2.50000000E-01 -2.50000000E-01  1.25000000E-01
                       2.50000000E-01 -1.25000000E-01  2.50000000E-01
                       1.25000000E-01  2.50000000E-01  0.00000000E+00
                       2.50000000E-01  3.75000000E-01  0.00000000E+00
                       3.75000000E-01  5.00000000E-01  0.00000000E+00
                       1.25000000E-01  3.75000000E-01  1.25000000E-01
                       2.50000000E-01  5.00000000E-01  1.25000000E-01
                       3.75000000E-01 -3.75000000E-01  1.25000000E-01
                       2.50000000E-01 -3.75000000E-01  2.50000000E-01
                       3.75000000E-01 -2.50000000E-01  2.50000000E-01
                       3.75000000E-01 -1.25000000E-01  3.75000000E-01
                       5.00000000E-01  2.50000000E-01  1.25000000E-01
                      -3.75000000E-01  3.75000000E-01  1.25000000E-01
         kptrlatt        4    4   -4     -4    4    4      4   -4    4
          kptrlen1     7.75953002E+01
          kptrlen2     7.75176273E+01
          kptrlen3     7.74399543E+01
          kptrlen4     7.73622813E+01
          kptrlen5     7.72846083E+01
          kptrlen6     7.72069354E+01
          kptrlen7     7.71292624E+01
          kptrlen8     7.70515894E+01
          kptrlen9     7.69739164E+01
          kptrlen10    7.68962435E+01
P           mkmem           4
            natom           9
            nband          42
           ndtset          10
            ngfft1         64      64      64
            ngfft2         64      64      64
            ngfft3         64      64      64
            ngfft4         64      64      64
            ngfft5         64      64      64
            ngfft6         64      64      64
            ngfft7         64      64      64
            ngfft8         64      64      64
            ngfft9         64      64      64
            ngfft10        60      60      60
          ngfftdg          96      96      96
             nkpt          20
            nstep          50
             nsym          16
            ntime        1000
           ntypat           4
              occ      2.000000  2.000000  2.000000  2.000000  2.000000  2.000000
                       2.000000  2.000000  2.000000  2.000000  2.000000  2.000000
                       2.000000  2.000000  2.000000  2.000000  2.000000  2.000000
                       2.000000  2.000000  2.000000  2.000000  2.000000  2.000000
                       2.000000  2.000000  2.000000  2.000000  2.000000  2.000000
                       2.000000  2.000000  2.000000  2.000000  2.000000  2.000000
                       0.000000  0.000000  0.000000  0.000000  0.000000  0.000000
          optcell           3
        optforces           1
        pawecutdg      4.00000000E+01 Hartree
            prtwf           0
            rprim      0.0000000000E+00  6.8435825206E-01  7.2914592698E-01
                       7.0710678119E-01  0.0000000000E+00  7.0710678119E-01
                       7.2914592698E-01  6.8435825206E-01  0.0000000000E+00
           shiftk     -5.00000000E-01  5.00000000E-01  5.00000000E-01
          spgroup         139
           symrel      1  0  0   0  1  0   0  0  1      -1  0  0   0 -1  0   0  0 -1
                       0  0 -1   0 -1  0  -1  0  0       0  0  1   0  1  0   1  0  0
                       0 -1  1   0 -1  0   1 -1  0       0  1 -1   0  1  0  -1  1  0
                      -1  1  0   0  1  0   0  1 -1       1 -1  0   0 -1  0   0 -1  1
                       0 -1  1  -1  0  1   0  0  1       0  1 -1   1  0 -1   0  0 -1
                       0  0 -1   1  0 -1   0  1 -1       0  0  1  -1  0  1   0 -1  1
                       1  0  0   1  0 -1   1 -1  0      -1  0  0  -1  0  1  -1  1  0
                      -1  1  0  -1  0  1  -1  0  0       1 -1  0   1  0 -1   1  0  0
           toldff      1.00000000E-08
           tolmxf      1.00000000E-05
            typat      1  1  2  4  4  2  4  4  3
           useylm           1
              wtk        0.03125    0.03125    0.06250    0.03125    0.06250    0.06250
                         0.03125    0.06250    0.03125    0.06250    0.06250    0.06250
                         0.03125    0.06250    0.06250    0.03125    0.06250    0.03125
                         0.06250    0.06250
           xangst1     2.7343084965E+00  2.5663540233E+00  2.7343084965E+00
                       8.2029254895E+00  7.6990620699E+00  8.2029254895E+00
                       5.4686169930E+00  7.4142639196E+00  5.4686169930E+00
                       5.4686169930E+00  5.1327080466E+00  2.4447794419E+00
                       5.4686169930E+00  5.1327080466E+00  8.4924545441E+00
                       5.4686169930E+00  2.8511521736E+00  5.4686169930E+00
                       8.4924545441E+00  5.1327080466E+00  5.4686169930E+00
                       2.4447794419E+00  5.1327080466E+00  5.4686169930E+00
                       3.3391164399E-20 -2.8824793026E-20  1.2959134786E-20
           xangst2     2.7315714510E+00  2.5637851004E+00  2.7315714510E+00
                       8.1947143529E+00  7.6913553011E+00  8.1947143529E+00
                       5.4631429020E+00  7.4068422340E+00  5.4631429020E+00
                       5.4631429020E+00  5.1275702007E+00  2.4423322152E+00
                       5.4631429019E+00  5.1275702007E+00  8.4839535886E+00
                       5.4631429019E+00  2.8482981674E+00  5.4631429019E+00
                       8.4839535886E+00  5.1275702007E+00  5.4631429019E+00
                       2.4423322152E+00  5.1275702007E+00  5.4631429020E+00
                       3.3357739810E-20 -2.8795939380E-20  1.2946162680E-20
           xangst3     2.7288344054E+00  2.5612161774E+00  2.7288344054E+00
                       8.1865032163E+00  7.6836485322E+00  8.1865032163E+00
                       5.4576688109E+00  7.3994205484E+00  5.4576688109E+00
                       5.4576688109E+00  5.1224323548E+00  2.4398849886E+00
                       5.4576688108E+00  5.1224323548E+00  8.4754526331E+00
                       5.4576688108E+00  2.8454441612E+00  5.4576688108E+00
                       8.4754526331E+00  5.1224323548E+00  5.4576688108E+00
                       2.4398849886E+00  5.1224323548E+00  5.4576688109E+00
[...]
                       3.1910218210E-20 -2.3127025516E-20  1.4924034009E-20
           xangst7     2.7203757098E+00  2.5462737579E+00  2.7203757098E+00
                       8.1611271295E+00  7.6388212737E+00  8.1611271295E+00
                       5.4407514197E+00  7.3383797804E+00  5.4407514197E+00
                       5.4407514197E+00  5.0925475158E+00  2.4453772673E+00
                       5.4407514197E+00  5.0925475158E+00  8.4361255721E+00
                       5.4407514197E+00  2.8467152512E+00  5.4407514197E+00
                       8.4361255721E+00  5.0925475158E+00  5.4407514197E+00
                       2.4453772673E+00  5.0925475158E+00  5.4407514197E+00
                       3.3221018284E-20 -2.8599255361E-20  1.2893100957E-20
           xangst8     2.7178371267E+00  2.5433333613E+00  2.7178371267E+00
                       8.1535113800E+00  7.6300000839E+00  8.1535113800E+00
                       5.4356742534E+00  7.3276529796E+00  5.4356742534E+00
                       5.4356742534E+00  5.0866667226E+00  2.4451430932E+00
                       5.4356742533E+00  5.0866667226E+00  8.4262054134E+00
                       5.4356742533E+00  2.8456804656E+00  5.4356742533E+00
                       8.4262054134E+00  5.0866667226E+00  5.4356742533E+00
                       2.4451430932E+00  5.0866667226E+00  5.4356742534E+00
                       3.3495213688E-20 -2.8727901889E-20  1.3130362027E-20
           xangst9     2.7154236156E+00  2.5401590332E+00  2.7154236156E+00
                       8.1462708468E+00  7.6204770997E+00  8.1462708468E+00
                       5.4308472312E+00  7.3160870306E+00  5.4308472312E+00
                       5.4308472312E+00  5.0803180664E+00  2.4448780407E+00
                       5.4308472312E+00  5.0803180664E+00  8.4168164217E+00
                       5.4308472312E+00  2.8445491023E+00  5.4308472312E+00
                       8.4168164217E+00  5.0803180664E+00  5.4308472312E+00
                       2.4448780407E+00  5.0803180664E+00  5.4308472312E+00
                       2.9419238168E-20 -3.0325550149E-20  1.6985355943E-20
           xangst10    2.7129250342E+00  2.5371440347E+00  2.7129250342E+00
                       8.1387751026E+00  7.6114321041E+00  8.1387751026E+00
                       5.4258500684E+00  7.3051213313E+00  5.4258500684E+00
                       5.4258500684E+00  5.0742880694E+00  2.4446168349E+00
                       5.4258500684E+00  5.0742880694E+00  8.4070833019E+00
                       5.4258500684E+00  2.8434548075E+00  5.4258500684E+00
                       8.4070833019E+00  5.0742880694E+00  5.4258500684E+00
                       2.4446168349E+00  5.0742880694E+00  5.4258500684E+00
                       3.3130031207E-20 -2.8496712073E-20  1.2857788808E-20
            xcart1     5.1671868485E+00  4.8495323935E+00  5.1671868485E+00
                       1.5501560545E+01  1.4548597180E+01  1.5501560545E+01
                       1.0334373697E+01  1.4006750109E+01  1.0334373697E+01
                       1.0334373697E+01  9.6990647869E+00  4.6242300663E+00
                       1.0334373697E+01  9.6990647869E+00  1.6044517328E+01
                       1.0334373697E+01  5.3913794651E+00  1.0334373697E+01
                       1.6044517328E+01  9.6990647869E+00  1.0334373697E+01
                       4.6242300663E+00  9.6990647869E+00  1.0334373697E+01
                       6.4294348414E-20 -5.5481806829E-20  2.4285473683E-20
            xcart2     5.1633549925E+00  4.8421627957E+00  5.1633549925E+00
                       1.5490064978E+01  1.4526488387E+01  1.5490064978E+01
                       1.0326709985E+01  1.3979235443E+01  1.0326709985E+01
                       1.0326709985E+01  9.6843255913E+00  4.6236998811E+00
                       1.0326709985E+01  9.6843255913E+00  1.6029720089E+01
                       1.0326709985E+01  5.3894157401E+00  1.0326709985E+01
                       1.6029720089E+01  9.6843255913E+00  1.0326709985E+01
                       4.6236998811E+00  9.6843255913E+00  1.0326709985E+01
                       6.2432408534E-20 -5.4759930249E-20  2.4778902267E-20
            xcart3     5.1590243447E+00  4.8357300938E+00  5.1590243447E+00
                       1.5477073034E+01  1.4507190282E+01  1.5477073034E+01
                       1.0318048689E+01  1.3955476970E+01  1.0318048689E+01
                       1.0318048689E+01  9.6714601877E+00  4.6231985709E+00
                       1.0318048689E+01  9.6714601877E+00  1.6012898808E+01
                       1.0318048689E+01  5.3874434053E+00  1.0318048689E+01
                       1.6012898808E+01  9.6714601877E+00  1.0318048689E+01
                       4.6231985709E+00  9.6714601877E+00  1.0318048689E+01
                       6.6611699528E-20 -5.3976255847E-20  2.2192901634E-20
            xcart4     5.1546414465E+00  4.8293960739E+00  5.1546414465E+00
                       1.5463924340E+01  1.4488188222E+01  1.5463924340E+01
                       1.0309282893E+01  1.3932032062E+01  1.0309282893E+01
                       1.0309282893E+01  9.6587921478E+00  4.6226082861E+00
                       1.0309282893E+01  9.6587921478E+00  1.5995957500E+01
                       1.0309282893E+01  5.3855522332E+00  1.0309282893E+01
                       1.5995957500E+01  9.6587921478E+00  1.0309282893E+01
                       4.6226082861E+00  9.6587921478E+00  1.0309282893E+01
                       6.5313317596E-20 -4.9209292443E-20  2.5771224033E-20
            xcart5     5.1498753208E+00  4.8237805810E+00  5.1498753208E+00
                       1.5449625962E+01  1.4471341743E+01  1.5449625962E+01
                       1.0299750642E+01  1.3911579499E+01  1.0299750642E+01
                       1.0299750642E+01  9.6475611621E+00  4.6220926445E+00
                       1.0299750642E+01  9.6475611621E+00  1.5977408639E+01
                       1.0299750642E+01  5.3835428249E+00  1.0299750642E+01
                       1.5977408639E+01  9.6475611621E+00  1.0299750642E+01
                       4.6220926445E+00  9.6475611621E+00  1.0299750642E+01
                       6.3270693414E-20 -5.3679358971E-20  2.3247532615E-20
            xcart6     5.1451322285E+00  4.8181221321E+00  5.1451322285E+00
                       1.5435396685E+01  1.4454366396E+01  1.5435396685E+01
                       1.0290264457E+01  1.3890945089E+01  1.0290264457E+01
                       1.0290264457E+01  9.6362442642E+00  4.6216598380E+00
                       1.0290264457E+01  9.6362442642E+00  1.5958869076E+01
                       1.0290264457E+01  5.3815434391E+00  1.0290264457E+01
                       1.5958869076E+01  9.6362442642E+00  1.0290264457E+01
                       4.6216598380E+00  9.6362442642E+00  1.0290264457E+01
                       6.0301573257E-20 -4.3703744494E-20  2.8202337075E-20
            xcart7     5.1407650702E+00  4.8117600618E+00  5.1407650702E+00
                       1.5422295210E+01  1.4435280185E+01  1.5422295210E+01
                       1.0281530140E+01  1.3867528044E+01  1.0281530140E+01
                       1.0281530140E+01  9.6235201236E+00  4.6210933268E+00
                       1.0281530140E+01  9.6235201236E+00  1.5941966954E+01
                       1.0281530140E+01  5.3795122032E+00  1.0281530140E+01
                       1.5941966954E+01  9.6235201236E+00  1.0281530140E+01
                       4.6210933268E+00  9.6235201236E+00  1.0281530140E+01
                       6.2778626412E-20 -5.4044760237E-20  2.4364429813E-20
            xcart8     5.1359678432E+00  4.8062035175E+00  5.1359678432E+00
                       1.5407903530E+01  1.4418610552E+01  1.5407903530E+01
                       1.0271935686E+01  1.3847257328E+01  1.0271935686E+01
                       1.0271935686E+01  9.6124070350E+00  4.6206508019E+00
                       1.0271935686E+01  9.6124070350E+00  1.5923220571E+01
                       1.0271935686E+01  5.3775567417E+00  1.0271935686E+01
                       1.5923220571E+01  9.6124070350E+00  1.0271935686E+01
                       4.6206508019E+00  9.6124070350E+00  1.0271935686E+01
                       6.3296780633E-20 -5.4287866943E-20  2.4812788258E-20
            xcart9     5.1314069683E+00  4.8002049068E+00  5.1314069683E+00
                       1.5394220905E+01  1.4400614720E+01  1.5394220905E+01
                       1.0262813937E+01  1.3825400852E+01  1.0262813937E+01
                       1.0262813937E+01  9.6004098135E+00  4.6201499251E+00
                       1.0262813936E+01  9.6004098135E+00  1.5905477948E+01
                       1.0262813936E+01  5.3754187749E+00  1.0262813936E+01
                       1.5905477948E+01  9.6004098135E+00  1.0262813936E+01
                       4.6201499251E+00  9.6004098135E+00  1.0262813937E+01
                       5.5594303175E-20 -5.7306984610E-20  3.2097671001E-20
            xcart10    5.1266853337E+00  4.7945073853E+00  5.1266853337E+00
                       1.5380056001E+01  1.4383522156E+01  1.5380056001E+01
                       1.0253370667E+01  1.3804678684E+01  1.0253370667E+01
                       1.0253370667E+01  9.5890147706E+00  4.6196563178E+00
                       1.0253370667E+01  9.5890147706E+00  1.5887085017E+01
                       1.0253370667E+01  5.3733508574E+00  1.0253370667E+01
                       1.5887085017E+01  9.5890147706E+00  1.0253370667E+01
                       4.6196563178E+00  9.5890147706E+00  1.0253370667E+01
                       6.2606685756E-20 -5.3850981505E-20  2.4297699521E-20
             xred1     2.5000000000E-01  2.5000000000E-01  2.5000000000E-01
                       7.5000000000E-01  7.5000000000E-01  7.5000000000E-01
                       7.2206704546E-01  2.7793295454E-01  7.2206704546E-01
                       2.2373054245E-01  2.2373054245E-01  7.7626945755E-01
                       7.7626945755E-01  7.7626945755E-01  2.2373054245E-01
                       2.7793295454E-01  7.2206704546E-01  2.7793295454E-01
                       2.2373054245E-01  7.7626945755E-01  7.7626945755E-01
                       7.7626945755E-01  2.2373054245E-01  2.2373054245E-01
                      -4.7958811135E-21  7.1458516483E-21 -9.2444430427E-22
             xred2     2.5000000000E-01  2.5000000000E-01  2.5000000000E-01
                       7.5000000000E-01  7.5000000000E-01  7.5000000000E-01
                       7.2174542826E-01  2.7825457174E-01  7.2174542826E-01
                       2.2387090796E-01  2.2387090796E-01  7.7612909204E-01
                       7.7612909204E-01  7.7612909204E-01  2.2387090796E-01
                       2.7825457174E-01  7.2174542826E-01  2.7825457174E-01
                       2.2387090796E-01  7.7612909204E-01  7.7612909204E-01
                       7.7612909204E-01  2.2387090796E-01  2.2387090796E-01
                      -4.6503578254E-21  7.0498541126E-21 -1.0041330044E-21
             xred3     2.5000000000E-01  2.5000000000E-01  2.5000000000E-01
                       7.5000000000E-01  7.5000000000E-01  7.5000000000E-01
                       7.2147724849E-01  2.7852275151E-01  7.2147724849E-01
                       2.2403453938E-01  2.2403453938E-01  7.7596546062E-01
                       7.7596546062E-01  7.7596546062E-01  2.2403453938E-01
                       2.7852275151E-01  7.2147724849E-01  2.7852275151E-01
                       2.2403453938E-01  7.7596546062E-01  7.7596546062E-01
                       7.7596546062E-01  2.2403453938E-01  2.2403453938E-01
                      -4.9429720827E-21  7.0938537372E-21 -6.3801101597E-22
             xred4     2.5000000000E-01  2.5000000000E-01  2.5000000000E-01
                       7.5000000000E-01  7.5000000000E-01  7.5000000000E-01
                       7.2120984949E-01  2.7879015051E-01  7.2120984949E-01
                       2.2419640309E-01  2.2419640309E-01  7.7580359691E-01
                       7.7580359691E-01  7.7580359691E-01  2.2419640309E-01
                       2.7879015051E-01  7.2120984949E-01  2.7879015051E-01
                       2.2419640309E-01  7.7580359691E-01  7.7580359691E-01
                       7.7580359691E-01  2.2419640309E-01  2.2419640309E-01
                      -4.4651740348E-21  6.9649816647E-21 -6.2959264931E-22
             xred5     2.5000000000E-01  2.5000000000E-01  2.5000000000E-01
                       7.5000000000E-01  7.5000000000E-01  7.5000000000E-01
                       7.2098944311E-01  2.7901055689E-01  7.2098944311E-01
                       2.2437886145E-01  2.2437886145E-01  7.7562113855E-01
                       7.7562113855E-01  7.7562113855E-01  2.2437886145E-01
                       2.7901055689E-01  7.2098944311E-01  2.7901055689E-01
                       2.2437886145E-01  7.7562113855E-01  7.7562113855E-01
                       7.7562113855E-01  2.2437886145E-01  2.2437886145E-01
                      -4.7249359542E-21  6.9820325991E-21 -8.3909811298E-22
             xred6     2.5000000000E-01  2.5000000000E-01  2.5000000000E-01
                       7.5000000000E-01  7.5000000000E-01  7.5000000000E-01
                       7.2076551343E-01  2.7923448657E-01  7.2076551343E-01
                       2.2456467748E-01  2.2456467748E-01  7.7543532252E-01
                       7.7543532252E-01  7.7543532252E-01  2.2456467748E-01
                       2.7923448657E-01  7.2076551343E-01  2.7923448657E-01
                       2.2456467748E-01  7.7543532252E-01  7.7543532252E-01
                       7.7543532252E-01  2.2456467748E-01  2.2456467748E-01
                      -3.8273647758E-21  6.5680462417E-21 -7.0798564654E-22
             xred7     2.5000000000E-01  2.5000000000E-01  2.5000000000E-01
                       7.5000000000E-01  7.5000000000E-01  7.5000000000E-01
                       7.2050184683E-01  2.7949815317E-01  7.2050184683E-01
                       2.2472789866E-01  2.2472789866E-01  7.7527210134E-01
                       7.7527210134E-01  7.7527210134E-01  2.2472789866E-01
                       2.7949815317E-01  7.2050184683E-01  2.7949815317E-01
                       2.2472789866E-01  7.7527210134E-01  7.7527210134E-01
                       7.7527210134E-01  2.2472789866E-01  2.2472789866E-01
                      -4.6760684583E-21  7.0457964542E-21 -9.3983503057E-22
             xred8     2.5000000000E-01  2.5000000000E-01  2.5000000000E-01
                       7.5000000000E-01  7.5000000000E-01  7.5000000000E-01
                       7.2028042913E-01  2.7971957087E-01  7.2028042913E-01
                       2.2491626423E-01  2.2491626423E-01  7.7508373577E-01
                       7.7508373577E-01  7.7508373577E-01  2.2491626423E-01
                       2.7971957087E-01  7.2028042913E-01  2.7971957087E-01
                       2.2491626423E-01  7.7508373577E-01  7.7508373577E-01
                       7.7508373577E-01  2.2491626423E-01  2.2491626423E-01
                      -4.6971025570E-21  7.1126928622E-21 -9.5058451509E-22
             xred9     2.5000000000E-01  2.5000000000E-01  2.5000000000E-01
                       7.5000000000E-01  7.5000000000E-01  7.5000000000E-01
                       7.2004222323E-01  2.7995777677E-01  7.2004222323E-01
                       2.2509177082E-01  2.2509177082E-01  7.7490822918E-01
                       7.7490822918E-01  7.7490822918E-01  2.2509177082E-01
                       2.7995777677E-01  7.2004222323E-01  2.7995777677E-01
                       2.2509177082E-01  7.7490822918E-01  7.7490822918E-01
                       7.7490822918E-01  2.2509177082E-01  2.2509177082E-01
                      -4.1293574581E-21  7.2569276549E-21 -1.8398652858E-21
             xred10    2.5000000000E-01  2.5000000000E-01  2.5000000000E-01
                       7.5000000000E-01  7.5000000000E-01  7.5000000000E-01
                       7.1981736466E-01  2.8018263534E-01  7.1981736466E-01
                       2.2527500798E-01  2.2527500798E-01  7.7472499202E-01
                       7.7472499202E-01  7.7472499202E-01  2.2527500798E-01
                       2.8018263534E-01  7.1981736466E-01  2.8018263534E-01
                       2.2527500798E-01  7.7472499202E-01  7.7472499202E-01
                       7.7472499202E-01  2.2527500798E-01  2.2527500798E-01
                      -4.6760684583E-21  7.0457964542E-21 -9.3983503057E-22
            znucl       55.00000   53.00000   72.00000   17.00000

- Timing analysis has been suppressed with timopt=0

 Suggested references for the acknowledgment of ABINIT usage.

 Calculation completed.
.Delivered   0 WARNINGs and 125 COMMENTs to log file.