.Version 9.2.2 of ABINIT

 ABINIT is a project of the Universite Catholique de Louvain,
 Corning Inc. and other collaborators, see ~abinit/doc/developers/contributors.txt .
 acknowledgments of the ABINIT effort.

.Starting date : Sat 12 Nov 2022.
- ( at 14h41 )

- input  file    -> Cs2TiI6.in
- output file    -> Cs2TiI6.out
- root for input  files -> Cs2TiI6i
- root for output files -> Cs2TiI6o

- inpspheads : Reading pseudopotential header in XML form from
-   ../../../Psps_for_tests/ATOMICDATA/Cs.GGA_PBE-JTH.xml
- inpspheads : Reading pseudopotential header in XML form from
-   ../../../Psps_for_tests/ATOMICDATA/I.GGA_PBE-JTH.xml
- inpspheads : Reading pseudopotential header in XML form from
-   ../../../Psps_for_tests/ATOMICDATA/Hf.GGA_PBE-JTH.xml
- inpspheads : Reading pseudopotential header in XML form from
-   ../../../Psps_for_tests/ATOMICDATA/Br.GGA_PBE-JTH.xml

 DATASET    1 : space group I4/m m m (#139); Bravais tI (body-center tetrag.)
     intxc =       0    ionmov =       0      iscf =      17    lmnmax =      18
     lnmax =       6     mgfft =      64  mpssoang =       3    mqgrid =    3950
     natom =       9  nloc_mem =       2    nspden =       1   nspinor =       1
    nsppol =       1      nsym =      16    n1xccc =       1    ntypat =       4
    occopt =       1   xclevel =       2
-    mband =          42        mffmem =           1         mkmem =          28
       mpw =       10665          nfft =      262144          nkpt =         163
Pmy_natom=         2
 PAW method is used; the additional fine FFT grid is defined by:
   mgfftf=       100    nfftf =   1000000
  Rough estimation (10% accuracy) of disk space for files :

[...]

 DATASET   10 : space group I4/m m m (#139); Bravais tI (body-center tetrag.)
     intxc =       0    ionmov =       0      iscf =      17    lmnmax =      18
     lnmax =       6     mgfft =      64  mpssoang =       3    mqgrid =    3915
     natom =       9  nloc_mem =       2    nspden =       1   nspinor =       1
    nsppol =       1      nsym =      16    n1xccc =       1    ntypat =       4
    occopt =       1   xclevel =       2
-    mband =          42        mffmem =           1         mkmem =          28
       mpw =       10344          nfft =      262144          nkpt =         163
Pmy_natom=         2
 PAW method is used; the additional fine FFT grid is defined by:
   mgfftf=       100    nfftf =   1000000
  Rough estimation (10% accuracy) of disk space for files :

------------- Echo of variables that govern the present computation ------------
-
- outvars: echo of selected default values
-   iomode0 =  0 , fftalg0 =112 , wfoptalg0 = 10
-
- outvars: echo of global parameters not present in the input file
-  max_nthreads =    0
-
 -outvars: echo values of preprocessed input variables --------
            acell1     1.4756618719E+01  1.4812937672E+01  1.4756618719E+01 Bohr
            acell2     1.4741856642E+01  1.4798090771E+01  1.4741856642E+01 Bohr
            acell3     1.4727081556E+01  1.4783270600E+01  1.4727081556E+01 Bohr
            acell4     1.4712310297E+01  1.4768442564E+01  1.4712310297E+01 Bohr
            acell5     1.4697556462E+01  1.4753578728E+01  1.4697556462E+01 Bohr
            acell6     1.4683696042E+01  1.4736880459E+01  1.4683696042E+01 Bohr
            acell7     1.4668331535E+01  1.4723270259E+01  1.4668331535E+01 Bohr
            acell8     1.4653392237E+01  1.4708787374E+01  1.4653392237E+01 Bohr
            acell9     1.4640269382E+01  1.4690577282E+01  1.4640269382E+01 Bohr
            acell10    1.4625730509E+01  1.4675273133E+01  1.4625730509E+01 Bohr
              amu      1.32905430E+02  1.26904470E+02  1.78490000E+02
                       7.99040000E+01
           diemac      1.20000000E+01
          dilatmx      1.15000000E+00
             ecut      1.60000000E+01 Hartree
           ecutsm      5.00000000E-01 Hartree
-          fftalg         112
           istwfk        2    0    0    0    0    0    3    0    0    0
                         0    0    0    0    0    0    0    0    0    0
                         0    0    0    0    0    0    0    0    0    0
                         0    0    0    0    0    0    0    0    0    0
                         0    0    7    0    0    0    0    0    0    0
                       outvar_i_n : Printing only first  50 k-points.
              ixc     -101130
           jdtset        1    2    3    4    5    6    7    8    9   10
              kpt      0.00000000E+00  0.00000000E+00  0.00000000E+00
                       8.33333333E-02  0.00000000E+00  0.00000000E+00
                       1.66666667E-01  0.00000000E+00  0.00000000E+00
                       2.50000000E-01  0.00000000E+00  0.00000000E+00
                       3.33333333E-01  0.00000000E+00  0.00000000E+00
                       4.16666667E-01  0.00000000E+00  0.00000000E+00
                       5.00000000E-01  0.00000000E+00  0.00000000E+00
                       8.33333333E-02  8.33333333E-02  0.00000000E+00
                       1.66666667E-01  8.33333333E-02  0.00000000E+00
                       2.50000000E-01  8.33333333E-02  0.00000000E+00
                       3.33333333E-01  8.33333333E-02  0.00000000E+00
                       4.16666667E-01  8.33333333E-02  0.00000000E+00
                       5.00000000E-01  8.33333333E-02  0.00000000E+00
                      -4.16666667E-01  8.33333333E-02  0.00000000E+00
                      -3.33333333E-01  8.33333333E-02  0.00000000E+00
                      -2.50000000E-01  8.33333333E-02  0.00000000E+00
                      -1.66666667E-01  8.33333333E-02  0.00000000E+00
                      -8.33333333E-02  8.33333333E-02  0.00000000E+00
                       1.66666667E-01  1.66666667E-01  0.00000000E+00
                       2.50000000E-01  1.66666667E-01  0.00000000E+00
                       3.33333333E-01  1.66666667E-01  0.00000000E+00
                       4.16666667E-01  1.66666667E-01  0.00000000E+00
                       5.00000000E-01  1.66666667E-01  0.00000000E+00
                      -4.16666667E-01  1.66666667E-01  0.00000000E+00
                      -3.33333333E-01  1.66666667E-01  0.00000000E+00
                      -2.50000000E-01  1.66666667E-01  0.00000000E+00
                      -1.66666667E-01  1.66666667E-01  0.00000000E+00
                       2.50000000E-01  2.50000000E-01  0.00000000E+00
                       3.33333333E-01  2.50000000E-01  0.00000000E+00
                       4.16666667E-01  2.50000000E-01  0.00000000E+00
                       5.00000000E-01  2.50000000E-01  0.00000000E+00
                      -4.16666667E-01  2.50000000E-01  0.00000000E+00
                      -3.33333333E-01  2.50000000E-01  0.00000000E+00
                      -2.50000000E-01  2.50000000E-01  0.00000000E+00
                       3.33333333E-01  3.33333333E-01  0.00000000E+00
                       4.16666667E-01  3.33333333E-01  0.00000000E+00
                       5.00000000E-01  3.33333333E-01  0.00000000E+00
                      -4.16666667E-01  3.33333333E-01  0.00000000E+00
                      -3.33333333E-01  3.33333333E-01  0.00000000E+00
                       4.16666667E-01  4.16666667E-01  0.00000000E+00
                       5.00000000E-01  4.16666667E-01  0.00000000E+00
                      -4.16666667E-01  4.16666667E-01  0.00000000E+00
                       5.00000000E-01  5.00000000E-01  0.00000000E+00
                       8.33333333E-02  0.00000000E+00  8.33333333E-02
                       1.66666667E-01  0.00000000E+00  8.33333333E-02
                       2.50000000E-01  0.00000000E+00  8.33333333E-02
                       3.33333333E-01  0.00000000E+00  8.33333333E-02
                       4.16666667E-01  0.00000000E+00  8.33333333E-02
                       5.00000000E-01  0.00000000E+00  8.33333333E-02
                      -4.16666667E-01  0.00000000E+00  8.33333333E-02
                       outvar_i_n : Printing only first  50 k-points.
         kptrlatt       12    0    0      0   12    0      0    0   12
          kptrlen1     1.77079425E+02
          kptrlen2     1.76902280E+02
          kptrlen3     1.76724979E+02
          kptrlen4     1.76547724E+02
          kptrlen5     1.76370678E+02
          kptrlen6     1.76204352E+02
          kptrlen7     1.76019978E+02
          kptrlen8     1.75840707E+02
          kptrlen9     1.75683233E+02
          kptrlen10    1.75508766E+02
P           mkmem          28
            natom           9
            nband          42
           ndtset          10
            ngfft          64      64      64
          ngfftdg         100     100     100
             nkpt         163
            nstep        2500
             nsym          16
           ntypat           4
              occ      2.000000  2.000000  2.000000  2.000000  2.000000  2.000000
                       2.000000  2.000000  2.000000  2.000000  2.000000  2.000000
                       2.000000  2.000000  2.000000  2.000000  2.000000  2.000000
                       2.000000  2.000000  2.000000  2.000000  2.000000  2.000000
                       2.000000  2.000000  2.000000  2.000000  2.000000  2.000000
                       2.000000  2.000000  2.000000  2.000000  2.000000  2.000000
                       0.000000  0.000000  0.000000  0.000000  0.000000  0.000000
        pawecutdg      4.00000000E+01 Hartree
            prtwf           0
            rprim1     0.0000000000E+00  7.0439775377E-01  7.0980546947E-01
                       7.0710678119E-01  0.0000000000E+00  7.0710678119E-01
                       7.0980546947E-01  7.0439775377E-01  0.0000000000E+00
            rprim2     0.0000000000E+00  7.0439913049E-01  7.0980410323E-01
                       7.0710678119E-01  0.0000000000E+00  7.0710678119E-01
                       7.0980410323E-01  7.0439913049E-01  0.0000000000E+00
            rprim3     0.0000000000E+00  7.0439858495E-01  7.0980464461E-01
                       7.0710678119E-01  0.0000000000E+00  7.0710678119E-01
                       7.0980464461E-01  7.0439858495E-01  0.0000000000E+00
            rprim4     0.0000000000E+00  7.0439860530E-01  7.0980462442E-01
                       7.0710678119E-01  0.0000000000E+00  7.0710678119E-01
                       7.0980462442E-01  7.0439860530E-01  0.0000000000E+00
            rprim5     0.0000000000E+00  7.0440120917E-01  7.0980204037E-01
                       7.0710678119E-01  0.0000000000E+00  7.0710678119E-01
                       7.0980204037E-01  7.0440120917E-01  0.0000000000E+00
            rprim6     0.0000000000E+00  7.0453632675E-01  7.0966792536E-01
                       7.0710678119E-01  0.0000000000E+00  7.0710678119E-01
                       7.0966792536E-01  7.0453632675E-01  0.0000000000E+00
            rprim7     0.0000000000E+00  7.0444842893E-01  7.0975517679E-01
                       7.0710678119E-01  0.0000000000E+00  7.0710678119E-01
                       7.0975517679E-01  7.0444842893E-01  0.0000000000E+00
            rprim8     0.0000000000E+00  7.0442351728E-01  7.0977990131E-01
[...]
                       3.2103443116E-21 -3.8700957232E-23  4.6607368391E-22
           xangst7     2.7546119145E+00  2.7340160368E+00  2.7546119145E+00
                       8.2638357435E+00  8.2020481103E+00  8.2638357435E+00
                       5.5092238291E+00  8.0837704821E+00  5.5092238291E+00
                       5.5092238291E+00  5.4680320736E+00  2.6072135631E+00
                       5.5092238290E+00  5.4680320736E+00  8.4112340949E+00
                       5.5092238290E+00  2.8522936650E+00  5.5092238290E+00
                       8.4112340949E+00  5.4680320736E+00  5.5092238290E+00
                       2.6072135631E+00  5.4680320736E+00  5.5092238291E+00
                       3.2073794081E-21 -3.8655638629E-23  4.6564324303E-22
           xangst8     2.7519022769E+00  2.7311349301E+00  2.7519022769E+00
                       8.2557068306E+00  8.1934047903E+00  8.2557068306E+00
                       5.5038045538E+00  8.0731476728E+00  5.5038045538E+00
                       5.5038045538E+00  5.4622698602E+00  2.6068209457E+00
                       5.5038045537E+00  5.4622698602E+00  8.4007881619E+00
                       5.5038045537E+00  2.8513920476E+00  5.5038045537E+00
                       8.4007881619E+00  5.4622698602E+00  5.5038045537E+00
                       2.6068209457E+00  5.4622698602E+00  5.5038045538E+00
                       2.2150293484E-21 -3.8915435666E-21  1.6631454988E-21
           xangst9     2.7484953072E+00  2.7296384010E+00  2.7484953072E+00
                       8.2454859215E+00  8.1889152029E+00  8.2454859215E+00
                       5.4969906145E+00  8.0679429089E+00  5.4969906145E+00
                       5.4969906145E+00  5.4592768019E+00  2.6063853845E+00
                       5.4969906142E+00  5.4592768019E+00  8.3875958442E+00
                       5.4969906142E+00  2.8506106950E+00  5.4969906142E+00
                       8.3875958442E+00  5.4592768019E+00  5.4969906142E+00
                       2.6063853845E+00  5.4592768019E+00  5.4969906145E+00
                       3.2002574319E-21 -3.8593744220E-23  4.6460928355E-22
           xangst10    2.7456320172E+00  2.7270624160E+00  2.7456320172E+00
                       8.2368960516E+00  8.1811872480E+00  8.2368960516E+00
                       5.4912640345E+00  8.0585981956E+00  5.4912640345E+00
                       5.4912640345E+00  5.4541248320E+00  2.6059816875E+00
                       5.4912640343E+00  5.4541248320E+00  8.3765463814E+00
                       5.4912640344E+00  2.8496514684E+00  5.4912640344E+00
                       8.3765463814E+00  5.4541248320E+00  5.4912640343E+00
                       2.6059816875E+00  5.4541248320E+00  5.4912640345E+00
                       3.1969235113E-21 -3.8557322947E-23  4.6412526930E-22
            xcart1     5.2371643387E+00  5.1972645395E+00  5.2371643387E+00
                       1.5711493016E+01  1.5591793618E+01  1.5711493016E+01
                       1.0474328678E+01  1.5388995562E+01  1.0474328678E+01
                       1.0474328678E+01  1.0394529079E+01  4.9309643954E+00
                       1.0474328677E+01  1.0394529079E+01  1.6017692959E+01
                       1.0474328677E+01  5.4000625961E+00  1.0474328677E+01
                       1.6017692959E+01  1.0394529079E+01  1.0474328677E+01
                       4.9309643954E+00  1.0394529079E+01  1.0474328678E+01
                       6.0979817041E-21 -7.3482955914E-23  8.8529718982E-22
            xcart2     5.2319151666E+00  5.1920755002E+00  5.2319151666E+00
                       1.5695745500E+01  1.5576226501E+01  1.5695745500E+01
                       1.0463830333E+01  1.5369872812E+01  1.0463830333E+01
                       1.0463830334E+01  1.0384151000E+01  4.9303544796E+00
                       1.0463830333E+01  1.0384151000E+01  1.5997306187E+01
                       1.0463830333E+01  5.3984291890E+00  1.0463830333E+01
                       1.5997306187E+01  1.0384151000E+01  1.0463830333E+01
                       4.9303544796E+00  1.0384151000E+01  1.0463830334E+01
                       6.0918697410E-21 -7.3409589254E-23  8.8440986269E-22
            xcart3     5.2266754449E+00  5.1868677042E+00  5.2266754449E+00
                       1.5680026335E+01  1.5560603113E+01  1.5680026335E+01
                       1.0453350890E+01  1.5350712964E+01  1.0453350890E+01
                       1.0453350890E+01  1.0373735408E+01  4.9296613621E+00
                       1.0453350890E+01  1.0373735408E+01  1.5977040417E+01
                       1.0453350890E+01  5.3967578529E+00  1.0453350890E+01
                       1.5977040417E+01  1.0373735408E+01  1.0453350890E+01
                       4.9296613621E+00  1.0373735408E+01  1.0453350890E+01
                       6.0857687815E-21 -7.3335957396E-23  8.8352413328E-22
            xcart4     5.2214329423E+00  5.1816654270E+00  5.2214329423E+00
                       1.5664298827E+01  1.5544996281E+01  1.5664298827E+01
                       1.0442865885E+01  1.5331555616E+01  1.0442865885E+01
                       1.0442865885E+01  1.0363330854E+01  4.9290280173E+00
                       1.0442865885E+01  1.0363330854E+01  1.5956703752E+01
                       1.0442865885E+01  5.3951060923E+00  1.0442865885E+01
                       1.5956703752E+01  1.0363330854E+01  1.0442865885E+01
                       4.9290280173E+00  1.0363330854E+01  1.0442865885E+01
                       6.0796645842E-21 -7.3262403566E-23  8.8263793386E-22
            xcart5     5.2161777826E+00  5.1764882718E+00  5.2161777826E+00
                       1.5648533348E+01  1.5529464816E+01  1.5648533348E+01
                       1.0432355565E+01  1.5312531368E+01  1.0432355565E+01
                       1.0432355565E+01  1.0352976544E+01  4.9283744589E+00
                       1.0432355565E+01  1.0352976544E+01  1.5936336672E+01
                       1.0432355565E+01  5.3934217189E+00  1.0432355565E+01
                       1.5936336672E+01  1.0352976544E+01  1.0432355565E+01
                       4.9283744589E+00  1.0352976544E+01  1.0432355565E+01
                       6.1543165378E-21 -4.9510070345E-21  5.3709014679E-22
            xcart6     5.2102740532E+00  5.1725986363E+00  5.2102740532E+00
                       1.5630822160E+01  1.5517795909E+01  1.5630822160E+01
                       1.0420548107E+01  1.5298565424E+01  1.0420548107E+01
                       1.0420548107E+01  1.0345197273E+01  4.9275133774E+00
                       1.0420548106E+01  1.0345197273E+01  1.5913582836E+01
                       1.0420548106E+01  5.3918291214E+00  1.0420548106E+01
                       1.5913582836E+01  1.0345197273E+01  1.0420548106E+01
                       4.9275133774E+00  1.0345197273E+01  1.0420548107E+01
                       6.0666715411E-21 -7.3134210249E-23  8.8075162033E-22
            xcart7     5.2054621208E+00  5.1665415524E+00  5.2054621208E+00
                       1.5616386362E+01  1.5499624657E+01  1.5616386362E+01
                       1.0410924242E+01  1.5276112332E+01  1.0410924242E+01
                       1.0410924242E+01  1.0333083105E+01  4.9269196043E+00
                       1.0410924242E+01  1.0333083105E+01  1.5894928879E+01
                       1.0410924242E+01  5.3900538774E+00  1.0410924242E+01
                       1.5894928879E+01  1.0333083105E+01  1.0410924242E+01
                       4.9269196043E+00  1.0333083105E+01  1.0410924242E+01
                       6.0610686855E-21 -7.3048570501E-23  8.7993820496E-22
            xcart8     5.2003416478E+00  5.1610970498E+00  5.2003416478E+00
                       1.5601024943E+01  1.5483291150E+01  1.5601024943E+01
                       1.0400683296E+01  1.5256038132E+01  1.0400683296E+01
                       1.0400683296E+01  1.0322194100E+01  4.9261776648E+00
                       1.0400683295E+01  1.0322194100E+01  1.5875188926E+01
                       1.0400683295E+01  5.3883500674E+00  1.0400683295E+01
                       1.5875188926E+01  1.0322194100E+01  1.0400683295E+01
                       4.9261776648E+00  1.0322194100E+01  1.0400683296E+01
                       4.1857988447E-21 -7.3539515750E-21  3.1428895118E-21
            xcart9     5.1939034081E+00  5.1582690196E+00  5.1939034081E+00
                       1.5581710224E+01  1.5474807059E+01  1.5581710224E+01
                       1.0387806816E+01  1.5246202554E+01  1.0387806816E+01
                       1.0387806816E+01  1.0316538039E+01  4.9253545734E+00
                       1.0387806816E+01  1.0316538039E+01  1.5850259059E+01
                       1.0387806816E+01  5.3868735251E+00  1.0387806816E+01
                       1.5850259059E+01  1.0316538039E+01  1.0387806816E+01
                       4.9253545734E+00  1.0316538039E+01  1.0387806816E+01
                       6.0476101010E-21 -7.2931607018E-23  8.7798430471E-22
            xcart10    5.1884925742E+00  5.1534011135E+00  5.1884925742E+00
                       1.5565477723E+01  1.5460203341E+01  1.5565477723E+01
                       1.0376985149E+01  1.5228543605E+01  1.0376985149E+01
                       1.0376985149E+01  1.0306802227E+01  4.9245916966E+00
                       1.0376985148E+01  1.0306802227E+01  1.5829378600E+01
                       1.0376985148E+01  5.3850608495E+00  1.0376985148E+01
                       1.5829378600E+01  1.0306802227E+01  1.0376985148E+01
                       4.9245916966E+00  1.0306802227E+01  1.0376985149E+01
                       6.0413099042E-21 -7.2862780787E-23  8.7706965032E-22
             xred1     2.5000000000E-01  2.5000000000E-01  2.5000000000E-01
                       7.5000000000E-01  7.5000000000E-01  7.5000000000E-01
                       7.4024496179E-01  2.5975503821E-01  7.4024496179E-01
                       2.3538331416E-01  2.3538331416E-01  7.6461668584E-01
                       7.6461668584E-01  7.6461668584E-01  2.3538331416E-01
                       2.5975503821E-01  7.4024496179E-01  2.5975503821E-01
                       2.3538331416E-01  7.6461668584E-01  7.6461668584E-01
                       7.6461668584E-01  2.3538331416E-01  2.3538331416E-01
                      -2.5236613091E-22  3.3688679254E-22  2.4529674322E-22
             xred2     2.5000000000E-01  2.5000000000E-01  2.5000000000E-01
                       7.5000000000E-01  7.5000000000E-01  7.5000000000E-01
                       7.4006400770E-01  2.5993599230E-01  7.4006400770E-01
                       2.3559032986E-01  2.3559032986E-01  7.6440967014E-01
                       7.6440967014E-01  7.6440967014E-01  2.3559032986E-01
                       2.5993599230E-01  7.4006400770E-01  2.5993599230E-01
                       2.3559032986E-01  7.6440967014E-01  7.6440967014E-01
                       7.6440967014E-01  2.3559032986E-01  2.3559032986E-01
                      -2.5236613091E-22  3.3688679254E-22  2.4529674322E-22
             xred3     2.5000000000E-01  2.5000000000E-01  2.5000000000E-01
                       7.5000000000E-01  7.5000000000E-01  7.5000000000E-01
                       7.3988357904E-01  2.6011642096E-01  7.3988357904E-01
                       2.3579335536E-01  2.3579335536E-01  7.6420664464E-01
                       7.6420664464E-01  7.6420664464E-01  2.3579335536E-01
                       2.6011642096E-01  7.3988357904E-01  2.6011642096E-01
                       2.3579335536E-01  7.6420664464E-01  7.6420664464E-01
                       7.6420664464E-01  2.3579335536E-01  2.3579335536E-01
                      -2.5236613091E-22  3.3688679254E-22  2.4529674322E-22
             xred4     2.5000000000E-01  2.5000000000E-01  2.5000000000E-01
                       7.5000000000E-01  7.5000000000E-01  7.5000000000E-01
                       7.3970212047E-01  2.6029787953E-01  7.3970212047E-01
                       2.3599977591E-01  2.3599977591E-01  7.6400022409E-01
                       7.6400022409E-01  7.6400022409E-01  2.3599977591E-01
                       2.6029787953E-01  7.3970212047E-01  2.6029787953E-01
                       2.3599977591E-01  7.6400022409E-01  7.6400022409E-01
                       7.6400022409E-01  2.3599977591E-01  2.3599977591E-01
                      -2.5236613091E-22  3.3688679254E-22  2.4529674322E-22
             xred5     2.5000000000E-01  2.5000000000E-01  2.5000000000E-01
                       7.5000000000E-01  7.5000000000E-01  7.5000000000E-01
                       7.3952313636E-01  2.6047686364E-01  7.3952313636E-01
                       2.3620621575E-01  2.3620621575E-01  7.6379378425E-01
                       7.6379378425E-01  7.6379378425E-01  2.3620621575E-01
                       2.6047686364E-01  7.3952313636E-01  2.6047686364E-01
                       2.3620621575E-01  7.6379378425E-01  7.6379378425E-01
                       7.6379378425E-01  2.3620621575E-01  2.3620621575E-01
                      -5.0833170157E-22  5.5981481517E-22  3.0111064870E-23
             xred6     2.5000000000E-01  2.5000000000E-01  2.5000000000E-01
                       7.5000000000E-01  7.5000000000E-01  7.5000000000E-01
                       7.3940423854E-01  2.6059576146E-01  7.3940423854E-01
                       2.3643254304E-01  2.3643254304E-01  7.6356745696E-01
                       7.6356745696E-01  7.6356745696E-01  2.3643254304E-01
                       2.6059576146E-01  7.3940423854E-01  2.6059576146E-01
                       2.3643254304E-01  7.6356745696E-01  7.6356745696E-01
                       7.6356745696E-01  2.3643254304E-01  2.3643254304E-01
                      -2.5236613091E-22  3.3688679254E-22  2.4529674322E-22
             xred7     2.5000000000E-01  2.5000000000E-01  2.5000000000E-01
                       7.5000000000E-01  7.5000000000E-01  7.5000000000E-01
                       7.3918462560E-01  2.6081537440E-01  7.3918462560E-01
                       2.3662258460E-01  2.3662258460E-01  7.6337741540E-01
                       7.6337741540E-01  7.6337741540E-01  2.3662258460E-01
                       2.6081537440E-01  7.3918462560E-01  2.6081537440E-01
                       2.3662258460E-01  7.6337741540E-01  7.6337741540E-01
                       7.6337741540E-01  2.3662258460E-01  2.3662258460E-01
                      -2.5236613091E-22  3.3688679254E-22  2.4529674322E-22
             xred8     2.5000000000E-01  2.5000000000E-01  2.5000000000E-01
                       7.5000000000E-01  7.5000000000E-01  7.5000000000E-01
                       7.3899201975E-01  2.6100798025E-01  7.3899201975E-01
                       2.3681990523E-01  2.3681990523E-01  7.6318009477E-01
                       7.6318009477E-01  7.6318009477E-01  2.3681990523E-01
                       2.6100798025E-01  7.3899201975E-01  2.6100798025E-01
                       2.3681990523E-01  7.6318009477E-01  7.6318009477E-01
                       7.6318009477E-01  2.3681990523E-01  2.3681990523E-01
                      -4.0635694638E-22  7.0853800726E-22 -3.0608379093E-22
             xred9     2.5000000000E-01  2.5000000000E-01  2.5000000000E-01
                       7.5000000000E-01  7.5000000000E-01  7.5000000000E-01
                       7.3892048357E-01  2.6107951643E-01  7.3892048357E-01
                       2.3707384343E-01  2.3707384343E-01  7.6292615657E-01
                       7.6292615657E-01  7.6292615657E-01  2.3707384343E-01
                       2.6107951643E-01  7.3892048357E-01  2.6107951643E-01
                       2.3707384343E-01  7.6292615657E-01  7.6292615657E-01
                       7.6292615657E-01  2.3707384343E-01  2.3707384343E-01
                      -2.5236613091E-22  3.3688679254E-22  2.4529674322E-22
             xred10    2.5000000000E-01  2.5000000000E-01  2.5000000000E-01
                       7.5000000000E-01  7.5000000000E-01  7.5000000000E-01
                       7.3876180357E-01  2.6123819643E-01  7.3876180357E-01
                       2.3728431843E-01  2.3728431843E-01  7.6271568157E-01
                       7.6271568157E-01  7.6271568157E-01  2.3728431843E-01
                       2.6123819643E-01  7.3876180357E-01  2.6123819643E-01
                       2.3728431843E-01  7.6271568157E-01  7.6271568157E-01
                       7.6271568157E-01  2.3728431843E-01  2.3728431843E-01
                      -2.5236613091E-22  3.3688679254E-22  2.4529674322E-22
            znucl       55.00000   53.00000   72.00000   35.00000

- Timing analysis has been suppressed with timopt=0

 Suggested references for the acknowledgment of ABINIT usage.

 Calculation completed.
.Delivered   0 WARNINGs and  10 COMMENTs to log file.