.Version 9.2.2 of ABINIT

 ABINIT is a project of the Universite Catholique de Louvain,
 Corning Inc. and other collaborators, see ~abinit/doc/developers/contributors.txt .
 acknowledgments of the ABINIT effort.

.Starting date : Thu 15 Dec 2022.
- ( at 10h43 )

- The starting date is more than 2 years after the initial release
- of this version of ABINIT, namely Nov 2020.
- Note that the use beyond 3 years after the release will not be supported.
- Action: please, switch to a more recent version of ABINIT.

- input  file    -> Cs2TiI6.in
- output file    -> Cs2TiI6.out
- root for input  files -> Cs2TiI6i
- root for output files -> Cs2TiI6o

- inpspheads : Reading pseudopotential header in XML form from
-   ../../../Psps_for_tests/ATOMICDATA/Cs.GGA_PBE-JTH.xml
- inpspheads : Reading pseudopotential header in XML form from
-   ../../../Psps_for_tests/ATOMICDATA/I.GGA_PBE-JTH.xml
- inpspheads : Reading pseudopotential header in XML form from
-   ../../../Psps_for_tests/ATOMICDATA/Zr.GGA_PBE-JTH.xml
- inpspheads : Reading pseudopotential header in XML form from
-   ../../../Psps_for_tests/ATOMICDATA/Cl.GGA_PBE-JTH.xml

 DATASET    1 : space group Im m 2 (# 44); Bravais oI (body-center ortho.)
     intxc =       0    ionmov =       0      iscf =      17    lmnmax =      18
     lnmax =       6     mgfft =      54  mpssoang =       3    mqgrid =    3449
     natom =       9  nloc_mem =       2    nspden =       1   nspinor =       1
    nsppol =       1      nsym =       4    n1xccc =       1    ntypat =       4
    occopt =       1   xclevel =       2
-    mband =          42        mffmem =           1         mkmem =          47
       mpw =        6960          nfft =      157464          nkpt =         280
Pmy_natom=         2
 PAW method is used; the additional fine FFT grid is defined by:
   mgfftf=        90    nfftf =    729000
  Rough estimation (10% accuracy) of disk space for files :

[...]

 DATASET   10 : space group Im m 2 (# 44); Bravais oI (body-center ortho.)
     intxc =       0    ionmov =       0      iscf =      17    lmnmax =      18
     lnmax =       6     mgfft =      54  mpssoang =       3    mqgrid =    3418
     natom =       9  nloc_mem =       2    nspden =       1   nspinor =       1
    nsppol =       1      nsym =       4    n1xccc =       1    ntypat =       4
    occopt =       1   xclevel =       2
-    mband =          42        mffmem =           1         mkmem =          47
       mpw =        6785          nfft =      157464          nkpt =         280
Pmy_natom=         2
 PAW method is used; the additional fine FFT grid is defined by:
   mgfftf=        90    nfftf =    729000
  Rough estimation (10% accuracy) of disk space for files :

------------- Echo of variables that govern the present computation ------------
-
- outvars: echo of selected default values
-   iomode0 =  0 , fftalg0 =112 , wfoptalg0 = 10
-
- outvars: echo of global parameters not present in the input file
-  max_nthreads =    0
-
 -outvars: echo values of preprocessed input variables --------
            acell1     1.4601374490E+01  1.4766564340E+01  1.4766564340E+01 Bohr
            acell2     1.4587193392E+01  1.4751873886E+01  1.4751873886E+01 Bohr
            acell3     1.4571054451E+01  1.4737808933E+01  1.4737808933E+01 Bohr
            acell4     1.4557481397E+01  1.4723027191E+01  1.4723027191E+01 Bohr
            acell5     1.4543779740E+01  1.4708134313E+01  1.4708134313E+01 Bohr
            acell6     1.4530467161E+01  1.4693344040E+01  1.4693344040E+01 Bohr
            acell7     1.4518048060E+01  1.4678152693E+01  1.4678152693E+01 Bohr
            acell8     1.4503431486E+01  1.4663486429E+01  1.4663486429E+01 Bohr
            acell9     1.4487771684E+01  1.4648126751E+01  1.4648126751E+01 Bohr
            acell10    1.4473508970E+01  1.4633451866E+01  1.4633451866E+01 Bohr
              amu      1.32905430E+02  1.26904470E+02  9.12240000E+01
                       3.54527000E+01
           diemac      1.20000000E+01
             ecut      1.60000000E+01 Hartree
-          fftalg         112
           istwfk        2    0    0    0    0    0    3    0    0    0
                         0    0    0    0    0    0    0    0    0    0
                         0    0    0    0    0    0    0    0    0    0
                         0    0    0    0    0    0    0    0    0    0
                         0    0    0    0    0    0    0    0    0    0
                       outvar_i_n : Printing only first  50 k-points.
              ixc     -101130
           jdtset        1    2    3    4    5    6    7    8    9   10
              kpt      0.00000000E+00  0.00000000E+00  0.00000000E+00
                       8.33333333E-02  0.00000000E+00  0.00000000E+00
                       1.66666667E-01  0.00000000E+00  0.00000000E+00
                       2.50000000E-01  0.00000000E+00  0.00000000E+00
                       3.33333333E-01  0.00000000E+00  0.00000000E+00
                       4.16666667E-01  0.00000000E+00  0.00000000E+00
                       5.00000000E-01  0.00000000E+00  0.00000000E+00
                       0.00000000E+00  8.33333333E-02  0.00000000E+00
                       8.33333333E-02  8.33333333E-02  0.00000000E+00
                       1.66666667E-01  8.33333333E-02  0.00000000E+00
                       2.50000000E-01  8.33333333E-02  0.00000000E+00
                       3.33333333E-01  8.33333333E-02  0.00000000E+00
                       4.16666667E-01  8.33333333E-02  0.00000000E+00
                       5.00000000E-01  8.33333333E-02  0.00000000E+00
                      -4.16666667E-01  8.33333333E-02  0.00000000E+00
                      -3.33333333E-01  8.33333333E-02  0.00000000E+00
                      -2.50000000E-01  8.33333333E-02  0.00000000E+00
                      -1.66666667E-01  8.33333333E-02  0.00000000E+00
                      -8.33333333E-02  8.33333333E-02  0.00000000E+00
                       0.00000000E+00  1.66666667E-01  0.00000000E+00
                       8.33333333E-02  1.66666667E-01  0.00000000E+00
                       1.66666667E-01  1.66666667E-01  0.00000000E+00
                       2.50000000E-01  1.66666667E-01  0.00000000E+00
                       3.33333333E-01  1.66666667E-01  0.00000000E+00
                       4.16666667E-01  1.66666667E-01  0.00000000E+00
                       5.00000000E-01  1.66666667E-01  0.00000000E+00
                      -4.16666667E-01  1.66666667E-01  0.00000000E+00
                      -3.33333333E-01  1.66666667E-01  0.00000000E+00
                      -2.50000000E-01  1.66666667E-01  0.00000000E+00
                      -1.66666667E-01  1.66666667E-01  0.00000000E+00
                      -8.33333333E-02  1.66666667E-01  0.00000000E+00
                       0.00000000E+00  2.50000000E-01  0.00000000E+00
                       8.33333333E-02  2.50000000E-01  0.00000000E+00
                       1.66666667E-01  2.50000000E-01  0.00000000E+00
                       2.50000000E-01  2.50000000E-01  0.00000000E+00
                       3.33333333E-01  2.50000000E-01  0.00000000E+00
                       4.16666667E-01  2.50000000E-01  0.00000000E+00
                       5.00000000E-01  2.50000000E-01  0.00000000E+00
                      -4.16666667E-01  2.50000000E-01  0.00000000E+00
                      -3.33333333E-01  2.50000000E-01  0.00000000E+00
                      -2.50000000E-01  2.50000000E-01  0.00000000E+00
                      -1.66666667E-01  2.50000000E-01  0.00000000E+00
                      -8.33333333E-02  2.50000000E-01  0.00000000E+00
                       0.00000000E+00  3.33333333E-01  0.00000000E+00
                       8.33333333E-02  3.33333333E-01  0.00000000E+00
                       1.66666667E-01  3.33333333E-01  0.00000000E+00
                       2.50000000E-01  3.33333333E-01  0.00000000E+00
                       3.33333333E-01  3.33333333E-01  0.00000000E+00
                       4.16666667E-01  3.33333333E-01  0.00000000E+00
                       5.00000000E-01  3.33333333E-01  0.00000000E+00
                       outvar_i_n : Printing only first  50 k-points.
         kptrlatt       12    0    0      0   12    0      0    0   12
          kptrlen1     1.75216494E+02
          kptrlen2     1.75046321E+02
          kptrlen3     1.74852653E+02
          kptrlen4     1.74689777E+02
          kptrlen5     1.74525357E+02
          kptrlen6     1.74365606E+02
          kptrlen7     1.74216577E+02
          kptrlen8     1.74041178E+02
          kptrlen9     1.73853260E+02
          kptrlen10    1.73682108E+02
P           mkmem          47
            natom           9
            nband          42
           ndtset          10
            ngfft          54      54      54
          ngfftdg          90      90      90
             nkpt         280
            nstep        2500
             nsym           4
           ntypat           4
              occ      2.000000  2.000000  2.000000  2.000000  2.000000  2.000000
                       2.000000  2.000000  2.000000  2.000000  2.000000  2.000000
                       2.000000  2.000000  2.000000  2.000000  2.000000  2.000000
                       2.000000  2.000000  2.000000  2.000000  2.000000  2.000000
                       2.000000  2.000000  2.000000  2.000000  2.000000  2.000000
                       2.000000  2.000000  2.000000  2.000000  2.000000  2.000000
                       0.000000  0.000000  0.000000  0.000000  0.000000  0.000000
        pawecutdg      4.00000000E+01 Hartree
            prtwf           0
            rprim1     0.0000000000E+00  7.0710678119E-01  7.0710678119E-01
                       7.0901724180E-01 -5.9693247296E-03  7.0516587977E-01
                       7.0901724180E-01  7.0516587977E-01 -5.9693247296E-03
            rprim2     0.0000000000E+00  7.0710678119E-01  7.0710678119E-01
                       7.0903106676E-01 -5.9391410568E-03  7.0515223390E-01
                       7.0903106676E-01  7.0515223390E-01 -5.9391410568E-03
            rprim3     0.0000000000E+00  7.0710678119E-01  7.0710678119E-01
                       7.0913199994E-01 -5.9446332167E-03  7.0505068470E-01
                       7.0913199994E-01  7.0505068470E-01 -5.9446332167E-03
            rprim4     0.0000000000E+00  7.0710678119E-01  7.0710678119E-01
                       7.0913375307E-01 -5.8932836669E-03  7.0504935250E-01
                       7.0913375307E-01  7.0504935250E-01 -5.8932836669E-03
            rprim5     0.0000000000E+00  7.0710678119E-01  7.0710678119E-01
                       7.0911922762E-01 -5.8589605336E-03  7.0506424785E-01
                       7.0911922762E-01  7.0506424785E-01 -5.8589605336E-03
            rprim6     0.0000000000E+00  7.0710678119E-01  7.0710678119E-01
                       7.0912012816E-01 -5.7954205932E-03  7.0506386727E-01
                       7.0912012816E-01  7.0506386727E-01 -5.7954205932E-03
            rprim7     0.0000000000E+00  7.0710678119E-01  7.0710678119E-01
                       7.0906434602E-01 -5.7266431129E-03  7.0512052783E-01
[...]
                      -2.5383544536E-36 -1.1128299752E-01 -1.1128299752E-01
           xangst7     2.7678569311E+00  2.7011893258E+00  2.7011893258E+00
                       8.2472362709E+00  8.1336221286E+00  8.1336221286E+00
                       5.5075466010E+00  5.4496127722E+00  2.7061178255E+00
                       5.5075466010E+00  5.3427430762E+00  8.3533625225E+00
                       8.1687400434E+00  5.4422528624E+00  5.4422528624E+00
                       5.5075466010E+00  8.3533625225E+00  5.3427430762E+00
                       5.5075466010E+00  2.7061178255E+00  5.4496127722E+00
                       2.8463531586E+00  5.4422528625E+00  5.4422528625E+00
                      -4.0543033312E-34 -1.1169095309E-01 -1.1169095309E-01
           xangst8     2.7657964414E+00  2.6986389023E+00  2.6986389023E+00
                       8.2385502022E+00  8.1256024055E+00  8.1256024055E+00
                       5.5021733218E+00  5.4448160311E+00  2.7048862666E+00
                       5.5021733218E+00  5.3376563653E+00  8.3420555621E+00
                       8.1590883481E+00  5.4370708676E+00  5.4370708676E+00
                       5.5021733218E+00  8.3420555621E+00  5.3376563653E+00
                       5.5021733218E+00  2.7048862666E+00  5.4448160311E+00
                       2.8452582955E+00  5.4370708677E+00  5.4370708677E+00
                      -1.2601162117E-34 -1.1208924292E-01 -1.1208924292E-01
           xangst9     2.7632254441E+00  2.6960616123E+00  2.6960616123E+00
                       8.2282679207E+00  8.1171654557E+00  8.1171654557E+00
                       5.4957466824E+00  5.4395217315E+00  2.7030368443E+00
                       5.4957466824E+00  5.3293673394E+00  8.3312744794E+00
                       8.1474212298E+00  5.4322959506E+00  5.4322959506E+00
                       5.4957466824E+00  8.3312744794E+00  5.3293673394E+00
                       5.4957466824E+00  2.7030368443E+00  5.4395217315E+00
                       2.8440721351E+00  5.4322959507E+00  5.4322959507E+00
                       3.4320962837E-16 -1.1218861634E-01 -1.1218861634E-01
           xangst10    2.7601608308E+00  2.6937564668E+00  2.6937564668E+00
                       8.2205691511E+00  8.1095234193E+00  8.1095234193E+00
                       5.4903649910E+00  5.4341790379E+00  2.7018335720E+00
                       5.4903649910E+00  5.3244506523E+00  8.3199724813E+00
                       8.1377624268E+00  5.4275489145E+00  5.4275489145E+00
                       5.4903649910E+00  8.3199724813E+00  5.3244506523E+00
                       5.4903649910E+00  2.7018335720E+00  5.4341790379E+00
                       2.8429675552E+00  5.4275489147E+00  5.4275489147E+00
                       1.5238824066E-16 -1.1267783804E-01 -1.1267783804E-01
            xcart1     5.2589846286E+00  5.1316923322E+00  5.1316923322E+00
                       1.5680512810E+01  1.5456423249E+01  1.5456423249E+01
                       1.0469748719E+01  1.0356024878E+01  5.1256817798E+00
                       1.0469748719E+01  1.0146729599E+01  1.5911027772E+01
                       1.5549049794E+01  1.0338182633E+01  1.0338182633E+01
                       1.0469748719E+01  1.5911027772E+01  1.0146729599E+01
                       1.0469748719E+01  5.1256817798E+00  1.0356024878E+01
                       5.3904476440E+00  1.0338182633E+01  1.0338182633E+01
                       9.8075442010E-16 -2.0609754307E-01 -2.0609754307E-01
            xcart2     5.2536541598E+00  5.1270106143E+00  5.1270106143E+00
                       1.5665419596E+01  1.5441713980E+01  1.5441713980E+01
                       1.0459536878E+01  1.0346221920E+01  5.1237113746E+00
                       1.0459536878E+01  1.0137786873E+01  1.5889876379E+01
                       1.5530524747E+01  1.0329070800E+01  1.0329070800E+01
                       1.0459536878E+01  1.5889876379E+01  1.0137786873E+01
                       1.0459536878E+01  5.1237113746E+00  1.0346221920E+01
                       5.3885490096E+00  1.0329070800E+01  1.0329070800E+01
                      -5.0804331677E-16 -2.0683581606E-01 -2.0683581606E-01
            xcart3     5.2544594592E+00  5.1213433316E+00  5.1213433316E+00
                       1.5647644388E+01  1.5424634743E+01  1.5424634743E+01
                       1.0451051923E+01  1.0337373507E+01  5.1209775661E+00
                       1.0451051923E+01  1.0127803219E+01  1.5866620120E+01
                       1.5515196062E+01  1.0317603400E+01  1.0317603400E+01
                       1.0451051923E+01  1.5866620120E+01  1.0127803219E+01
                       1.0451051923E+01  5.1209775661E+00  1.0337373507E+01
                       5.3869077852E+00  1.0317603400E+01  1.0317603400E+01
                       7.2518740481E-17 -2.0762799829E-01 -2.0762799829E-01
            xcart4     5.2495147097E+00  5.1169238206E+00  5.1169238206E+00
                       1.5631676347E+01  1.5410617633E+01  1.5410617633E+01
                       1.0440595529E+01  1.0327878109E+01  5.1191247040E+00
                       1.0440595529E+01  1.0119988063E+01  1.5845932447E+01
                       1.5496240511E+01  1.0308808794E+01  1.0308808794E+01
                       1.0440595529E+01  1.5845932447E+01  1.0119988063E+01
                       1.0440595529E+01  5.1191247040E+00  1.0327878109E+01
                       5.3849505458E+00  1.0308808794E+01  1.0308808794E+01
                       1.4489236933E-16 -2.0853186397E-01 -2.0853186397E-01
            xcart5     5.2442866443E+00  5.1125703462E+00  5.1125703462E+00
                       1.5615355043E+01  1.5396575624E+01  1.5396575624E+01
                       1.0429820844E+01  1.0318443406E+01  5.1171047327E+00
                       1.0429820844E+01  1.0111383232E+01  1.5825285228E+01
                       1.5476742661E+01  1.0300030415E+01  1.0300030415E+01
                       1.0429820844E+01  1.5825285228E+01  1.0111383232E+01
                       1.0429820844E+01  5.1171047327E+00  1.0318443406E+01
                       5.3828990270E+00  1.0300030415E+01  1.0300030415E+01
                       6.4031452005E-35 -2.0938117346E-01 -2.0938117346E-01
            xcart6     5.2383221651E+00  5.1083712870E+00  5.1083712870E+00
                       1.5600369852E+01  1.5382963150E+01  1.5382963150E+01
                       1.0419346009E+01  1.0308725353E+01  5.1154127274E+00
                       1.0419346009E+01  1.0103740944E+01  1.5804717457E+01
                       1.5457815387E+01  1.0291549189E+01  1.0291549189E+01
                       1.0419346009E+01  1.5804717457E+01  1.0103740944E+01
                       1.0419346009E+01  5.1154127274E+00  1.0308725353E+01
                       5.3808766301E+00  1.0291549189E+01  1.0291549189E+01
                      -4.7967947454E-36 -2.1029438856E-01 -2.1029438856E-01
            xcart7     5.2304915748E+00  5.1045080588E+00  5.1045080588E+00
                       1.5585017905E+01  1.5370318291E+01  1.5370318291E+01
                       1.0407754740E+01  1.0298275670E+01  5.1138215736E+00
                       1.0407754740E+01  1.0096321212E+01  1.5785567456E+01
                       1.5436681533E+01  1.0284367456E+01  1.0284367456E+01
                       1.0407754740E+01  1.5785567456E+01  1.0096321212E+01
                       1.0407754740E+01  5.1138215736E+00  1.0298275670E+01
                       5.3788279473E+00  1.0284367456E+01  1.0284367456E+01
                      -7.6615229555E-34 -2.1106531287E-01 -2.1106531287E-01
            xcart8     5.2265978136E+00  5.0996884569E+00  5.0996884569E+00
                       1.5568603614E+01  1.5355163211E+01  1.5355163211E+01
                       1.0397600714E+01  1.0289211143E+01  5.1114942645E+00
                       1.0397600714E+01  1.0086708722E+01  1.5764200398E+01
                       1.5418442472E+01  1.0274574905E+01  1.0274574905E+01
                       1.0397600714E+01  1.5764200398E+01  1.0086708722E+01
                       1.0397600714E+01  5.1114942645E+00  1.0289211143E+01
                       5.3767589558E+00  1.0274574905E+01  1.0274574905E+01
                      -2.3812745357E-34 -2.1181797157E-01 -2.1181797157E-01
            xcart9     5.2217393328E+00  5.0948180845E+00  5.0948180845E+00
                       1.5549172918E+01  1.5339219687E+01  1.5339219687E+01
                       1.0385456126E+01  1.0279206366E+01  5.1079993629E+00
                       1.0385456126E+01  1.0071044733E+01  1.5743827104E+01
                       1.5396394814E+01  1.0265551619E+01  1.0265551619E+01
                       1.0385456126E+01  1.5743827104E+01  1.0071044733E+01
                       1.0385456126E+01  5.1079993629E+00  1.0279206366E+01
                       5.3745174374E+00  1.0265551620E+01  1.0265551620E+01
                       6.4857220379E-16 -2.1200576010E-01 -2.1200576010E-01
            xcart10    5.2159480530E+00  5.0904619909E+00  5.0904619909E+00
                       1.5534624352E+01  1.5324778331E+01  1.5324778331E+01
                       1.0375286202E+01  1.0269110139E+01  5.1057255078E+00
                       1.0375286202E+01  1.0061753541E+01  1.5722469423E+01
                       1.5378142321E+01  1.0256581021E+01  1.0256581021E+01
                       1.0375286202E+01  1.5722469423E+01  1.0061753541E+01
                       1.0375286202E+01  5.1057255078E+00  1.0269110139E+01
                       5.3724300839E+00  1.0256581022E+01  1.0256581022E+01
                       2.8797204073E-16 -2.1293025514E-01 -2.1293025514E-01
             xred1     2.4587773438E-01  2.5115142539E-01  2.5115142539E-01
                       7.4818058516E-01  7.4884857461E-01  7.4884857461E-01
                       2.4973898997E-01  2.5096032434E-01  7.4903967566E-01
                       7.6190975733E-01  7.7446362894E-01  2.2553637106E-01
                       2.5873252064E-01  7.4257034297E-01  7.4257034297E-01
                       7.6190975733E-01  2.2553637106E-01  7.7446362894E-01
                       2.4973898997E-01  7.4903967566E-01  2.5096032434E-01
                       7.4387320658E-01  2.5742965703E-01  2.5742965703E-01
                      -1.9961541345E-02  4.5171334362E-17  4.8503733341E-17
             xred2     2.4591664886E-01  2.5114181541E-01  2.5114181541E-01
                       7.4820027968E-01  7.4885818459E-01  7.4885818459E-01
                       2.4989714906E-01  2.5107029298E-01  7.4892970702E-01
                       7.6167773951E-01  7.7417196063E-01  2.2582803937E-01
                       2.5898313765E-01  7.4240977051E-01  7.4240977051E-01
                       7.6167773951E-01  2.2582803937E-01  7.7417196063E-01
                       2.4989714906E-01  7.4892970702E-01  2.5107029298E-01
                       7.4380267867E-01  2.5759022949E-01  2.5759022949E-01
                      -2.0052521989E-02 -2.5549751815E-17 -2.3022505513E-17
             xred3     2.4567472324E-01  2.5138423853E-01  2.5138423853E-01
                       7.4844320031E-01  7.4861576147E-01  7.4861576147E-01
                       2.5016567310E-01  2.5109083383E-01  7.4890916617E-01
                       7.6146210479E-01  7.7383736701E-01  2.2616263299E-01
                       2.5910991077E-01  7.4227915885E-01  7.4227915885E-01
                       7.6146210479E-01  2.2616263299E-01  7.7383736701E-01
                       2.5016567310E-01  7.4890916617E-01  2.5109083383E-01
                       7.4366822847E-01  2.5772084115E-01  2.5772084115E-01
                      -2.0151618546E-02  2.7956990446E-18  4.1431948593E-18
             xred4     2.4569386709E-01  2.5139919918E-01  2.5139919918E-01
                       7.4849226545E-01  7.4860080082E-01  7.4860080082E-01
                       2.5031388608E-01  2.5118753873E-01  7.4881246127E-01
                       7.6125378230E-01  7.7351771227E-01  2.2648228773E-01
                       2.5935359276E-01  7.4211478018E-01  7.4211478018E-01
                       7.6125378230E-01  2.2648228773E-01  7.7351771227E-01
                       2.5031388608E-01  7.4881246127E-01  2.5118753873E-01
                       7.4358315312E-01  2.5788521982E-01  2.5788521982E-01
                      -2.0258215152E-02  5.7870502285E-18  8.0907375793E-18
             xred5     2.4572977125E-01  2.5140828030E-01  2.5140828030E-01
                       7.4854633185E-01  7.4859171970E-01  7.4859171970E-01
                       2.5046383785E-01  2.5128335095E-01  7.4871664905E-01
                       7.6101979520E-01  7.7322630704E-01  2.2677369296E-01
                       2.5961154168E-01  7.4194671665E-01  7.4194671665E-01
                       7.6101979520E-01  2.2677369296E-01  7.7322630704E-01
                       2.5046383785E-01  7.4871664905E-01  2.5128335095E-01
                       7.4350497498E-01  2.5805328335E-01  2.5805328335E-01
                      -2.0359885842E-02 -1.1663452176E-19  1.1663452176E-19
             xred6     2.4581003151E-01  2.5137480609E-01  2.5137480609E-01
                       7.4855964369E-01  7.4862519391E-01  7.4862519391E-01
                       2.5059614463E-01  2.5139481538E-01  7.4860518462E-01
                       7.6080231433E-01  7.7290718289E-01  2.2709281711E-01
                       2.5986607436E-01  7.4178433917E-01  7.4178433917E-01
                       7.6080231433E-01  2.2709281711E-01  7.7290718289E-01
                       2.5059614463E-01  7.4860518462E-01  2.5139481538E-01
                       7.4343475270E-01  2.5821566083E-01  2.5821566083E-01
                      -2.0467420152E-02  5.0754166481E-20 -5.0754166481E-20
             xred7     2.4595524638E-01  2.5127857571E-01  2.5127857571E-01
                       7.4851239780E-01  7.4872142429E-01  7.4872142429E-01
                       2.5065177001E-01  2.5155778230E-01  7.4844221770E-01
                       7.6058674776E-01  7.7263216679E-01  2.2736783321E-01
                       2.6021249095E-01  7.4159518159E-01  7.4159518159E-01
                       7.6058674776E-01  2.2736783321E-01  7.7263216679E-01
                       2.5065177001E-01  7.4844221770E-01  2.5155778230E-01
                       7.4340285414E-01  2.5840481841E-01  2.5840481841E-01
                      -2.0560024789E-02  6.8230344953E-19 -6.8230344953E-19
             xred8     2.4592825626E-01  2.5133672457E-01  2.5133672457E-01
                       7.4860170540E-01  7.4866327543E-01  7.4866327543E-01
                       2.5085287500E-01  2.5162263457E-01  7.4837736543E-01
                       7.6034677766E-01  7.7235178320E-01  2.2764821680E-01
                       2.6042011071E-01  7.4144232387E-01  7.4144232387E-01
                       7.6034677766E-01  2.2764821680E-01  7.7235178320E-01
                       2.5085287500E-01  7.4837736543E-01  2.5162263457E-01
                       7.4330475845E-01  2.5855767613E-01  2.5855767613E-01
                      -2.0654136122E-02  4.4997172398E-19 -4.4997172398E-19
             xred9     2.4593032970E-01  2.5139672585E-01  2.5139672585E-01
                       7.4872378140E-01  7.4860327415E-01  7.4860327415E-01
                       2.5100558955E-01  2.5174216818E-01  7.4825783182E-01
                       7.5995020694E-01  7.7233731909E-01  2.2766268091E-01
                       2.6081665713E-01  7.4124788683E-01  7.4124788683E-01
                       7.5995020694E-01  2.2766268091E-01  7.7233731909E-01
                       2.5100558955E-01  7.4825783182E-01  2.5174216818E-01
                       7.4331243079E-01  2.5875211317E-01  2.5875211317E-01
                      -2.0694791979E-02  2.9081728057E-17  3.3368317078E-17
             xred10    2.4602744700E-01  2.5136405643E-01  2.5136405643E-01
                       7.4875555986E-01  7.4863594357E-01  7.4863594357E-01
                       2.5114131399E-01  2.5185379132E-01  7.4814620868E-01
                       7.5969444891E-01  7.7204736523E-01  2.2795263477E-01
                       2.6108064391E-01  7.4109484890E-01  7.4109484890E-01
                       7.5969444891E-01  2.2795263477E-01  7.7204736523E-01
                       2.5114131399E-01  7.4814620868E-01  2.5185379132E-01
                       7.4327034170E-01  2.5890515110E-01  2.5890515110E-01
                      -2.0805518225E-02  1.4141070969E-17  1.3614504647E-17
            znucl       55.00000   53.00000   40.00000   17.00000

- Timing analysis has been suppressed with timopt=0

 Suggested references for the acknowledgment of ABINIT usage.

 Calculation completed.
.Delivered   0 WARNINGs and   0 COMMENTs to log file.