.Version 9.2.2 of ABINIT

 ABINIT is a project of the Universite Catholique de Louvain,
 Corning Inc. and other collaborators, see ~abinit/doc/developers/contributors.txt .
 acknowledgments of the ABINIT effort.

.Starting date : Sun 20 Nov 2022.
- ( at 22h22 )

- input  file    -> Cs2TiI6.in
- output file    -> Cs2TiI6.out
- root for input  files -> Cs2TiI6i
- root for output files -> Cs2TiI6o

- inpspheads : Reading pseudopotential header in XML form from
-   ../../../Psps_for_tests/ATOMICDATA/Cs.GGA_PBE-JTH.xml
- inpspheads : Reading pseudopotential header in XML form from
-   ../../../Psps_for_tests/ATOMICDATA/I.GGA_PBE-JTH.xml
- inpspheads : Reading pseudopotential header in XML form from
-   ../../../Psps_for_tests/ATOMICDATA/Hf.GGA_PBE-JTH.xml
- inpspheads : Reading pseudopotential header in XML form from
-   ../../../Psps_for_tests/ATOMICDATA/Br.GGA_PBE-JTH.xml

 DATASET    1 : space group I4/m m m (#139); Bravais tI (body-center tetrag.)
     intxc =       0    ionmov =       2      iscf =      17    lmnmax =      18
     lnmax =       6     mgfft =      64  mpssoang =       3    mqgrid =    3909
     natom =       9  nloc_mem =       2    nspden =       1   nspinor =       1
    nsppol =       1      nsym =      16    n1xccc =       1    ntypat =       4
    occopt =       1   xclevel =       2
-    mband =          42        mffmem =           1         mkmem =           4
       mpw =       10290          nfft =      262144          nkpt =          20
Pmy_natom=         2
 PAW method is used; the additional fine FFT grid is defined by:
   mgfftf=        96    nfftf =    884736
  Rough estimation (10% accuracy) of disk space for files :

[...]

 DATASET   10 : space group I4/m m m (#139); Bravais tI (body-center tetrag.)
     intxc =       0    ionmov =       2      iscf =      17    lmnmax =      18
     lnmax =       6     mgfft =      64  mpssoang =       3    mqgrid =    3874
     natom =       9  nloc_mem =       2    nspden =       1   nspinor =       1
    nsppol =       1      nsym =      16    n1xccc =       1    ntypat =       4
    occopt =       1   xclevel =       2
-    mband =          42        mffmem =           1         mkmem =           4
       mpw =       10025          nfft =      262144          nkpt =          20
Pmy_natom=         2
 PAW method is used; the additional fine FFT grid is defined by:
   mgfftf=        96    nfftf =    884736
  Rough estimation (10% accuracy) of disk space for files :

------------- Echo of variables that govern the present computation ------------
-
- outvars: echo of selected default values
-   iomode0 =  0 , fftalg0 =112 , wfoptalg0 = 10
-
- outvars: echo of global parameters not present in the input file
-  max_nthreads =    0
-
 -outvars: echo values of preprocessed input variables --------
            acell1     1.4605029836E+01  1.4654274946E+01  1.4605029836E+01 Bohr
            acell2     1.4590410186E+01  1.4639606002E+01  1.4590410186E+01 Bohr
            acell3     1.4575790537E+01  1.4624937058E+01  1.4575790537E+01 Bohr
            acell4     1.4561170887E+01  1.4610268114E+01  1.4561170887E+01 Bohr
            acell5     1.4546551238E+01  1.4595599171E+01  1.4546551238E+01 Bohr
            acell6     1.4531931588E+01  1.4580930227E+01  1.4531931588E+01 Bohr
            acell7     1.4517311939E+01  1.4566261283E+01  1.4517311939E+01 Bohr
            acell8     1.4502692289E+01  1.4551592339E+01  1.4502692289E+01 Bohr
            acell9     1.4488072640E+01  1.4536923395E+01  1.4488072640E+01 Bohr
            acell10    1.4473452990E+01  1.4522254451E+01  1.4473452990E+01 Bohr
              amu      1.32905430E+02  1.26904470E+02  1.78490000E+02
                       7.99040000E+01
           diemac      1.20000000E+01
          dilatmx      1.15000000E+00
             ecut      1.60000000E+01 Hartree
           ecutsm      5.00000000E-01 Hartree
-          fftalg         112
          getxred1          0
          getxred2         -1
          getxred3         -1
          getxred4         -1
          getxred5         -1
          getxred6         -1
          getxred7         -1
          getxred8         -1
          getxred9         -1
          getxred10        -1
           ionmov           2
              ixc     -101130
           jdtset        1    2    3    4    5    6    7    8    9   10
              kpt      0.00000000E+00 -1.25000000E-01  0.00000000E+00
                       0.00000000E+00 -3.75000000E-01  0.00000000E+00
                       1.25000000E-01 -2.50000000E-01  0.00000000E+00
                       1.25000000E-01 -1.25000000E-01  1.25000000E-01
                       1.25000000E-01  5.00000000E-01  0.00000000E+00
                       2.50000000E-01 -3.75000000E-01  0.00000000E+00
                       1.25000000E-01 -3.75000000E-01  1.25000000E-01
                       2.50000000E-01 -2.50000000E-01  1.25000000E-01
                       2.50000000E-01 -1.25000000E-01  2.50000000E-01
                       1.25000000E-01  2.50000000E-01  0.00000000E+00
                       2.50000000E-01  3.75000000E-01  0.00000000E+00
                       3.75000000E-01  5.00000000E-01  0.00000000E+00
                       1.25000000E-01  3.75000000E-01  1.25000000E-01
                       2.50000000E-01  5.00000000E-01  1.25000000E-01
                       3.75000000E-01 -3.75000000E-01  1.25000000E-01
                       2.50000000E-01 -3.75000000E-01  2.50000000E-01
                       3.75000000E-01 -2.50000000E-01  2.50000000E-01
                       3.75000000E-01 -1.25000000E-01  3.75000000E-01
                       5.00000000E-01  2.50000000E-01  1.25000000E-01
                      -3.75000000E-01  3.75000000E-01  1.25000000E-01
         kptrlatt        4    4   -4     -4    4    4      4   -4    4
          kptrlen1     8.23390102E+01
          kptrlen2     8.22565888E+01
          kptrlen3     8.21741673E+01
          kptrlen4     8.20917459E+01
          kptrlen5     8.20093245E+01
          kptrlen6     8.19269030E+01
          kptrlen7     8.18444816E+01
          kptrlen8     8.17620602E+01
          kptrlen9     8.16796387E+01
          kptrlen10    8.15972173E+01
P           mkmem           4
            natom           9
            nband          42
           ndtset          10
            ngfft          64      64      64
          ngfftdg          96      96      96
             nkpt          20
            nstep          50
             nsym          16
            ntime        1000
           ntypat           4
              occ      2.000000  2.000000  2.000000  2.000000  2.000000  2.000000
                       2.000000  2.000000  2.000000  2.000000  2.000000  2.000000
                       2.000000  2.000000  2.000000  2.000000  2.000000  2.000000
                       2.000000  2.000000  2.000000  2.000000  2.000000  2.000000
                       2.000000  2.000000  2.000000  2.000000  2.000000  2.000000
                       2.000000  2.000000  2.000000  2.000000  2.000000  2.000000
                       0.000000  0.000000  0.000000  0.000000  0.000000  0.000000
          optcell           3
        optforces           1
        pawecutdg      4.00000000E+01 Hartree
            prtwf           0
            rprim      0.0000000000E+00  7.0471449841E-01  7.0949099764E-01
                       7.0710678119E-01  0.0000000000E+00  7.0710678119E-01
                       7.0949099764E-01  7.0471449841E-01  0.0000000000E+00
           shiftk     -5.00000000E-01  5.00000000E-01  5.00000000E-01
          spgroup         139
           symrel      1  0  0   0  1  0   0  0  1      -1  0  0   0 -1  0   0  0 -1
                       0  0 -1   0 -1  0  -1  0  0       0  0  1   0  1  0   1  0  0
                       0 -1  1   0 -1  0   1 -1  0       0  1 -1   0  1  0  -1  1  0
                      -1  1  0   0  1  0   0  1 -1       1 -1  0   0 -1  0   0 -1  1
                       0 -1  1  -1  0  1   0  0  1       0  1 -1   1  0 -1   0  0 -1
                       0  0 -1   1  0 -1   0  1 -1       0  0  1  -1  0  1   0 -1  1
                       1  0  0   1  0 -1   1 -1  0      -1  0  0  -1  0  1  -1  1  0
                      -1  1  0  -1  0  1  -1  0  0       1 -1  0   1  0 -1   1  0  0
           toldff      1.00000000E-08
           tolmxf      1.00000000E-05
            typat      1  1  2  4  4  2  4  4  3
           useylm           1
              wtk        0.03125    0.03125    0.06250    0.03125    0.06250    0.06250
                         0.03125    0.06250    0.03125    0.06250    0.06250    0.06250
                         0.03125    0.06250    0.06250    0.03125    0.06250    0.03125
                         0.06250    0.06250
           xangst1     2.7417034161E+00  2.7232454734E+00  2.7417034161E+00
                       8.2251102484E+00  8.1697364203E+00  8.2251102484E+00
                       5.4834068324E+00  8.0465055782E+00  5.4834068324E+00
                       5.4834068324E+00  5.4464909469E+00  2.6032304988E+00
                       5.4834068322E+00  5.4464909469E+00  8.3635831657E+00
                       5.4834068322E+00  2.8464763155E+00  5.4834068322E+00
                       8.3635831657E+00  5.4464909469E+00  5.4834068322E+00
                       2.6032304988E+00  5.4464909469E+00  5.4834068324E+00
                       3.9773461206E-21 -5.6944290871E-21  3.4074707417E-21
           xangst2     2.7389589683E+00  2.7205195020E+00  2.7389589683E+00
                       8.2168769048E+00  8.1615585059E+00  8.2168769048E+00
                       5.4779179366E+00  8.0384510180E+00  5.4779179366E+00
                       5.4779179366E+00  5.4410390040E+00  2.6006246625E+00
                       5.4779179364E+00  5.4410390040E+00  8.3552112106E+00
                       5.4779179365E+00  2.8436269899E+00  5.4779179365E+00
                       8.3552112106E+00  5.4410390040E+00  5.4779179364E+00
                       2.6006246625E+00  5.4410390040E+00  5.4779179366E+00
                       3.9733647931E-21 -5.6887289579E-21  3.4040598601E-21
           xangst3     2.7362145204E+00  2.7177935305E+00  2.7362145204E+00
                       8.2086435612E+00  8.1533805916E+00  8.2086435612E+00
                       5.4724290409E+00  8.0303964579E+00  5.4724290409E+00
                       5.4724290409E+00  5.4355870611E+00  2.5980188261E+00
                       5.4724290407E+00  5.4355870611E+00  8.3468392555E+00
                       5.4724290407E+00  2.8407776643E+00  5.4724290407E+00
                       8.3468392555E+00  5.4355870611E+00  5.4724290407E+00
                       2.5980188261E+00  5.4355870611E+00  5.4724290409E+00
                       3.9693834657E-21 -5.6830288287E-21  3.4006489785E-21
           xangst4     2.7334700725E+00  2.7150675591E+00  2.7334700725E+00
                       8.2004102176E+00  8.1452026773E+00  8.2004102176E+00
                       5.4669401452E+00  8.0223418978E+00  5.4669401452E+00
                       5.4669401452E+00  5.4301351182E+00  2.5954129898E+00
                       5.4669401450E+00  5.4301351182E+00  8.3384673004E+00
[...]
                       3.9575375557E-21 -5.6656476279E-21  3.3905003541E-21
           xangst7     2.7252942532E+00  2.7067753744E+00  2.7252942532E+00
                       8.1758827596E+00  8.1203261233E+00  8.1758827596E+00
                       5.4505885065E+00  7.9846166511E+00  5.4505885065E+00
                       5.4505885065E+00  5.4135507489E+00  2.6028815237E+00
                       5.4505885063E+00  5.4135507489E+00  8.2982954891E+00
                       5.4505885063E+00  2.8424848466E+00  5.4505885063E+00
                       8.2982954891E+00  5.4135507489E+00  5.4505885063E+00
                       2.6028815237E+00  5.4135507489E+00  5.4505885065E+00
                       3.9535416054E-21 -5.6599893674E-21  3.3870769448E-21
           xangst8     2.7225360486E+00  2.7040767296E+00  2.7225360486E+00
                       8.1676081459E+00  8.1122301888E+00  8.1676081459E+00
                       5.4450720974E+00  7.9747978318E+00  5.4450720974E+00
                       5.4450720974E+00  5.4081534592E+00  2.6024237413E+00
                       5.4450720972E+00  5.4081534592E+00  8.2877204533E+00
                       5.4450720972E+00  2.8415090867E+00  5.4450720972E+00
                       8.2877204533E+00  5.4081534592E+00  5.4450720972E+00
                       2.6024237413E+00  5.4081534592E+00  5.4450720974E+00
                       3.9495403213E-21 -5.6543463794E-21  3.3836489660E-21
           xangst9     2.7194231492E+00  2.7020828138E+00  2.7194231492E+00
                       8.1582694475E+00  8.1062484413E+00  8.1582694475E+00
                       5.4388462984E+00  7.9677831738E+00  5.4388462984E+00
                       5.4388462984E+00  5.4041656275E+00  2.6019065566E+00
                       5.4388462982E+00  5.4041656275E+00  8.2757860401E+00
                       5.4388462982E+00  2.8405480813E+00  5.4388462982E+00
                       8.2757860401E+00  5.4041656275E+00  5.4388462982E+00
                       2.6019065566E+00  5.4041656275E+00  5.4388462984E+00
                       3.9450244869E-21 -5.6501770115E-21  3.3797801617E-21
           xangst10    2.7164578464E+00  2.6997957894E+00  2.7164578464E+00
                       8.1493735392E+00  8.0993873682E+00  8.1493735392E+00
                       5.4329156929E+00  7.9596342290E+00  5.4329156929E+00
                       5.4329156929E+00  5.3995915788E+00  2.6014171981E+00
                       5.4329156927E+00  5.3995915788E+00  8.2644141875E+00
                       5.4329156927E+00  2.8395489286E+00  5.4329156927E+00
                       8.2644141875E+00  5.3995915788E+00  5.4329156927E+00
                       2.6014171981E+00  5.3995915788E+00  5.4329156929E+00
                       3.7832463394E-21 -5.8024930617E-21  2.9449727218E-21
            xcart1     5.1811441926E+00  5.1460379616E+00  5.1811441926E+00
                       1.5543432578E+01  1.5438113885E+01  1.5543432578E+01
                       1.0362288385E+01  1.5201619564E+01  1.0362288385E+01
                       1.0362288385E+01  1.0292075923E+01  4.9235911689E+00
                       1.0362288385E+01  1.0292075923E+01  1.5800985601E+01
                       1.0362288385E+01  5.3825322823E+00  1.0362288385E+01
                       1.5800985601E+01  1.0292075923E+01  1.0362288385E+01
                       4.9235911689E+00  1.0292075923E+01  1.0362288385E+01
                       7.5162045731E-21 -1.0760597434E-20  6.4392804637E-21
            xcart2     5.1759754261E+00  5.1408518826E+00  5.1759754261E+00
                       1.5527926278E+01  1.5422555648E+01  1.5527926278E+01
                       1.0351950852E+01  1.5182540413E+01  1.0351950852E+01
                       1.0351950852E+01  1.0281703765E+01  4.9228273510E+00
                       1.0351950852E+01  1.0281703765E+01  1.5781074353E+01
                       1.0351950852E+01  5.3808671178E+00  1.0351950852E+01
                       1.5781074353E+01  1.0281703765E+01  1.0351950852E+01
                       4.9228273510E+00  1.0281703765E+01  1.0351950852E+01
                       7.5087063247E-21 -1.0749753108E-20  6.4328565666E-21
            xcart3     5.1708012360E+00  5.1356765774E+00  5.1708012360E+00
                       1.5512403708E+01  1.5407029732E+01  1.5512403708E+01
                       1.0341602472E+01  1.5163620503E+01  1.0341602472E+01
                       1.0341602472E+01  1.0271353155E+01  4.9220566216E+00
                       1.0341602472E+01  1.0271353155E+01  1.5761148322E+01
                       1.0341602472E+01  5.3790858061E+00  1.0341602472E+01
                       1.5761148322E+01  1.0271353155E+01  1.0341602472E+01
                       4.9220566216E+00  1.0271353155E+01  1.0341602472E+01
                       7.5012002083E-21 -1.0738931312E-20  6.4264259289E-21
            xcart4     5.1656414833E+00  5.1304725942E+00  5.1656414833E+00
                       1.5496924450E+01  1.5391417783E+01  1.5496924450E+01
                       1.0331282967E+01  1.5144625061E+01  1.0331282967E+01
                       1.0331282967E+01  1.0260945188E+01  4.9212460802E+00
                       1.0331282966E+01  1.0260945188E+01  1.5741319853E+01
                       1.0331282966E+01  5.3772653158E+00  1.0331282966E+01
                       1.5741319853E+01  1.0260945188E+01  1.0331282966E+01
                       4.9212460802E+00  1.0260945188E+01  1.0331282967E+01
                       7.4937150360E-21 -1.0728049548E-20  6.4200132344E-21
            xcart5     5.1604666857E+00  5.1252984962E+00  5.1604666857E+00
                       1.5481400057E+01  1.5375895489E+01  1.5481400057E+01
                       1.0320933372E+01  1.5125786820E+01  1.0320933372E+01
                       1.0320933372E+01  1.0250596992E+01  4.9204645015E+00
                       1.0320933371E+01  1.0250596992E+01  1.5721402241E+01
                       1.0320933371E+01  5.3754071651E+00  1.0320933371E+01
                       1.5721402241E+01  1.0250596992E+01  1.0320933371E+01
                       4.9204645015E+00  1.0250596992E+01  1.0320933372E+01
                       7.4862080384E-21 -1.0717230276E-20  6.4135818418E-21
            xcart6     5.1552650733E+00  5.1201776626E+00  5.1552650733E+00
                       1.5465795220E+01  1.5360532988E+01  1.5465795220E+01
                       1.0310530147E+01  1.5107208768E+01  1.0310530147E+01
                       1.0310530147E+01  1.0240355325E+01  4.9196858245E+00
                       1.0310530146E+01  1.0240355325E+01  1.5701374469E+01
                       1.0310530146E+01  5.3735018826E+00  1.0310530146E+01
                       1.5701374469E+01  1.0240355325E+01  1.0310530146E+01
                       4.9196858245E+00  1.0240355325E+01  1.0310530147E+01
                       7.4786621409E-21 -1.0706522382E-20  6.4071171228E-21
            xcart7     5.1500597701E+00  5.1150641609E+00  5.1500597701E+00
                       1.5450179310E+01  1.5345192483E+01  1.5450179310E+01
                       1.0300119540E+01  1.5088738747E+01  1.0300119540E+01
                       1.0300119540E+01  1.0230128322E+01  4.9187332362E+00
                       1.0300119540E+01  1.0230128322E+01  1.5681505844E+01
                       1.0300119540E+01  5.3715178969E+00  1.0300119540E+01
                       1.5681505844E+01  1.0230128322E+01  1.0300119540E+01
                       4.9187332362E+00  1.0230128322E+01  1.0300119540E+01
                       7.4711108892E-21 -1.0695829819E-20  6.4006478167E-21
            xcart8     5.1448475188E+00  5.1099644613E+00  5.1448475188E+00
                       1.5434542557E+01  1.5329893384E+01  1.5434542557E+01
                       1.0289695038E+01  1.5070183867E+01  1.0289695038E+01
                       1.0289695038E+01  1.0219928923E+01  4.9178681528E+00
                       1.0289695038E+01  1.0219928923E+01  1.5661521923E+01
                       1.0289695038E+01  5.3696739779E+00  1.0289695038E+01
                       1.5661521923E+01  1.0219928923E+01  1.0289695038E+01
                       4.9178681528E+00  1.0219928923E+01  1.0289695038E+01
                       7.4635495581E-21 -1.0685166118E-20  6.3941698755E-21
            xcart9     5.1389649914E+00  5.1061965064E+00  5.1389649914E+00
                       1.5416894974E+01  1.5318589519E+01  1.5416894974E+01
                       1.0277929983E+01  1.5056928085E+01  1.0277929983E+01
                       1.0277929983E+01  1.0212393013E+01  4.9168908153E+00
                       1.0277929983E+01  1.0212393013E+01  1.5638969150E+01
                       1.0277929983E+01  5.3678579409E+00  1.0277929983E+01
                       1.5638969150E+01  1.0212393013E+01  1.0277929983E+01
                       4.9168908153E+00  1.0212393013E+01  1.0277929983E+01
                       7.4550158678E-21 -1.0677287154E-20  6.3868588950E-21
            xcart10    5.1333613812E+00  5.1018746567E+00  5.1333613812E+00
                       1.5400084144E+01  1.5305623970E+01  1.5400084144E+01
                       1.0266722763E+01  1.5041528811E+01  1.0266722763E+01
                       1.0266722763E+01  1.0203749313E+01  4.9159660617E+00
                       1.0266722762E+01  1.0203749313E+01  1.5617479463E+01
                       1.0266722762E+01  5.3659698159E+00  1.0266722762E+01
                       1.5617479463E+01  1.0203749313E+01  1.0266722762E+01
                       4.9159660617E+00  1.0203749313E+01  1.0266722763E+01
                       7.1492994747E-21 -1.0965122775E-20  5.5651919130E-21
             xred1     2.5000000000E-01  2.5000000000E-01  2.5000000000E-01
                       7.5000000000E-01  7.5000000000E-01  7.5000000000E-01
                       7.3851085425E-01  2.6148914575E-01  7.3851085425E-01
                       2.3757257982E-01  2.3757257982E-01  7.6242742018E-01
                       7.6242742018E-01  7.6242742018E-01  2.3757257982E-01
                       2.6148914575E-01  7.3851085425E-01  2.6148914575E-01
                       2.3757257982E-01  7.6242742018E-01  7.6242742018E-01
                       7.6242742018E-01  2.3757257982E-01  2.3757257982E-01
                      -5.7472489725E-22  1.1961398034E-21 -4.7079764978E-22
             xred2     2.5000000000E-01  2.5000000000E-01  2.5000000000E-01
                       7.5000000000E-01  7.5000000000E-01  7.5000000000E-01
                       7.3832804170E-01  2.6167195830E-01  7.3832804170E-01
                       2.3777292905E-01  2.3777292905E-01  7.6222707095E-01
                       7.6222707095E-01  7.6222707095E-01  2.3777292905E-01
                       2.6167195830E-01  7.3832804170E-01  2.6167195830E-01
                       2.3777292905E-01  7.6222707095E-01  7.6222707095E-01
                       7.6222707095E-01  2.3777292905E-01  2.3777292905E-01
                      -5.7472489725E-22  1.1961398034E-21 -4.7079764978E-22
             xred3     2.5000000000E-01  2.5000000000E-01  2.5000000000E-01
                       7.5000000000E-01  7.5000000000E-01  7.5000000000E-01
                       7.3815106320E-01  2.6184893680E-01  7.3815106320E-01
                       2.3797359427E-01  2.3797359427E-01  7.6202640573E-01
                       7.6202640573E-01  7.6202640573E-01  2.3797359427E-01
                       2.6184893680E-01  7.3815106320E-01  2.6184893680E-01
                       2.3797359427E-01  7.6202640573E-01  7.6202640573E-01
                       7.6202640573E-01  2.3797359427E-01  2.3797359427E-01
                      -5.7472489725E-22  1.1961398034E-21 -4.7079764978E-22
             xred4     2.5000000000E-01  2.5000000000E-01  2.5000000000E-01
                       7.5000000000E-01  7.5000000000E-01  7.5000000000E-01
                       7.3797417211E-01  2.6202582789E-01  7.3797417211E-01
                       2.3817206905E-01  2.3817206905E-01  7.6182793095E-01
                       7.6182793095E-01  7.6182793095E-01  2.3817206905E-01
                       2.6202582789E-01  7.3797417211E-01  2.6202582789E-01
                       2.3817206905E-01  7.6182793095E-01  7.6182793095E-01
                       7.6182793095E-01  2.3817206905E-01  2.3817206905E-01
                      -5.7472489725E-22  1.1961398034E-21 -4.7079764978E-22
             xred5     2.5000000000E-01  2.5000000000E-01  2.5000000000E-01
                       7.5000000000E-01  7.5000000000E-01  7.5000000000E-01
                       7.3780028768E-01  2.6219971232E-01  7.3780028768E-01
                       2.3837303878E-01  2.3837303878E-01  7.6162696122E-01
                       7.6162696122E-01  7.6162696122E-01  2.3837303878E-01
                       2.6219971232E-01  7.3780028768E-01  2.6219971232E-01
                       2.3837303878E-01  7.6162696122E-01  7.6162696122E-01
                       7.6162696122E-01  2.3837303878E-01  2.3837303878E-01
                      -5.7472489725E-22  1.1961398034E-21 -4.7079764978E-22
             xred6     2.5000000000E-01  2.5000000000E-01  2.5000000000E-01
                       7.5000000000E-01  7.5000000000E-01  7.5000000000E-01
                       7.3763108252E-01  2.6236891748E-01  7.3763108252E-01
                       2.3857579361E-01  2.3857579361E-01  7.6142420639E-01
                       7.6142420639E-01  7.6142420639E-01  2.3857579361E-01
                       2.6236891748E-01  7.3763108252E-01  2.6236891748E-01
                       2.3857579361E-01  7.6142420639E-01  7.6142420639E-01
                       7.6142420639E-01  2.3857579361E-01  2.3857579361E-01
                      -5.7472489725E-22  1.1961398034E-21 -4.7079764978E-22
             xred7     2.5000000000E-01  2.5000000000E-01  2.5000000000E-01
                       7.5000000000E-01  7.5000000000E-01  7.5000000000E-01
                       7.3746576153E-01  2.6253423847E-01  7.3746576153E-01
                       2.3877068693E-01  2.3877068693E-01  7.6122931307E-01
                       7.6122931307E-01  7.6122931307E-01  2.3877068693E-01
                       2.6253423847E-01  7.3746576153E-01  2.6253423847E-01
                       2.3877068693E-01  7.6122931307E-01  7.6122931307E-01
                       7.6122931307E-01  2.3877068693E-01  2.3877068693E-01
                      -5.7472489725E-22  1.1961398034E-21 -4.7079764978E-22
             xred8     2.5000000000E-01  2.5000000000E-01  2.5000000000E-01
                       7.5000000000E-01  7.5000000000E-01  7.5000000000E-01
                       7.3729396659E-01  2.6270603341E-01  7.3729396659E-01
                       2.3897054941E-01  2.3897054941E-01  7.6102945059E-01
                       7.6102945059E-01  7.6102945059E-01  2.3897054941E-01
                       2.6270603341E-01  7.3729396659E-01  2.6270603341E-01
                       2.3897054941E-01  7.6102945059E-01  7.6102945059E-01
                       7.6102945059E-01  2.3897054941E-01  2.3897054941E-01
                      -5.7472489725E-22  1.1961398034E-21 -4.7079764978E-22
             xred9     2.5000000000E-01  2.5000000000E-01  2.5000000000E-01
                       7.5000000000E-01  7.5000000000E-01  7.5000000000E-01
                       7.3718902444E-01  2.6281097556E-01  7.3718902444E-01
                       2.3919655143E-01  2.3919655143E-01  7.6080344857E-01
                       7.6080344857E-01  7.6080344857E-01  2.3919655143E-01
                       2.6281097556E-01  7.3718902444E-01  2.6281097556E-01
                       2.3919655143E-01  7.6080344857E-01  7.6080344857E-01
                       7.6080344857E-01  2.3919655143E-01  2.3919655143E-01
                      -5.7472489725E-22  1.1961398034E-21 -4.7079764978E-22
             xred10    2.5000000000E-01  2.5000000000E-01  2.5000000000E-01
                       7.5000000000E-01  7.5000000000E-01  7.5000000000E-01
                       7.3705891574E-01  2.6294108426E-01  7.3705891574E-01
                       2.3941262346E-01  2.3941262346E-01  7.6058737654E-01
                       7.6058737654E-01  7.6058737654E-01  2.3941262346E-01
                       2.6294108426E-01  7.3705891574E-01  2.6294108426E-01
                       2.3941262346E-01  7.6058737654E-01  7.6058737654E-01
                       7.6058737654E-01  2.3941262346E-01  2.3941262346E-01
                      -6.1445618865E-22  1.1565173743E-21 -4.6016084063E-22
            znucl       55.00000   53.00000   72.00000   35.00000

- Timing analysis has been suppressed with timopt=0

 Suggested references for the acknowledgment of ABINIT usage.

 Calculation completed.
.Delivered   0 WARNINGs and  64 COMMENTs to log file.