.Version 9.2.2 of ABINIT

 ABINIT is a project of the Universite Catholique de Louvain,
 Corning Inc. and other collaborators, see ~abinit/doc/developers/contributors.txt .
 acknowledgments of the ABINIT effort.

.Starting date : Wed  7 Dec 2022.
- ( at 17h16 )

- The starting date is more than 2 years after the initial release
- of this version of ABINIT, namely Nov 2020.
- Note that the use beyond 3 years after the release will not be supported.
- Action: please, switch to a more recent version of ABINIT.

- input  file    -> Cs2TiI6.in
- output file    -> Cs2TiI6.out
- root for input  files -> Cs2TiI6i
- root for output files -> Cs2TiI6o

- inpspheads : Reading pseudopotential header in XML form from
-   ../../../Psps_for_tests/ATOMICDATA/Cs.GGA_PBE-JTH.xml
- inpspheads : Reading pseudopotential header in XML form from
-   ../../../Psps_for_tests/ATOMICDATA/I.GGA_PBE-JTH.xml
- inpspheads : Reading pseudopotential header in XML form from
-   ../../../Psps_for_tests/ATOMICDATA/Zr.GGA_PBE-JTH.xml
- inpspheads : Reading pseudopotential header in XML form from
-   ../../../Psps_for_tests/ATOMICDATA/Cl.GGA_PBE-JTH.xml

 DATASET    1 : space group Im m 2 (# 44); Bravais oI (body-center ortho.)
     intxc =       0    ionmov =       0      iscf =      17    lmnmax =      18
     lnmax =       6     mgfft =      60  mpssoang =       3    mqgrid =    3569
     natom =       9  nloc_mem =       2    nspden =       1   nspinor =       1
    nsppol =       1      nsym =       4    n1xccc =       1    ntypat =       4
    occopt =       1   xclevel =       2
-    mband =          42        mffmem =           1         mkmem =          70
       mpw =        7592          nfft =      216000          nkpt =         280
Pmy_natom=         3
 PAW method is used; the additional fine FFT grid is defined by:
   mgfftf=        90    nfftf =    729000
  Rough estimation (10% accuracy) of disk space for files :

[...]

 DATASET    3 : space group Im m 2 (# 44); Bravais oI (body-center ortho.)
     intxc =       0    ionmov =       0      iscf =      17    lmnmax =      18
     lnmax =       6     mgfft =      60  mpssoang =       3    mqgrid =    3569
     natom =       9  nloc_mem =       2    nspden =       1   nspinor =       1
    nsppol =       1      nsym =       4    n1xccc =       1    ntypat =       4
    occopt =       1   xclevel =       2
-    mband =          42        mffmem =           1         mkmem =          70
       mpw =        7592          nfft =      216000          nkpt =         280
Pmy_natom=         3
 PAW method is used; the additional fine FFT grid is defined by:
   mgfftf=        90    nfftf =    729000
  Rough estimation (10% accuracy) of disk space for files :

 DATASET    4 : space group I4/m m m (#139); Bravais tI (body-center tetrag.)
     intxc =       0    ionmov =       0      iscf =      17    lmnmax =      18
     lnmax =       6     mgfft =      60  mpssoang =       3    mqgrid =    3508
     natom =       9  nloc_mem =       2    nspden =       1   nspinor =       1
    nsppol =       1      nsym =      16    n1xccc =       1    ntypat =       4
    occopt =       1   xclevel =       2
-    mband =          42        mffmem =           1         mkmem =          41
       mpw =        7475          nfft =      216000          nkpt =         163
Pmy_natom=         3
 PAW method is used; the additional fine FFT grid is defined by:
   mgfftf=        90    nfftf =    729000
  Rough estimation (10% accuracy) of disk space for files :

------------- Echo of variables that govern the present computation ------------
-
- outvars: echo of selected default values
-   iomode0 =  0 , fftalg0 =112 , wfoptalg0 = 10
-
- outvars: echo of global parameters not present in the input file
-  max_nthreads =    0
-
 -outvars: echo values of preprocessed input variables --------
            acell1     1.5145584566E+01  1.5516755279E+01  1.5145584566E+01 Bohr
            acell2     1.5516754394E+01  1.5145583795E+01  1.5145583795E+01 Bohr
            acell3     1.4993459791E+01  1.5145593006E+01  1.5145593006E+01 Bohr
            acell4     1.5024864712E+01  1.5024864712E+01  1.5227084469E+01 Bohr
              amu      1.32905430E+02  1.26904470E+02  9.12240000E+01
                       3.54527000E+01
           diemac      1.20000000E+01
             ecut      1.60000000E+01 Hartree
-          fftalg         112
           istwfk1       2    0    0    0    0    0    3    0    0    0
                         0    0    0    0    0    0    0    0    0    0
                         0    0    0    0    0    0    0    0    0    0
                         0    0    0    0    0    0    0    0    0    0
                         0    0    0    0    0    0    0    0    0    0
           istwfk2       2    0    0    0    0    0    3    0    0    0
                         0    0    0    0    0    0    0    0    0    0
                         0    0    0    0    0    0    0    0    0    0
                         0    0    0    0    0    0    0    0    0    0
                         0    0    0    0    0    0    0    0    0    0
           istwfk3       2    0    0    0    0    0    3    0    0    0
                         0    0    0    0    0    0    0    0    0    0
                         0    0    0    0    0    0    0    0    0    0
                         0    0    0    0    0    0    0    0    0    0
                         0    0    0    0    0    0    0    0    0    0
           istwfk4       2    0    0    0    0    0    3    0    0    0
                         0    0    0    0    0    0    0    0    0    0
                         0    0    0    0    0    0    0    0    0    0
                         0    0    0    0    0    0    0    0    0    0
                         0    0    7    0    0    0    0    0    0    0
                       outvar_i_n : Printing only first  50 k-points.
              ixc     -101130
           jdtset        1    2    3    4
              kpt1     0.00000000E+00  0.00000000E+00  0.00000000E+00
                       8.33333333E-02  0.00000000E+00  0.00000000E+00
                       1.66666667E-01  0.00000000E+00  0.00000000E+00
                       2.50000000E-01  0.00000000E+00  0.00000000E+00
                       3.33333333E-01  0.00000000E+00  0.00000000E+00
                       4.16666667E-01  0.00000000E+00  0.00000000E+00
                       5.00000000E-01  0.00000000E+00  0.00000000E+00
                       0.00000000E+00  8.33333333E-02  0.00000000E+00
                       8.33333333E-02  8.33333333E-02  0.00000000E+00
                       1.66666667E-01  8.33333333E-02  0.00000000E+00
                       2.50000000E-01  8.33333333E-02  0.00000000E+00
                       3.33333333E-01  8.33333333E-02  0.00000000E+00
                       4.16666667E-01  8.33333333E-02  0.00000000E+00
                       5.00000000E-01  8.33333333E-02  0.00000000E+00
                      -4.16666667E-01  8.33333333E-02  0.00000000E+00
                      -3.33333333E-01  8.33333333E-02  0.00000000E+00
                      -2.50000000E-01  8.33333333E-02  0.00000000E+00
                      -1.66666667E-01  8.33333333E-02  0.00000000E+00
                      -8.33333333E-02  8.33333333E-02  0.00000000E+00
                       0.00000000E+00  1.66666667E-01  0.00000000E+00
                       8.33333333E-02  1.66666667E-01  0.00000000E+00
                       1.66666667E-01  1.66666667E-01  0.00000000E+00
                       2.50000000E-01  1.66666667E-01  0.00000000E+00
                       3.33333333E-01  1.66666667E-01  0.00000000E+00
                       4.16666667E-01  1.66666667E-01  0.00000000E+00
                       5.00000000E-01  1.66666667E-01  0.00000000E+00
                      -4.16666667E-01  1.66666667E-01  0.00000000E+00
                      -3.33333333E-01  1.66666667E-01  0.00000000E+00
                      -2.50000000E-01  1.66666667E-01  0.00000000E+00
                      -1.66666667E-01  1.66666667E-01  0.00000000E+00
                      -8.33333333E-02  1.66666667E-01  0.00000000E+00
                       0.00000000E+00  2.50000000E-01  0.00000000E+00
                       8.33333333E-02  2.50000000E-01  0.00000000E+00
                       1.66666667E-01  2.50000000E-01  0.00000000E+00
                       2.50000000E-01  2.50000000E-01  0.00000000E+00
                       3.33333333E-01  2.50000000E-01  0.00000000E+00
                       4.16666667E-01  2.50000000E-01  0.00000000E+00
                       5.00000000E-01  2.50000000E-01  0.00000000E+00
                      -4.16666667E-01  2.50000000E-01  0.00000000E+00
                      -3.33333333E-01  2.50000000E-01  0.00000000E+00
                      -2.50000000E-01  2.50000000E-01  0.00000000E+00
                      -1.66666667E-01  2.50000000E-01  0.00000000E+00
                      -8.33333333E-02  2.50000000E-01  0.00000000E+00
                       0.00000000E+00  3.33333333E-01  0.00000000E+00
                       8.33333333E-02  3.33333333E-01  0.00000000E+00
                       1.66666667E-01  3.33333333E-01  0.00000000E+00
                       2.50000000E-01  3.33333333E-01  0.00000000E+00
                       3.33333333E-01  3.33333333E-01  0.00000000E+00
                       4.16666667E-01  3.33333333E-01  0.00000000E+00
                       5.00000000E-01  3.33333333E-01  0.00000000E+00
              kpt2     0.00000000E+00  0.00000000E+00  0.00000000E+00
                       8.33333333E-02  0.00000000E+00  0.00000000E+00
                       1.66666667E-01  0.00000000E+00  0.00000000E+00
                       2.50000000E-01  0.00000000E+00  0.00000000E+00
                       3.33333333E-01  0.00000000E+00  0.00000000E+00
                       4.16666667E-01  0.00000000E+00  0.00000000E+00
                       5.00000000E-01  0.00000000E+00  0.00000000E+00
                       0.00000000E+00  8.33333333E-02  0.00000000E+00
                       8.33333333E-02  8.33333333E-02  0.00000000E+00
                       1.66666667E-01  8.33333333E-02  0.00000000E+00
                       2.50000000E-01  8.33333333E-02  0.00000000E+00
                       3.33333333E-01  8.33333333E-02  0.00000000E+00
                       4.16666667E-01  8.33333333E-02  0.00000000E+00
                       5.00000000E-01  8.33333333E-02  0.00000000E+00
                      -4.16666667E-01  8.33333333E-02  0.00000000E+00
                      -3.33333333E-01  8.33333333E-02  0.00000000E+00
                      -2.50000000E-01  8.33333333E-02  0.00000000E+00
                      -1.66666667E-01  8.33333333E-02  0.00000000E+00
                      -8.33333333E-02  8.33333333E-02  0.00000000E+00
                       0.00000000E+00  1.66666667E-01  0.00000000E+00
                       8.33333333E-02  1.66666667E-01  0.00000000E+00
                       1.66666667E-01  1.66666667E-01  0.00000000E+00
                       2.50000000E-01  1.66666667E-01  0.00000000E+00
                       3.33333333E-01  1.66666667E-01  0.00000000E+00
[...]
                       2.000000  2.000000  2.000000  2.000000  2.000000  2.000000
                       2.000000  2.000000  2.000000  2.000000  2.000000  2.000000
                       2.000000  2.000000  2.000000  2.000000  2.000000  2.000000
                       2.000000  2.000000  2.000000  2.000000  2.000000  2.000000
                       2.000000  2.000000  2.000000  2.000000  2.000000  2.000000
                       0.000000  0.000000  0.000000  0.000000  0.000000  0.000000
        pawecutdg      4.00000000E+01 Hartree
            prtwf           0
            rprim1     1.2215289848E-02  7.0184956085E-01  7.1222045788E-01
                       7.0710678119E-01  0.0000000000E+00  7.0710678119E-01
                       7.1222045788E-01  7.0184956085E-01  1.2215289848E-02
            rprim2     0.0000000000E+00  7.0710678119E-01  7.0710678119E-01
                       7.0184954025E-01  1.2215264641E-02  7.1222047862E-01
                       7.0184954025E-01  7.1222047862E-01  1.2215264641E-02
            rprim3     0.0000000000E+00  7.0710678119E-01  7.0710678119E-01
                       7.0185064591E-01 -1.2215295781E-02  7.1221938852E-01
                       7.0185064591E-01  7.1221938852E-01 -1.2215295781E-02
            rprim4     0.0000000000E+00  7.1662373620E-01  6.9745997786E-01
                       7.1662373620E-01  0.0000000000E+00  6.9745997786E-01
                       7.0710678119E-01  7.0710678119E-01  0.0000000000E+00
          spgroup1         44
          spgroup2         44
          spgroup3         44
          spgroup4        139
           strten1     3.7567347511E-06  3.8198402902E-06  3.7567347511E-06
                       0.0000000000E+00 -1.2908401930E-08  0.0000000000E+00
           strten2     3.8257604969E-06  3.7603228538E-06  3.7603228538E-06
                      -1.3199128040E-08  6.7667811331E-14  6.7667722505E-14
           strten3     3.8232694648E-06  3.7575967026E-06  3.7575967026E-06
                       1.2986226153E-08  9.3089182816E-14  9.3089179522E-14
           strten4     3.9787448716E-06  3.9787448716E-06  3.9495479960E-06
                      -5.2991059888E-15 -5.2984955896E-15  1.0314171738E-14
           symafm1       1    1    1    1
           symafm2       1    1    1    1
           symafm3       1    1    1    1
           symafm4       1    1    1    1    1    1    1    1    1    1
                         1    1    1    1    1    1
           symrel1     1  0  0   0  1  0   0  0  1       0  1 -1   0  1  0  -1  1  0
                       0  0 -1   0 -1  0  -1  0  0       1 -1  0   0 -1  0   0 -1  1
           symrel2     1  0  0   0  1  0   0  0  1       1  0  0   1  0 -1   1 -1  0
                      -1  0  0   0  0 -1   0 -1  0      -1  0  0  -1  1  0  -1  0  1
           symrel3     1  0  0   0  1  0   0  0  1       1  0  0   1  0 -1   1 -1  0
                       1  0  0   0  0  1   0  1  0       1  0  0   1 -1  0   1  0 -1
           symrel4     1  0  0   0  1  0   0  0  1      -1  0  0   0 -1  0   0  0 -1
                      -1  0  1   0 -1  1   0  0  1       1  0 -1   0  1 -1   0  0 -1
                       0  1 -1   1  0 -1   0  0 -1       0 -1  1  -1  0  1   0  0  1
                       0 -1  0  -1  0  0   0  0 -1       0  1  0   1  0  0   0  0  1
                       1  0  0   1  0 -1   1 -1  0      -1  0  0  -1  0  1  -1  1  0
                       0 -1  0   0 -1  1   1 -1  0       0  1  0   0  1 -1  -1  1  0
                       0  1 -1   0  1  0  -1  1  0       0 -1  1   0 -1  0   1 -1  0
                      -1  0  1  -1  0  0  -1  1  0       1  0 -1   1  0  0   1 -1  0
            tnons1     0.0000000  0.0000000  0.0000000     0.0000000 -0.0000000  0.0000000
                       0.0000000 -0.0000000  0.0000000     0.0000000  0.0000000  0.0000000
            tnons2     0.0000000  0.0000000  0.0000000    -0.0000000  0.0000000  0.0000000
                       0.0000000  0.0000000  0.0000000     0.0000000  0.0000000  0.0000000
            tnons3     0.0000000  0.0000000  0.0000000     0.0000000 -0.0000000 -0.0000000
                       0.0000000 -0.0000000  0.0000000     0.0000000 -0.0000000 -0.0000000
            tnons4     0.0000000  0.0000000  0.0000000    -0.0000000  0.0000000 -0.0000000
                      -0.0000000  0.0000000 -0.0000000     0.0000000  0.0000000 -0.0000000
                      -0.0000000  0.0000000 -0.0000000     0.0000000  0.0000000 -0.0000000
                       0.0000000  0.0000000 -0.0000000    -0.0000000  0.0000000  0.0000000
                       0.0000000 -0.0000000 -0.0000000    -0.0000000  0.0000000 -0.0000000
                       0.0000000 -0.0000000 -0.0000000    -0.0000000  0.0000000 -0.0000000
                      -0.0000000  0.0000000 -0.0000000     0.0000000 -0.0000000 -0.0000000
                      -0.0000000  0.0000000 -0.0000000     0.0000000 -0.0000000 -0.0000000
           toldfe      1.00000000E-08 Hartree
            typat1     1  1  2  4  2  4  4  4  3
            typat2     1  1  2  4  4  2  4  4  3
            typat3     1  1  4  2  4  2  4  4  3
            typat4     1  1  2  2  4  4  4  4  3
           useylm           1
              wtk1       0.00058    0.00231    0.00231    0.00231    0.00231    0.00231
                         0.00116    0.00231    0.00231    0.00463    0.00463    0.00463
                         0.00463    0.00463    0.00463    0.00463    0.00463    0.00463
                         0.00463    0.00231    0.00463    0.00231    0.00463    0.00463
                         0.00463    0.00463    0.00463    0.00463    0.00463    0.00463
                         0.00463    0.00231    0.00463    0.00463    0.00231    0.00463
                         0.00463    0.00463    0.00463    0.00463    0.00463    0.00463
                         0.00463    0.00231    0.00463    0.00463    0.00463    0.00231
                         0.00463    0.00463
              wtk2       0.00058    0.00231    0.00231    0.00231    0.00231    0.00231
                         0.00116    0.00231    0.00231    0.00463    0.00463    0.00463
                         0.00463    0.00463    0.00463    0.00463    0.00463    0.00463
                         0.00463    0.00231    0.00463    0.00231    0.00463    0.00463
                         0.00463    0.00463    0.00463    0.00463    0.00463    0.00463
                         0.00463    0.00231    0.00463    0.00463    0.00231    0.00463
                         0.00463    0.00463    0.00463    0.00463    0.00463    0.00463
                         0.00463    0.00231    0.00463    0.00463    0.00463    0.00231
                         0.00463    0.00463
              wtk3       0.00058    0.00231    0.00231    0.00231    0.00231    0.00231
                         0.00116    0.00231    0.00231    0.00463    0.00463    0.00463
                         0.00463    0.00463    0.00463    0.00463    0.00463    0.00463
                         0.00463    0.00231    0.00463    0.00231    0.00463    0.00463
                         0.00463    0.00463    0.00463    0.00463    0.00463    0.00463
                         0.00463    0.00231    0.00463    0.00463    0.00231    0.00463
                         0.00463    0.00463    0.00463    0.00463    0.00463    0.00463
                         0.00463    0.00231    0.00463    0.00463    0.00463    0.00231
                         0.00463    0.00463
              wtk4       0.00058    0.00463    0.00463    0.00463    0.00463    0.00463
                         0.00231    0.00116    0.00463    0.00463    0.00463    0.00463
                         0.00463    0.00463    0.00463    0.00463    0.00463    0.00231
                         0.00116    0.00463    0.00463    0.00463    0.00463    0.00463
                         0.00463    0.00463    0.00231    0.00116    0.00463    0.00463
                         0.00463    0.00463    0.00463    0.00231    0.00116    0.00463
                         0.00463    0.00463    0.00231    0.00116    0.00463    0.00231
                         0.00058    0.00231    0.00926    0.00926    0.00926    0.00926
                         0.00926    0.00926
                       outvars : Printing only first  50 k-points.
           xangst1     2.9441207046E+00  2.7679537435E+00  2.8620131520E+00
                       8.7502545612E+00  8.4822710288E+00  8.6681470086E+00
                       5.7355778468E+00  5.6251123861E+00  2.9399014166E+00
                       5.9264410096E+00  5.6251123861E+00  8.9632648100E+00
                       8.6723662966E+00  5.6251123861E+00  5.8766898664E+00
                       5.8399502965E+00  8.7830562641E+00  5.7723174167E+00
                       5.8399502965E+00  2.4671685081E+00  5.7723174167E+00
                       2.6490029032E+00  5.6251123861E+00  5.6858267036E+00
                       9.1406938007E-02  2.1274389311E-17 -9.1406938007E-02
           xangst2     2.7679534521E+00  2.9441208649E+00  2.8620126604E+00
                       8.4822704173E+00  8.7502543902E+00  8.6681461858E+00
                       5.6251119347E+00  5.7355775545E+00  2.9399013215E+00
                       5.6251119347E+00  5.9264403820E+00  8.9632643783E+00
                       8.7830553089E+00  5.8399498831E+00  5.7723171675E+00
                       5.6251119347E+00  8.6723657292E+00  5.8766894961E+00
                       5.6251119347E+00  2.6490026724E+00  5.6858266687E+00
                       2.4671685604E+00  5.8399498832E+00  5.7723171676E+00
                       2.0893232247E-18  9.1406843109E-02 -9.1406843109E-02
           xangst3     2.8571793834E+00  2.8462204031E+00  2.8462204031E+00
                       8.3930690510E+00  8.4565450458E+00  8.4565450458E+00
                       5.6251242172E+00  5.7306268113E+00  2.4531969829E+00
                       5.6251242172E+00  5.5397644557E+00  8.4765511962E+00
                       8.7830802344E+00  5.6441434678E+00  5.6441434678E+00
                       5.6251242172E+00  8.4765511962E+00  5.5397644557E+00
                       5.6251242172E+00  2.4531969829E+00  5.7306268113E+00
                       2.4671682000E+00  5.6441434679E+00  5.6441434679E+00
                      -4.2935354153E-16  9.1405311420E-02  9.1405311420E-02
           xangst4     2.8488717223E+00  2.8488717223E+00  2.7726879644E+00
                       8.5466151669E+00  8.5466151669E+00  8.3180638932E+00
                       5.6977434446E+00  5.6977434446E+00  2.9126881817E+00
                       5.6977434446E+00  5.6977434446E+00  8.1780636759E+00
                       8.9217838578E+00  5.6977434446E+00  5.5453759288E+00
                       5.6977434446E+00  8.9217838578E+00  5.5453759288E+00
                       5.6977434446E+00  2.4737030315E+00  5.5453759288E+00
                       2.4737030315E+00  5.6977434446E+00  5.5453759288E+00
                      -2.5076685300E-20 -3.6520931994E-20  8.4244773844E-21
            xcart1     5.5635818338E+00  5.2306745236E+00  5.4084210461E+00
                       1.6535584714E+01  1.6029169229E+01  1.6380423926E+01
                       1.0838671344E+01  1.0629921876E+01  5.5556085351E+00
                       1.1199350451E+01  1.0629921876E+01  1.6938115747E+01
                       1.6388397225E+01  1.0629921876E+01  1.1105334415E+01
                       1.1035906690E+01  1.6597570949E+01  1.0908099070E+01
                       1.1035906690E+01  4.6622728041E+00  1.0908099070E+01
                       5.0058900122E+00  1.0629921876E+01  1.0744655309E+01
                       1.7273407948E-01  4.0202769442E-17 -1.7273407948E-01
            xcart2     5.2306739730E+00  5.5635821368E+00  5.4084201171E+00
                       1.6029168074E+01  1.6535584391E+01  1.6380422371E+01
                       1.0629921023E+01  1.0838670792E+01  5.5556083554E+00
                       1.0629921023E+01  1.1199349265E+01  1.6938114932E+01
                       1.6597569144E+01  1.1035905909E+01  1.0908098599E+01
                       1.0629921023E+01  1.6388396152E+01  1.1105333716E+01
                       1.0629921023E+01  5.0058895761E+00  1.0744655243E+01
                       4.6622729028E+00  1.1035905909E+01  1.0908098599E+01
                       3.9482486978E-18  1.7273390015E-01 -1.7273390015E-01
            xcart3     5.3992865471E+00  5.3785770756E+00  5.3785770756E+00
                       1.5860601921E+01  1.5980554167E+01  1.5980554167E+01
                       1.0629944234E+01  1.0829315243E+01  4.6358704477E+00
                       1.0629944234E+01  1.0468637662E+01  1.6018360312E+01
                       1.6597616246E+01  1.0665885409E+01  1.0665885409E+01
                       1.0629944234E+01  1.6018360312E+01  1.0468637662E+01
                       1.0629944234E+01  4.6358704477E+00  1.0829315243E+01
                       4.6622722218E+00  1.0665885409E+01  1.0665885409E+01
                      -8.1136060768E-16  1.7273100568E-01  1.7273100568E-01
            xcart4     5.3835873429E+00  5.3835873429E+00  5.2396209047E+00
                       1.6150762029E+01  1.6150762029E+01  1.5718862714E+01
                       1.0767174686E+01  1.0767174686E+01  5.5041829740E+00
                       1.0767174686E+01  1.0767174686E+01  1.5454300645E+01
                       1.6859728108E+01  1.0767174686E+01  1.0479241809E+01
                       1.0767174686E+01  1.6859728108E+01  1.0479241809E+01
                       1.0767174686E+01  4.6746212635E+00  1.0479241809E+01
                       4.6746212635E+00  1.0767174686E+01  1.0479241809E+01
                      -4.7388067537E-20 -6.9014559587E-20  1.5919955069E-20
             xred1     2.3871788396E-01  2.5396458297E-01  2.5335295009E-01
                       7.4664704991E-01  7.4603541703E-01  7.6128211604E-01
                       2.5084563981E-01  2.4709604340E-01  7.4915436019E-01
                       7.7064573097E-01  7.8223928240E-01  2.2935426903E-01
                       2.5084563981E-01  7.5290395660E-01  7.4915436019E-01
                       7.7467298297E-01  2.1929948584E-01  7.8672804535E-01
                       2.1327195465E-01  7.8070051416E-01  2.2532701703E-01
                       7.7064573097E-01  2.1776071760E-01  2.2935426903E-01
                      -1.6292613058E-02 -1.1789765272E-18  1.6292613058E-02
             xred2     2.5396458913E-01  2.3871781981E-01  2.5335300193E-01
                       7.4603541087E-01  7.4664699807E-01  7.6128218019E-01
                       2.4709605267E-01  2.5084566105E-01  7.4915433895E-01
                       7.8223926433E-01  7.7064574444E-01  2.2935425556E-01
                       2.1929950809E-01  7.7467297544E-01  7.8672800839E-01
                       7.5290394733E-01  2.5084566105E-01  7.4915433895E-01
                       2.1776073567E-01  7.7064574444E-01  2.2935425556E-01
                       7.8070049192E-01  2.1327199161E-01  2.2532702456E-01
                       2.1954349994E-18 -1.6292595903E-02  1.6292595903E-02
             xred3     2.5335241524E-01  2.5396589240E-01  2.5396589240E-01
                       7.6128420003E-01  7.4603410760E-01  7.4603410760E-01
                       2.2935385342E-01  2.1776117344E-01  7.8223882656E-01
                       7.4915370717E-01  7.5290403972E-01  2.4709596028E-01
                       2.2532695945E-01  7.8070100279E-01  7.8070100279E-01
                       7.4915370717E-01  2.4709596028E-01  7.5290403972E-01
                       2.2935385342E-01  7.8223882656E-01  2.1776117344E-01
                       7.8672896503E-01  2.1929899721E-01  2.1929899721E-01
                       1.6292339078E-02 -3.8233487079E-17 -3.8094345864E-17
             xred4     2.5000000000E-01  2.5000000000E-01  2.5000000000E-01
                       7.5000000000E-01  7.5000000000E-01  7.5000000000E-01
                       2.6262314937E-01  2.6262314937E-01  7.3737685063E-01
                       7.3737685063E-01  7.3737685063E-01  2.6262314937E-01
                       2.1707743210E-01  7.8292256790E-01  7.8292256790E-01
                       7.8292256790E-01  2.1707743210E-01  7.8292256790E-01
                       2.1707743210E-01  7.8292256790E-01  2.1707743210E-01
                       7.8292256790E-01  2.1707743210E-01  2.1707743210E-01
                      -2.4468407478E-22  1.7638736649E-21 -6.1650345005E-21
            znucl       55.00000   53.00000   40.00000   17.00000

- Timing analysis has been suppressed with timopt=0

 Suggested references for the acknowledgment of ABINIT usage.

 Calculation completed.
.Delivered   0 WARNINGs and   1 COMMENTs to log file.