.Version 9.2.2 of ABINIT

 ABINIT is a project of the Universite Catholique de Louvain,
 Corning Inc. and other collaborators, see ~abinit/doc/developers/contributors.txt .
 acknowledgments of the ABINIT effort.

.Starting date : Sun 27 Nov 2022.
- ( at 12h10 )

- input  file    -> Cs2TiI6.in
- output file    -> Cs2TiI6.out
- root for input  files -> Cs2TiI6i
- root for output files -> Cs2TiI6o

- inpspheads : Reading pseudopotential header in XML form from
-   ../../../Psps_for_tests/ATOMICDATA/Cs.GGA_PBE-JTH.xml
- inpspheads : Reading pseudopotential header in XML form from
-   ../../../Psps_for_tests/ATOMICDATA/I.GGA_PBE-JTH.xml
- inpspheads : Reading pseudopotential header in XML form from
-   ../../../Psps_for_tests/ATOMICDATA/Zr.GGA_PBE-JTH.xml
- inpspheads : Reading pseudopotential header in XML form from
-   ../../../Psps_for_tests/ATOMICDATA/Br.GGA_PBE-JTH.xml

 DATASET    1 : space group I4 m m (#107); Bravais tI (body-center tetrag.)
     intxc =       0    ionmov =       0      iscf =      17    lmnmax =      18
     lnmax =       6     mgfft =      54  mpssoang =       3    mqgrid =    3403
     natom =       9  nloc_mem =       2    nspden =       1   nspinor =       1
    nsppol =       1      nsym =       8    n1xccc =       1    ntypat =       4
    occopt =       1   xclevel =       2
-    mband =          42        mffmem =           1         mkmem =          28
       mpw =        6834          nfft =      157464          nkpt =         163
Pmy_natom=         2
 PAW method is used; the additional fine FFT grid is defined by:
   mgfftf=        90    nfftf =    729000
  Rough estimation (10% accuracy) of disk space for files :

[...]

 DATASET   10 : space group I4 m m (#107); Bravais tI (body-center tetrag.)
     intxc =       0    ionmov =       0      iscf =      17    lmnmax =      18
     lnmax =       6     mgfft =      54  mpssoang =       3    mqgrid =    3373
     natom =       9  nloc_mem =       2    nspden =       1   nspinor =       1
    nsppol =       1      nsym =       8    n1xccc =       1    ntypat =       4
    occopt =       1   xclevel =       2
-    mband =          42        mffmem =           1         mkmem =          28
       mpw =        6637          nfft =      157464          nkpt =         163
Pmy_natom=         2
 PAW method is used; the additional fine FFT grid is defined by:
   mgfftf=        90    nfftf =    729000
  Rough estimation (10% accuracy) of disk space for files :

------------- Echo of variables that govern the present computation ------------
-
- outvars: echo of selected default values
-   iomode0 =  0 , fftalg0 =112 , wfoptalg0 = 10
-
- outvars: echo of global parameters not present in the input file
-  max_nthreads =    0
-
 -outvars: echo values of preprocessed input variables --------
            acell1     1.4587878460E+01  1.4587878460E+01  1.4748132604E+01 Bohr
            acell2     1.4573158056E+01  1.4573158056E+01  1.4733625095E+01 Bohr
            acell3     1.4558286313E+01  1.4558286313E+01  1.4719445523E+01 Bohr
            acell4     1.4543346862E+01  1.4543346862E+01  1.4705412997E+01 Bohr
            acell5     1.4528326857E+01  1.4528326857E+01  1.4691555629E+01 Bohr
            acell6     1.4513432321E+01  1.4513432321E+01  1.4677426515E+01 Bohr
            acell7     1.4497996622E+01  1.4497996622E+01  1.4664473445E+01 Bohr
            acell8     1.4483026697E+01  1.4483026697E+01  1.4650509472E+01 Bohr
            acell9     1.4468109601E+01  1.4468109601E+01  1.4636431027E+01 Bohr
            acell10    1.4453340087E+01  1.4453340087E+01  1.4622031672E+01 Bohr
              amu      1.32905430E+02  1.26904470E+02  9.12240000E+01
                       7.99040000E+01
           diemac      1.20000000E+01
             ecut      1.60000000E+01 Hartree
-          fftalg         112
           istwfk        2    0    0    0    0    0    3    0    0    0
                         0    0    0    0    0    0    0    0    0    0
                         0    0    0    0    0    0    0    0    0    0
                         0    0    0    0    0    0    0    0    0    0
                         0    0    7    0    0    0    0    0    0    0
                       outvar_i_n : Printing only first  50 k-points.
              ixc     -101130
           jdtset        1    2    3    4    5    6    7    8    9   10
              kpt      0.00000000E+00  0.00000000E+00  0.00000000E+00
                       8.33333333E-02  0.00000000E+00  0.00000000E+00
                       1.66666667E-01  0.00000000E+00  0.00000000E+00
                       2.50000000E-01  0.00000000E+00  0.00000000E+00
                       3.33333333E-01  0.00000000E+00  0.00000000E+00
                       4.16666667E-01  0.00000000E+00  0.00000000E+00
                       5.00000000E-01  0.00000000E+00  0.00000000E+00
                       8.33333333E-02  8.33333333E-02  0.00000000E+00
                       1.66666667E-01  8.33333333E-02  0.00000000E+00
                       2.50000000E-01  8.33333333E-02  0.00000000E+00
                       3.33333333E-01  8.33333333E-02  0.00000000E+00
                       4.16666667E-01  8.33333333E-02  0.00000000E+00
                       5.00000000E-01  8.33333333E-02  0.00000000E+00
                      -4.16666667E-01  8.33333333E-02  0.00000000E+00
                      -3.33333333E-01  8.33333333E-02  0.00000000E+00
                      -2.50000000E-01  8.33333333E-02  0.00000000E+00
                      -1.66666667E-01  8.33333333E-02  0.00000000E+00
                      -8.33333333E-02  8.33333333E-02  0.00000000E+00
                       1.66666667E-01  1.66666667E-01  0.00000000E+00
                       2.50000000E-01  1.66666667E-01  0.00000000E+00
                       3.33333333E-01  1.66666667E-01  0.00000000E+00
                       4.16666667E-01  1.66666667E-01  0.00000000E+00
                       5.00000000E-01  1.66666667E-01  0.00000000E+00
                      -4.16666667E-01  1.66666667E-01  0.00000000E+00
                      -3.33333333E-01  1.66666667E-01  0.00000000E+00
                      -2.50000000E-01  1.66666667E-01  0.00000000E+00
                      -1.66666667E-01  1.66666667E-01  0.00000000E+00
                       2.50000000E-01  2.50000000E-01  0.00000000E+00
                       3.33333333E-01  2.50000000E-01  0.00000000E+00
                       4.16666667E-01  2.50000000E-01  0.00000000E+00
                       5.00000000E-01  2.50000000E-01  0.00000000E+00
                      -4.16666667E-01  2.50000000E-01  0.00000000E+00
                      -3.33333333E-01  2.50000000E-01  0.00000000E+00
                      -2.50000000E-01  2.50000000E-01  0.00000000E+00
                       3.33333333E-01  3.33333333E-01  0.00000000E+00
                       4.16666667E-01  3.33333333E-01  0.00000000E+00
                       5.00000000E-01  3.33333333E-01  0.00000000E+00
                      -4.16666667E-01  3.33333333E-01  0.00000000E+00
                      -3.33333333E-01  3.33333333E-01  0.00000000E+00
                       4.16666667E-01  4.16666667E-01  0.00000000E+00
                       5.00000000E-01  4.16666667E-01  0.00000000E+00
                      -4.16666667E-01  4.16666667E-01  0.00000000E+00
                       5.00000000E-01  5.00000000E-01  0.00000000E+00
                       8.33333333E-02  0.00000000E+00  8.33333333E-02
                       1.66666667E-01  0.00000000E+00  8.33333333E-02
                       2.50000000E-01  0.00000000E+00  8.33333333E-02
                       3.33333333E-01  0.00000000E+00  8.33333333E-02
                       4.16666667E-01  0.00000000E+00  8.33333333E-02
                       5.00000000E-01  0.00000000E+00  8.33333333E-02
                      -4.16666667E-01  0.00000000E+00  8.33333333E-02
                       outvar_i_n : Printing only first  50 k-points.
         kptrlatt       12    0    0      0   12    0      0    0   12
          kptrlen1     1.75054542E+02
          kptrlen2     1.74877897E+02
          kptrlen3     1.74699436E+02
          kptrlen4     1.74520162E+02
          kptrlen5     1.74339922E+02
          kptrlen6     1.74161188E+02
          kptrlen7     1.73975959E+02
          kptrlen8     1.73796320E+02
          kptrlen9     1.73617315E+02
          kptrlen10    1.73440081E+02
P           mkmem          28
            natom           9
            nband          42
           ndtset          10
            ngfft          54      54      54
          ngfftdg          90      90      90
             nkpt         163
            nstep        2500
             nsym           8
           ntypat           4
              occ      2.000000  2.000000  2.000000  2.000000  2.000000  2.000000
                       2.000000  2.000000  2.000000  2.000000  2.000000  2.000000
                       2.000000  2.000000  2.000000  2.000000  2.000000  2.000000
                       2.000000  2.000000  2.000000  2.000000  2.000000  2.000000
                       2.000000  2.000000  2.000000  2.000000  2.000000  2.000000
                       2.000000  2.000000  2.000000  2.000000  2.000000  2.000000
                       0.000000  0.000000  0.000000  0.000000  0.000000  0.000000
        pawecutdg      4.00000000E+01 Hartree
            prtwf           0
            rprim1     0.0000000000E+00  7.1487465453E-01  6.9925262124E-01
                       7.1487465453E-01  0.0000000000E+00  6.9925262124E-01
                       7.0710678119E-01  7.0710678119E-01  0.0000000000E+00
            rprim2     0.0000000000E+00  7.1489283077E-01  6.9923403844E-01
                       7.1489283077E-01  0.0000000000E+00  6.9923403844E-01
                       7.0710678119E-01  7.0710678119E-01  0.0000000000E+00
            rprim3     0.0000000000E+00  7.1493440376E-01  6.9919153193E-01
                       7.1493440376E-01  0.0000000000E+00  6.9919153193E-01
                       7.0710678119E-01  7.0710678119E-01  0.0000000000E+00
            rprim4     0.0000000000E+00  7.1498653985E-01  6.9913821797E-01
                       7.1498653985E-01  0.0000000000E+00  6.9913821797E-01
                       7.0710678119E-01  7.0710678119E-01  0.0000000000E+00
            rprim5     0.0000000000E+00  7.1505127288E-01  6.9907201142E-01
                       7.1505127288E-01  0.0000000000E+00  6.9907201142E-01
                       7.0710678119E-01  7.0710678119E-01  0.0000000000E+00
            rprim6     0.0000000000E+00  7.1509671797E-01  6.9902552454E-01
                       7.1509671797E-01  0.0000000000E+00  6.9902552454E-01
                       7.0710678119E-01  7.0710678119E-01  0.0000000000E+00
            rprim7     0.0000000000E+00  7.1522630929E-01  6.9889292921E-01
                       7.1522630929E-01  0.0000000000E+00  6.9889292921E-01
                       7.0710678119E-01  7.0710678119E-01  0.0000000000E+00
            rprim8     0.0000000000E+00  7.1528381548E-01  6.9883407423E-01
                       7.1528381548E-01  0.0000000000E+00  6.9883407423E-01
                       7.0710678119E-01  7.0710678119E-01  0.0000000000E+00
[...]
                      -2.1946967627E-13 -2.1946967627E-13 -8.4971212438E-02
           xangst7     2.7436114777E+00  2.7436114777E+00  2.6775081953E+00
                       8.2308344331E+00  8.2308344331E+00  8.0394213056E+00
                       5.4872229553E+00  5.4872229553E+00  2.7359429826E+00
                       5.4872229555E+00  5.4872229555E+00  8.0503034077E+00
                       8.1559053357E+00  5.4872229553E+00  5.3693929441E+00
                       5.4872229553E+00  8.1559053357E+00  5.3693929441E+00
                       5.4872229555E+00  2.8185405751E+00  5.3693929441E+00
                       2.8185405751E+00  5.4872229555E+00  5.3693929441E+00
                      -2.1577353732E-12 -2.1577353732E-12 -8.5442785253E-02
           xangst8     2.7409989245E+00  2.7409989245E+00  2.6749105616E+00
                       8.2229967734E+00  8.2229967734E+00  8.0308361519E+00
                       5.4819978489E+00  5.4819978489E+00  2.7342436262E+00
                       5.4819978489E+00  5.4819978489E+00  8.0385030109E+00
                       8.1467362071E+00  5.4819978489E+00  5.3637375993E+00
                       5.4819978489E+00  8.1467362071E+00  5.3637375993E+00
                       5.4819978489E+00  2.8172594908E+00  5.3637375993E+00
                       2.8172594908E+00  5.4819978489E+00  5.3637375993E+00
                       4.5331312458E-14  4.5331312458E-14 -8.6039025187E-02
           xangst9     2.7383649545E+00  2.7383649545E+00  2.6722165365E+00
                       8.2150948635E+00  8.2150948635E+00  8.0222383875E+00
                       5.4767299089E+00  5.4767299089E+00  2.7325944605E+00
                       5.4767299090E+00  5.4767299090E+00  8.0269350951E+00
                       8.1374934557E+00  5.4767299089E+00  5.3581894385E+00
                       5.4767299089E+00  8.1374934557E+00  5.3581894385E+00
                       5.4767299090E+00  2.8159663623E+00  5.3581894385E+00
                       2.8159663623E+00  5.4767299090E+00  5.3581894385E+00
                      -1.2664504763E-12 -1.2664504763E-12 -8.6567425731E-02
           xangst10    2.7356709446E+00  2.7356709446E+00  2.6696383940E+00
                       8.2070128338E+00  8.2070128338E+00  8.0139911556E+00
                       5.4713418892E+00  5.4713418892E+00  2.7309591329E+00
                       5.4713418892E+00  5.4713418892E+00  8.0158629181E+00
                       8.1280229506E+00  5.4713418892E+00  5.3528640161E+00
                       5.4713418892E+00  8.1280229506E+00  5.3528640161E+00
                       5.4713418892E+00  2.8146608278E+00  5.3528640161E+00
                       2.8146608278E+00  5.4713418892E+00  5.3528640161E+00
                       1.9684056415E-13  1.9684056415E-13 -8.7085571967E-02
            xcart1     5.2142522871E+00  5.2142522871E+00  5.0909757204E+00
                       1.5642756861E+01  1.5642756861E+01  1.5291587972E+01
                       1.0428504574E+01  1.0428504574E+01  5.1881219097E+00
                       1.0428504574E+01  1.0428504574E+01  1.5346045508E+01
                       1.5516682609E+01  1.0428504574E+01  1.0211107474E+01
                       1.0428504574E+01  1.5516682609E+01  1.0211107474E+01
                       1.0428504574E+01  5.3403265398E+00  1.0211107474E+01
                       5.3403265398E+00  1.0428504574E+01  1.0211107474E+01
                      -1.8413170990E-12 -1.8413170990E-12 -1.5626299349E-01
            xcart2     5.2091231080E+00  5.2091231080E+00  5.0858835766E+00
                       1.5627369324E+01  1.5627369324E+01  1.5275931737E+01
                       1.0418246216E+01  1.0418246216E+01  5.1853094741E+00
                       1.0418246216E+01  1.0418246216E+01  1.5325494144E+01
                       1.5498429625E+01  1.0418246216E+01  1.0201175158E+01
                       1.0418246216E+01  1.5498429625E+01  1.0201175158E+01
                       1.0418246216E+01  5.3380628076E+00  1.0201175158E+01
                       5.3380628076E+00  1.0418246216E+01  1.0201175158E+01
                       2.1036679740E-12  2.1036679740E-12 -1.5693428155E-01
            xcart3     5.2041098724E+00  5.2041098724E+00  5.0808716693E+00
                       1.5612329617E+01  1.5612329617E+01  1.5259902179E+01
                       1.0408219745E+01  1.0408219745E+01  5.1824947645E+00
                       1.0408219745E+01  1.0408219745E+01  1.5303800252E+01
                       1.5480710740E+01  1.0408219745E+01  1.0190776836E+01
                       1.0408219745E+01  1.5480710740E+01  1.0190776836E+01
                       1.0408219745E+01  5.3357287499E+00  1.0190776836E+01
                       5.3357287499E+00  1.0408219745E+01  1.0190776836E+01
                      -2.1871952953E-12 -2.1871952953E-12 -1.5793213214E-01
            xcart4     5.1991486253E+00  5.1991486253E+00  5.0758389110E+00
                       1.5597445876E+01  1.5597445876E+01  1.5243648519E+01
                       1.0398297250E+01  1.0398297250E+01  5.1794606647E+00
                       1.0398297251E+01  1.0398297251E+01  1.5281626848E+01
                       1.5463190630E+01  1.0398297250E+01  1.0180209568E+01
                       1.0398297250E+01  1.5463190630E+01  1.0180209568E+01
                       1.0398297251E+01  5.3334038715E+00  1.0180209568E+01
                       5.3334038715E+00  1.0398297251E+01  1.0180209568E+01
                      -2.5125590626E-12 -2.5125590626E-12 -1.5893634764E-01
            xcart5     5.1942493059E+00  5.1942493059E+00  5.0707276630E+00
                       1.5582747918E+01  1.5582747918E+01  1.5227074341E+01
                       1.0388498612E+01  1.0388498612E+01  5.1763449184E+00
                       1.0388498612E+01  1.0388498612E+01  1.5259304686E+01
                       1.5445906873E+01  1.0388498612E+01  1.0169248745E+01
                       1.0388498612E+01  1.5445906873E+01  1.0169248745E+01
                       1.0388498612E+01  5.3310903509E+00  1.0169248745E+01
                       5.3310903509E+00  1.0388498612E+01  1.0169248745E+01
                      -3.2899307692E-12 -3.2899307692E-12 -1.5967316014E-01
            xcart6     5.1892539096E+00  5.1892539096E+00  5.0655960351E+00
                       1.5567761729E+01  1.5567761729E+01  1.5210855676E+01
                       1.0378507819E+01  1.0378507819E+01  5.1732916972E+00
                       1.0378507819E+01  1.0378507819E+01  1.5237717041E+01
                       1.5428276912E+01  1.0378507819E+01  1.0158797250E+01
                       1.0378507819E+01  1.5428276912E+01  1.0158797250E+01
                       1.0378507819E+01  5.3287387269E+00  1.0158797250E+01
                       5.3287387269E+00  1.0378507819E+01  1.0158797250E+01
                      -4.1473758263E-13 -4.1473758263E-13 -1.6057232069E-01
            xcart7     5.1846743079E+00  5.1846743079E+00  5.0597572076E+00
                       1.5554022924E+01  1.5554022924E+01  1.5192304534E+01
                       1.0369348616E+01  1.0369348616E+01  5.1701829523E+00
                       1.0369348616E+01  1.0369348616E+01  1.5212868727E+01
                       1.5412427450E+01  1.0369348616E+01  1.0146682164E+01
                       1.0369348616E+01  1.5412427450E+01  1.0146682164E+01
                       1.0369348616E+01  5.3262697813E+00  1.0146682164E+01
                       5.3262697813E+00  1.0369348616E+01  1.0146682164E+01
                      -4.0775289226E-12 -4.0775289226E-12 -1.6146346416E-01
            xcart8     5.1797372978E+00  5.1797372978E+00  5.0548483913E+00
                       1.5539211893E+01  1.5539211893E+01  1.5176080945E+01
                       1.0359474596E+01  1.0359474596E+01  5.1669716341E+00
                       1.0359474596E+01  1.0359474596E+01  1.5190569209E+01
                       1.5395100308E+01  1.0359474596E+01  1.0135995111E+01
                       1.0359474596E+01  1.5395100308E+01  1.0135995111E+01
                       1.0359474596E+01  5.3238488829E+00  1.0135995111E+01
                       5.3238488829E+00  1.0359474596E+01  1.0135995111E+01
                       8.5663765791E-14  8.5663765791E-14 -1.6259019434E-01
            xcart9     5.1747598159E+00  5.1747598159E+00  5.0497574218E+00
                       1.5524279448E+01  1.5524279448E+01  1.5159833525E+01
                       1.0349519632E+01  1.0349519632E+01  5.1638551627E+00
                       1.0349519632E+01  1.0349519632E+01  1.5168709016E+01
                       1.5377634039E+01  1.0349519632E+01  1.0125510607E+01
                       1.0349519632E+01  1.5377634039E+01  1.0125510607E+01
                       1.0349519632E+01  5.3214052241E+00  1.0125510607E+01
                       5.3214052241E+00  1.0349519632E+01  1.0125510607E+01
                      -2.3932445611E-12 -2.3932445611E-12 -1.6358872666E-01
            xcart10    5.1696688750E+00  5.1696688750E+00  5.0448854385E+00
                       1.5509006625E+01  1.5509006625E+01  1.5144248516E+01
                       1.0339337750E+01  1.0339337750E+01  5.1607648412E+00
                       1.0339337750E+01  1.0339337750E+01  1.5147785634E+01
                       1.5359737378E+01  1.0339337750E+01  1.0115447017E+01
                       1.0339337750E+01  1.5359737378E+01  1.0115447017E+01
                       1.0339337750E+01  5.3189381216E+00  1.0115447017E+01
                       5.3189381216E+00  1.0339337750E+01  1.0115447017E+01
                       3.7197475808E-13  3.7197475808E-13 -1.6456788114E-01
             xred1     2.4954265464E-01  2.4954265464E-01  2.5045734536E-01
                       7.4954265464E-01  7.4954265464E-01  7.5045734536E-01
                       2.5430443692E-01  2.5430443692E-01  7.4569556308E-01
                       7.5221198150E-01  7.5221198150E-01  2.4778801850E-01
                       2.5655913550E-01  7.4446974610E-01  7.4344086450E-01
                       7.4446974610E-01  2.5655913550E-01  7.4344086450E-01
                       2.5655913550E-01  7.4446974610E-01  2.5553025390E-01
                       7.4446974610E-01  2.5655913550E-01  2.5553025390E-01
                      -7.6594909029E-03 -7.6594909029E-03  7.6594909029E-03
             xred2     2.4955149851E-01  2.4955149851E-01  2.5044850149E-01
                       7.4955149851E-01  7.4955149851E-01  7.5044850149E-01
                       2.5443007690E-01  2.5443007690E-01  7.4556992310E-01
                       7.5198340101E-01  7.5198340101E-01  2.4801659899E-01
                       2.5673414098E-01  7.4435780653E-01  7.4326585902E-01
                       7.4435780653E-01  2.5673414098E-01  7.4326585902E-01
                       2.5673414098E-01  7.4435780653E-01  2.5564219347E-01
                       7.4435780653E-01  2.5673414098E-01  2.5564219347E-01
                      -7.7003699628E-03 -7.7003699628E-03  7.7003699628E-03
             xred3     2.4957542197E-01  2.4957542197E-01  2.5042457803E-01
                       7.4957542197E-01  7.4957542197E-01  7.5042457803E-01
                       2.5456720852E-01  2.5456720852E-01  7.4543279148E-01
                       7.5173172129E-01  7.5173172129E-01  2.4826827871E-01
                       2.5689981984E-01  7.4425415317E-01  7.4310018016E-01
                       7.4425415317E-01  2.5689981984E-01  7.4310018016E-01
                       2.5689981984E-01  7.4425415317E-01  2.5574584683E-01
                       7.4425415317E-01  2.5689981984E-01  2.5574584683E-01
                      -7.7577197548E-03 -7.7577197548E-03  7.7577197548E-03
             xred4     2.4960336132E-01  2.4960336132E-01  2.5039663868E-01
                       7.4960336132E-01  7.4960336132E-01  7.5039663868E-01
                       2.5469894029E-01  2.5469894029E-01  7.4530105971E-01
                       7.5147093800E-01  7.5147093800E-01  2.4852906200E-01
                       2.5706540163E-01  7.4415412943E-01  7.4293459837E-01
                       7.4415412943E-01  2.5706540163E-01  7.4293459837E-01
                       2.5706540163E-01  7.4415412943E-01  2.5584587057E-01
                       7.4415412943E-01  2.5706540163E-01  2.5584587057E-01
                      -7.8156630467E-03 -7.8156630467E-03  7.8156630467E-03
             xred5     2.4963344712E-01  2.4963344712E-01  2.5036655288E-01
                       7.4963344712E-01  7.4963344712E-01  7.5036655288E-01
                       2.5483301635E-01  2.5483301635E-01  7.4516698365E-01
                       7.5122015667E-01  7.5122015667E-01  2.4877984333E-01
                       2.5722135267E-01  7.4404899253E-01  7.4277864733E-01
                       7.4404899253E-01  2.5722135267E-01  7.4277864733E-01
                       2.5722135267E-01  7.4404899253E-01  2.5595100747E-01
                       7.4404899253E-01  2.5722135267E-01  2.5595100747E-01
                      -7.8607576719E-03 -7.8607576719E-03  7.8607576719E-03
             xred6     2.4965334621E-01  2.4965334621E-01  2.5034665379E-01
                       7.4965334621E-01  7.4965334621E-01  7.5034665379E-01
                       2.5496103009E-01  2.5496103009E-01  7.4503896991E-01
                       7.5097718444E-01  7.5097718444E-01  2.4902281556E-01
                       2.5738707673E-01  7.4394730102E-01  7.4261292327E-01
                       7.4394730102E-01  2.5738707673E-01  7.4261292327E-01
                       2.5738707673E-01  7.4394730102E-01  2.5605269898E-01
                       7.4394730102E-01  2.5738707673E-01  2.5605269898E-01
                      -7.9136624575E-03 -7.9136624575E-03  7.9136624575E-03
             xred7     2.4967843941E-01  2.4967843941E-01  2.5032156059E-01
                       7.4967843941E-01  7.4967843941E-01  7.5032156059E-01
                       2.5512750079E-01  2.5512750079E-01  7.4487249921E-01
                       7.5069319868E-01  7.5069319868E-01  2.4930680132E-01
                       2.5752509405E-01  7.4386989943E-01  7.4247490595E-01
                       7.4386989943E-01  2.5752509405E-01  7.4247490595E-01
                       2.5752509405E-01  7.4386989943E-01  2.5613010057E-01
                       7.4386989943E-01  2.5752509405E-01  2.5613010057E-01
                      -7.9675652603E-03 -7.9675652603E-03  7.9675652603E-03
             xred8     2.4971506012E-01  2.4971506012E-01  2.5028493988E-01
                       7.4971506012E-01  7.4971506012E-01  7.5028493988E-01
                       2.5525407141E-01  2.5525407141E-01  7.4474592859E-01
                       7.5043079626E-01  7.5043079626E-01  2.4956920374E-01
                       2.5768483163E-01  7.4377374147E-01  7.4231516837E-01
                       7.4377374147E-01  2.5768483163E-01  7.4231516837E-01
                       2.5768483163E-01  7.4377374147E-01  2.5622625853E-01
                       7.4377374147E-01  2.5768483163E-01  2.5622625853E-01
                      -8.0321341042E-03 -8.0321341042E-03  8.0321341042E-03
             xred9     2.4973884322E-01  2.4973884322E-01  2.5026115678E-01
                       7.4973884322E-01  7.4973884322E-01  7.5026115678E-01
                       2.5538161681E-01  2.5538161681E-01  7.4461838319E-01
                       7.5017778606E-01  7.5017778606E-01  2.4982221394E-01
                       2.5784797087E-01  7.4367867476E-01  7.4215202913E-01
                       7.4367867476E-01  2.5784797087E-01  7.4215202913E-01
                       2.5784797087E-01  7.4367867476E-01  2.5632132524E-01
                       7.4367867476E-01  2.5784797087E-01  2.5632132524E-01
                      -8.0903805762E-03 -8.0903805762E-03  8.0903805762E-03
             xred10    2.4976255433E-01  2.4976255433E-01  2.5023744567E-01
                       7.4976255433E-01  7.4976255433E-01  7.5023744567E-01
                       2.5549952021E-01  2.5549952021E-01  7.4450047979E-01
                       7.4993767025E-01  7.4993767025E-01  2.5006232975E-01
                       2.5801479587E-01  7.4357777387E-01  7.4198520413E-01
                       7.4357777387E-01  2.5801479587E-01  7.4198520413E-01
                       2.5801479587E-01  7.4357777387E-01  2.5642222613E-01
                       7.4357777387E-01  2.5801479587E-01  2.5642222613E-01
                      -8.1474386002E-03 -8.1474386002E-03  8.1474386002E-03
            znucl       55.00000   53.00000   40.00000   35.00000

- Timing analysis has been suppressed with timopt=0

 Suggested references for the acknowledgment of ABINIT usage.

 Calculation completed.
.Delivered   0 WARNINGs and   0 COMMENTs to log file.