.Version 9.2.2 of ABINIT

 ABINIT is a project of the Universite Catholique de Louvain,
 Corning Inc. and other collaborators, see ~abinit/doc/developers/contributors.txt .
 acknowledgments of the ABINIT effort.

.Starting date : Sun 27 Nov 2022.
- ( at 10h05 )

- input  file    -> Cs2TiI6.in
- output file    -> Cs2TiI6.out
- root for input  files -> Cs2TiI6i
- root for output files -> Cs2TiI6o

- inpspheads : Reading pseudopotential header in XML form from
-   ../../../Psps_for_tests/ATOMICDATA/Cs.GGA_PBE-JTH.xml
- inpspheads : Reading pseudopotential header in XML form from
-   ../../../Psps_for_tests/ATOMICDATA/Br.GGA_PBE-JTH.xml
- inpspheads : Reading pseudopotential header in XML form from
-   ../../../Psps_for_tests/ATOMICDATA/Zr.GGA_PBE-JTH.xml

 DATASET    1 : space group Fm -3 m (#225); Bravais cF (face-center cubic)
     intxc =       0    ionmov =       2      iscf =      17    lmnmax =      18
     lnmax =       6     mgfft =      60  mpssoang =       3    mqgrid =    3691
     natom =       9  nloc_mem =       2    nspden =       1   nspinor =       1
    nsppol =       1      nsym =      48    n1xccc =       1    ntypat =       3
    occopt =       1   xclevel =       2
-    mband =          42        mffmem =           1         mkmem =           2
       mpw =        8656          nfft =      216000          nkpt =          10
Pmy_natom=         2
 PAW method is used; the additional fine FFT grid is defined by:
   mgfftf=        96    nfftf =    884736
  Rough estimation (10% accuracy) of disk space for files :

[...]

 DATASET   20 : space group Fm -3 m (#225); Bravais cF (face-center cubic)
     intxc =       0    ionmov =       2      iscf =      17    lmnmax =      18
     lnmax =       6     mgfft =      60  mpssoang =       3    mqgrid =    3655
     natom =       9  nloc_mem =       2    nspden =       1   nspinor =       1
    nsppol =       1      nsym =      48    n1xccc =       1    ntypat =       3
    occopt =       1   xclevel =       2
-    mband =          42        mffmem =           1         mkmem =           2
       mpw =        8414          nfft =      216000          nkpt =          10
Pmy_natom=         2
 PAW method is used; the additional fine FFT grid is defined by:
   mgfftf=        90    nfftf =    729000
  Rough estimation (10% accuracy) of disk space for files :

------------- Echo of variables that govern the present computation ------------
-
- outvars: echo of selected default values
-   iomode0 =  0 , fftalg0 =112 , wfoptalg0 = 10
-
- outvars: echo of global parameters not present in the input file
-  max_nthreads =    0
-
 -outvars: echo values of preprocessed input variables --------
            acell1     1.3803283181E+01  1.3803283181E+01  1.3803283181E+01 Bohr
            acell2     1.3796378087E+01  1.3796378087E+01  1.3796378087E+01 Bohr
            acell3     1.3789472993E+01  1.3789472993E+01  1.3789472993E+01 Bohr
            acell4     1.3782567898E+01  1.3782567898E+01  1.3782567898E+01 Bohr
            acell5     1.3775662804E+01  1.3775662804E+01  1.3775662804E+01 Bohr
            acell6     1.3768757710E+01  1.3768757710E+01  1.3768757710E+01 Bohr
            acell7     1.3761852616E+01  1.3761852616E+01  1.3761852616E+01 Bohr
            acell8     1.3754947522E+01  1.3754947522E+01  1.3754947522E+01 Bohr
            acell9     1.3748042428E+01  1.3748042428E+01  1.3748042428E+01 Bohr
            acell10    1.3741137334E+01  1.3741137334E+01  1.3741137334E+01 Bohr
            acell11    1.3734232239E+01  1.3734232239E+01  1.3734232239E+01 Bohr
            acell12    1.3727327145E+01  1.3727327145E+01  1.3727327145E+01 Bohr
            acell13    1.3720422051E+01  1.3720422051E+01  1.3720422051E+01 Bohr
            acell14    1.3713516957E+01  1.3713516957E+01  1.3713516957E+01 Bohr
            acell15    1.3706611863E+01  1.3706611863E+01  1.3706611863E+01 Bohr
            acell16    1.3699706769E+01  1.3699706769E+01  1.3699706769E+01 Bohr
            acell17    1.3692801675E+01  1.3692801675E+01  1.3692801675E+01 Bohr
            acell18    1.3685896581E+01  1.3685896581E+01  1.3685896581E+01 Bohr
            acell19    1.3678991486E+01  1.3678991486E+01  1.3678991486E+01 Bohr
            acell20    1.3672086392E+01  1.3672086392E+01  1.3672086392E+01 Bohr
              amu      1.32905430E+02  7.99040000E+01  9.12240000E+01
           diemac      1.20000000E+01
          dilatmx      1.15000000E+00
             ecut      1.60000000E+01 Hartree
           ecutsm      5.00000000E-01 Hartree
-          fftalg         112
          getxred1          0
          getxred2         -1
          getxred3         -1
          getxred4         -1
          getxred5         -1
          getxred6         -1
          getxred7         -1
          getxred8         -1
          getxred9         -1
          getxred10        -1
          getxred11        -1
          getxred12        -1
          getxred13        -1
          getxred14        -1
          getxred15        -1
          getxred16        -1
          getxred17        -1
          getxred18        -1
          getxred19        -1
          getxred20        -1
           ionmov           2
              ixc     -101130
           jdtset        1    2    3    4    5    6    7    8    9   10
                        11   12   13   14   15   16   17   18   19   20
              kpt     -1.25000000E-01 -2.50000000E-01  0.00000000E+00
                      -1.25000000E-01  5.00000000E-01  0.00000000E+00
                      -2.50000000E-01 -3.75000000E-01  0.00000000E+00
                      -1.25000000E-01 -3.75000000E-01  1.25000000E-01
                      -1.25000000E-01  2.50000000E-01  0.00000000E+00
                      -2.50000000E-01  3.75000000E-01  0.00000000E+00
                      -3.75000000E-01  5.00000000E-01  0.00000000E+00
                      -2.50000000E-01  5.00000000E-01  1.25000000E-01
                      -1.25000000E-01  0.00000000E+00  0.00000000E+00
                      -3.75000000E-01  0.00000000E+00  0.00000000E+00
         kptrlatt        4   -4    4     -4    4    4     -4   -4    4
          kptrlen1     7.80831611E+01
          kptrlen2     7.80441000E+01
          kptrlen3     7.80050389E+01
          kptrlen4     7.79659778E+01
          kptrlen5     7.79269167E+01
          kptrlen6     7.78878556E+01
          kptrlen7     7.78487945E+01
          kptrlen8     7.78097333E+01
          kptrlen9     7.77706722E+01
          kptrlen10    7.77316111E+01
          kptrlen11    7.76925500E+01
          kptrlen12    7.76534889E+01
          kptrlen13    7.76144278E+01
          kptrlen14    7.75753667E+01
          kptrlen15    7.75363056E+01
          kptrlen16    7.74972445E+01
          kptrlen17    7.74581833E+01
          kptrlen18    7.74191222E+01
          kptrlen19    7.73800611E+01
          kptrlen20    7.73410000E+01
P           mkmem           2
            natom           9
            nband          42
           ndtset          20
            ngfft          60      60      60
          ngfftdg1         96      96      96
          ngfftdg2         96      96      96
          ngfftdg3         96      96      96
          ngfftdg4         96      96      96
          ngfftdg5         96      96      96
          ngfftdg6         96      96      96
          ngfftdg7         96      96      96
          ngfftdg8         96      96      96
          ngfftdg9         96      96      96
          ngfftdg10        90      90      90
          ngfftdg11        90      90      90
          ngfftdg12        90      90      90
          ngfftdg13        90      90      90
          ngfftdg14        90      90      90
          ngfftdg15        90      90      90
          ngfftdg16        90      90      90
          ngfftdg17        90      90      90
          ngfftdg18        90      90      90
          ngfftdg19        90      90      90
          ngfftdg20        90      90      90
             nkpt          10
            nstep        2500
             nsym          48
            ntime        1000
           ntypat           3
              occ      2.000000  2.000000  2.000000  2.000000  2.000000  2.000000
                       2.000000  2.000000  2.000000  2.000000  2.000000  2.000000
                       2.000000  2.000000  2.000000  2.000000  2.000000  2.000000
                       2.000000  2.000000  2.000000  2.000000  2.000000  2.000000
                       2.000000  2.000000  2.000000  2.000000  2.000000  2.000000
                       2.000000  2.000000  2.000000  2.000000  2.000000  2.000000
                       0.000000  0.000000  0.000000  0.000000  0.000000  0.000000
          optcell           3
        optforces           1
        pawecutdg      4.00000000E+01 Hartree
            prtwf           0
            rprim      0.0000000000E+00  7.0710678119E-01  7.0710678119E-01
                       7.0710678119E-01  0.0000000000E+00  7.0710678119E-01
                       7.0710678119E-01  7.0710678119E-01  0.0000000000E+00
           shiftk      5.00000000E-01  5.00000000E-01  5.00000000E-01
          spgroup         225
           symrel      1  0  0   0  1  0   0  0  1      -1  0  0   0 -1  0   0  0 -1
                       0 -1  1   0 -1  0   1 -1  0       0  1 -1   0  1  0  -1  1  0
                      -1  0  0  -1  0  1  -1  1  0       1  0  0   1  0 -1   1 -1  0
                       0  1 -1   1  0 -1   0  0 -1       0 -1  1  -1  0  1   0  0  1
                      -1  0  0  -1  1  0  -1  0  1       1  0  0   1 -1  0   1  0 -1
                       0 -1  1   1 -1  0   0 -1  0       0  1 -1  -1  1  0   0  1  0
                       1  0  0   0  0  1   0  1  0      -1  0  0   0  0 -1   0 -1  0
                       0  1 -1   0  0 -1   1  0 -1       0 -1  1   0  0  1  -1  0  1
                      -1  0  1  -1  1  0  -1  0  0       1  0 -1   1 -1  0   1  0  0
                       0 -1  0   1 -1  0   0 -1  1       0  1  0  -1  1  0   0  1 -1
                       1  0 -1   0  0 -1   0  1 -1      -1  0  1   0  0  1   0 -1  1
                       0  1  0   0  0  1   1  0  0       0 -1  0   0  0 -1  -1  0  0
                       1  0 -1   0  1 -1   0  0 -1      -1  0  1   0 -1  1   0  0  1
                       0 -1  0   0 -1  1   1 -1  0       0  1  0   0  1 -1  -1  1  0
                      -1  0  1  -1  0  0  -1  1  0       1  0 -1   1  0  0   1 -1  0
                       0  1  0   1  0  0   0  0  1       0 -1  0  -1  0  0   0  0 -1
                       0  0 -1   0  1 -1   1  0 -1       0  0  1   0 -1  1  -1  0  1
                       1 -1  0   0 -1  1   0 -1  0      -1  1  0   0  1 -1   0  1  0
                       0  0  1   1  0  0   0  1  0       0  0 -1  -1  0  0   0 -1  0
                      -1  1  0  -1  0  0  -1  0  1       1 -1  0   1  0  0   1  0 -1
                       0  0  1   0  1  0   1  0  0       0  0 -1   0 -1  0  -1  0  0
                       1 -1  0   0 -1  0   0 -1  1      -1  1  0   0  1  0   0  1 -1
                       0  0 -1   1  0 -1   0  1 -1       0  0  1  -1  0  1   0 -1  1
[...]
                       4.5825428993E-20  4.3509258129E-20 -1.5575611343E-19
            xcart17    4.8411364588E+00  4.8411364588E+00  4.8411364588E+00
                       1.4523409376E+01  1.4523409376E+01  1.4523409376E+01
                       9.6822729176E+00  9.6822729176E+00  4.9151309230E+00
                       9.6822729176E+00  9.6822729176E+00  1.4449414912E+01
                       1.4449414912E+01  9.6822729176E+00  9.6822729176E+00
                       9.6822729176E+00  1.4449414912E+01  9.6822729176E+00
                       9.6822729176E+00  4.9151309230E+00  9.6822729176E+00
                       4.9151309230E+00  9.6822729176E+00  9.6822729176E+00
                       5.4366168635E-20  3.2083254722E-20 -1.0226263118E-19
            xcart18    4.8386951394E+00  4.8386951394E+00  4.8386951394E+00
                       1.4516085418E+01  1.4516085418E+01  1.4516085418E+01
                       9.6773902788E+00  9.6773902788E+00  4.9142978085E+00
                       9.6773902788E+00  9.6773902788E+00  1.4440482749E+01
                       1.4440482749E+01  9.6773902788E+00  9.6773902788E+00
                       9.6773902788E+00  1.4440482749E+01  9.6773902788E+00
                       9.6773902788E+00  4.9142978085E+00  9.6773902788E+00
                       4.9142978085E+00  9.6773902788E+00  9.6773902788E+00
                       1.1652436604E-20  3.7193948100E-20 -3.6468989390E-20
            xcart19    4.8362538199E+00  4.8362538199E+00  4.8362538199E+00
                       1.4508761460E+01  1.4508761460E+01  1.4508761460E+01
                       9.6725076399E+00  9.6725076399E+00  4.9134245439E+00
                       9.6725076399E+00  9.6725076399E+00  1.4431590736E+01
                       1.4431590736E+01  9.6725076399E+00  9.6725076399E+00
                       9.6725076399E+00  1.4431590736E+01  9.6725076399E+00
                       9.6725076399E+00  4.9134245439E+00  9.6725076399E+00
                       4.9134245439E+00  9.6725076399E+00  9.6725076399E+00
                       9.0732759839E-20  7.0653144404E-20 -9.7972222643E-20
            xcart20    4.8338125005E+00  4.8338125005E+00  4.8338125005E+00
                       1.4501437501E+01  1.4501437501E+01  1.4501437501E+01
                       9.6676250010E+00  9.6676250010E+00  4.9125342719E+00
                       9.6676250010E+00  9.6676250010E+00  1.4422715730E+01
                       1.4422715730E+01  9.6676250010E+00  9.6676250010E+00
                       9.6676250010E+00  1.4422715730E+01  9.6676250010E+00
                       9.6676250010E+00  4.9125342719E+00  9.6676250010E+00
                       4.9125342719E+00  9.6676250010E+00  9.6676250010E+00
                       1.2035275470E-19  5.6402313986E-20 -9.5052551237E-20
             xred1     2.5000000000E-01  2.5000000000E-01  2.5000000000E-01
                       7.5000000000E-01  7.5000000000E-01  7.5000000000E-01
                       2.5245083124E-01  2.5245083124E-01  7.4754916876E-01
                       7.4754916876E-01  7.4754916876E-01  2.5245083124E-01
                       2.5245083124E-01  7.4754916876E-01  7.4754916876E-01
                       7.4754916876E-01  2.5245083124E-01  7.4754916876E-01
                       2.5245083124E-01  7.4754916876E-01  2.5245083124E-01
                       7.4754916876E-01  2.5245083124E-01  2.5245083124E-01
                      -2.7515283419E-21 -9.0970782101E-21  1.3613299183E-20
             xred2     2.5000000000E-01  2.5000000000E-01  2.5000000000E-01
                       7.5000000000E-01  7.5000000000E-01  7.5000000000E-01
                       2.5253865295E-01  2.5253865295E-01  7.4746134705E-01
                       7.4746134705E-01  7.4746134705E-01  2.5253865295E-01
                       2.5253865295E-01  7.4746134705E-01  7.4746134705E-01
                       7.4746134705E-01  2.5253865295E-01  7.4746134705E-01
                       2.5253865295E-01  7.4746134705E-01  2.5253865295E-01
                       7.4746134705E-01  2.5253865295E-01  2.5253865295E-01
                      -1.8930389140E-21 -9.0289811601E-21  1.2245440554E-20
             xred3     2.5000000000E-01  2.5000000000E-01  2.5000000000E-01
                       7.5000000000E-01  7.5000000000E-01  7.5000000000E-01
                       2.5263190628E-01  2.5263190628E-01  7.4736809372E-01
                       7.4736809372E-01  7.4736809372E-01  2.5263190628E-01
                       2.5263190628E-01  7.4736809372E-01  7.4736809372E-01
                       7.4736809372E-01  2.5263190628E-01  7.4736809372E-01
                       2.5263190628E-01  7.4736809372E-01  2.5263190628E-01
                       7.4736809372E-01  2.5263190628E-01  2.5263190628E-01
                      -6.1024422246E-21 -4.0264949953E-21  1.3406974517E-20
             xred4     2.5000000000E-01  2.5000000000E-01  2.5000000000E-01
                       7.5000000000E-01  7.5000000000E-01  7.5000000000E-01
                       2.5271618871E-01  2.5271618871E-01  7.4728381129E-01
                       7.4728381129E-01  7.4728381129E-01  2.5271618871E-01
                       2.5271618871E-01  7.4728381129E-01  7.4728381129E-01
                       7.4728381129E-01  2.5271618871E-01  7.4728381129E-01
                       2.5271618871E-01  7.4728381129E-01  2.5271618871E-01
                       7.4728381129E-01  2.5271618871E-01  2.5271618871E-01
                      -6.3151086079E-21 -2.7375205983E-21  1.0636060386E-20
             xred5     2.5000000000E-01  2.5000000000E-01  2.5000000000E-01
                       7.5000000000E-01  7.5000000000E-01  7.5000000000E-01
                       2.5280323622E-01  2.5280323622E-01  7.4719676378E-01
                       7.4719676378E-01  7.4719676378E-01  2.5280323622E-01
                       2.5280323622E-01  7.4719676378E-01  7.4719676378E-01
                       7.4719676378E-01  2.5280323622E-01  7.4719676378E-01
                       2.5280323622E-01  7.4719676378E-01  2.5280323622E-01
                       7.4719676378E-01  2.5280323622E-01  2.5280323622E-01
                       1.3801901634E-21 -1.0041364450E-20  1.0279238747E-20
             xred6     2.5000000000E-01  2.5000000000E-01  2.5000000000E-01
                       7.5000000000E-01  7.5000000000E-01  7.5000000000E-01
                       2.5288757107E-01  2.5288757107E-01  7.4711242893E-01
                       7.4711242893E-01  7.4711242893E-01  2.5288757107E-01
                       2.5288757107E-01  7.4711242893E-01  7.4711242893E-01
                       7.4711242893E-01  2.5288757107E-01  7.4711242893E-01
                       2.5288757107E-01  7.4711242893E-01  2.5288757107E-01
                       7.4711242893E-01  2.5288757107E-01  2.5288757107E-01
                       1.5727523886E-21 -1.0241167123E-20  1.0486281870E-20
             xred7     2.5000000000E-01  2.5000000000E-01  2.5000000000E-01
                       7.5000000000E-01  7.5000000000E-01  7.5000000000E-01
                       2.5297407918E-01  2.5297407918E-01  7.4702592082E-01
                       7.4702592082E-01  7.4702592082E-01  2.5297407918E-01
                       2.5297407918E-01  7.4702592082E-01  7.4702592082E-01
                       7.4702592082E-01  2.5297407918E-01  7.4702592082E-01
                       2.5297407918E-01  7.4702592082E-01  2.5297407918E-01
                       7.4702592082E-01  2.5297407918E-01  2.5297407918E-01
                      -6.1024422246E-21 -4.0264949953E-21  1.3406974517E-20
             xred8     2.5000000000E-01  2.5000000000E-01  2.5000000000E-01
                       7.5000000000E-01  7.5000000000E-01  7.5000000000E-01
                       2.5306055728E-01  2.5306055728E-01  7.4693944272E-01
                       7.4693944272E-01  7.4693944272E-01  2.5306055728E-01
                       2.5306055728E-01  7.4693944272E-01  7.4693944272E-01
                       7.4693944272E-01  2.5306055728E-01  7.4693944272E-01
                       2.5306055728E-01  7.4693944272E-01  2.5306055728E-01
                       7.4693944272E-01  2.5306055728E-01  2.5306055728E-01
                      -9.5706507907E-21 -5.8495168502E-21  1.4467797993E-20
             xred9     2.5000000000E-01  2.5000000000E-01  2.5000000000E-01
                       7.5000000000E-01  7.5000000000E-01  7.5000000000E-01
                       2.5314691969E-01  2.5314691969E-01  7.4685308031E-01
                       7.4685308031E-01  7.4685308031E-01  2.5314691969E-01
                       2.5314691969E-01  7.4685308031E-01  7.4685308031E-01
                       7.4685308031E-01  2.5314691969E-01  7.4685308031E-01
                       2.5314691969E-01  7.4685308031E-01  2.5314691969E-01
                       7.4685308031E-01  2.5314691969E-01  2.5314691969E-01
                      -1.3766052800E-20 -3.5519749478E-21  1.4355274894E-20
             xred10    2.5000000000E-01  2.5000000000E-01  2.5000000000E-01
                       7.5000000000E-01  7.5000000000E-01  7.5000000000E-01
                       2.5323022619E-01  2.5323022619E-01  7.4676977381E-01
                       7.4676977381E-01  7.4676977381E-01  2.5323022619E-01
                       2.5323022619E-01  7.4676977381E-01  7.4676977381E-01
                       7.4676977381E-01  2.5323022619E-01  7.4676977381E-01
                       2.5323022619E-01  7.4676977381E-01  2.5323022619E-01
                       7.4676977381E-01  2.5323022619E-01  2.5323022619E-01
                      -6.1024422246E-21 -4.0264949953E-21  1.3406974517E-20
             xred11    2.5000000000E-01  2.5000000000E-01  2.5000000000E-01
                       7.5000000000E-01  7.5000000000E-01  7.5000000000E-01
                       2.5331088565E-01  2.5331088565E-01  7.4668911435E-01
                       7.4668911435E-01  7.4668911435E-01  2.5331088565E-01
                       2.5331088565E-01  7.4668911435E-01  7.4668911435E-01
                       7.4668911435E-01  2.5331088565E-01  7.4668911435E-01
                       2.5331088565E-01  7.4668911435E-01  2.5331088565E-01
                       7.4668911435E-01  2.5331088565E-01  2.5331088565E-01
                      -8.5106103347E-21 -3.8762741044E-21  1.6411413839E-20
             xred12    2.5000000000E-01  2.5000000000E-01  2.5000000000E-01
                       7.5000000000E-01  7.5000000000E-01  7.5000000000E-01
                       2.5339680518E-01  2.5339680518E-01  7.4660319482E-01
                       7.4660319482E-01  7.4660319482E-01  2.5339680518E-01
                       2.5339680518E-01  7.4660319482E-01  7.4660319482E-01
                       7.4660319482E-01  2.5339680518E-01  7.4660319482E-01
                       2.5339680518E-01  7.4660319482E-01  2.5339680518E-01
                       7.4660319482E-01  2.5339680518E-01  2.5339680518E-01
                      -6.8504685253E-21 -9.0127261350E-22  1.2368794387E-20
             xred13    2.5000000000E-01  2.5000000000E-01  2.5000000000E-01
                       7.5000000000E-01  7.5000000000E-01  7.5000000000E-01
                       2.5348669300E-01  2.5348669300E-01  7.4651330700E-01
                       7.4651330700E-01  7.4651330700E-01  2.5348669300E-01
                       2.5348669300E-01  7.4651330700E-01  7.4651330700E-01
                       7.4651330700E-01  2.5348669300E-01  7.4651330700E-01
                       2.5348669300E-01  7.4651330700E-01  2.5348669300E-01
                       7.4651330700E-01  2.5348669300E-01  2.5348669300E-01
                      -9.1096848247E-21  2.5958302193E-21  8.0392571810E-21
             xred14    2.5000000000E-01  2.5000000000E-01  2.5000000000E-01
                       7.5000000000E-01  7.5000000000E-01  7.5000000000E-01
                       2.5357059396E-01  2.5357059396E-01  7.4642940604E-01
                       7.4642940604E-01  7.4642940604E-01  2.5357059396E-01
                       2.5357059396E-01  7.4642940604E-01  7.4642940604E-01
                       7.4642940604E-01  2.5357059396E-01  7.4642940604E-01
                       2.5357059396E-01  7.4642940604E-01  2.5357059396E-01
                       7.4642940604E-01  2.5357059396E-01  2.5357059396E-01
                      -6.1024422246E-21 -4.0264949953E-21  1.3406974517E-20
             xred15    2.5000000000E-01  2.5000000000E-01  2.5000000000E-01
                       7.5000000000E-01  7.5000000000E-01  7.5000000000E-01
                       2.5365472221E-01  2.5365472221E-01  7.4634527779E-01
                       7.4634527779E-01  7.4634527779E-01  2.5365472221E-01
                       2.5365472221E-01  7.4634527779E-01  7.4634527779E-01
                       7.4634527779E-01  2.5365472221E-01  7.4634527779E-01
                       2.5365472221E-01  7.4634527779E-01  2.5365472221E-01
                       7.4634527779E-01  2.5365472221E-01  2.5365472221E-01
                      -6.5006348077E-21 -4.0144566916E-21  1.0663161787E-20
             xred16    2.5000000000E-01  2.5000000000E-01  2.5000000000E-01
                       7.5000000000E-01  7.5000000000E-01  7.5000000000E-01
                       2.5373394695E-01  2.5373394695E-01  7.4626605305E-01
                       7.4626605305E-01  7.4626605305E-01  2.5373394695E-01
                       2.5373394695E-01  7.4626605305E-01  7.4626605305E-01
                       7.4626605305E-01  2.5373394695E-01  7.4626605305E-01
                       2.5373394695E-01  7.4626605305E-01  2.5373394695E-01
                       7.4626605305E-01  2.5373394695E-01  2.5373394695E-01
                      -8.1588596040E-21 -7.9197624974E-21  1.2650297557E-20
             xred17    2.5000000000E-01  2.5000000000E-01  2.5000000000E-01
                       7.5000000000E-01  7.5000000000E-01  7.5000000000E-01
                       2.5382113088E-01  2.5382113088E-01  7.4617886912E-01
                       7.4617886912E-01  7.4617886912E-01  2.5382113088E-01
                       2.5382113088E-01  7.4617886912E-01  7.4617886912E-01
                       7.4617886912E-01  2.5382113088E-01  7.4617886912E-01
                       2.5382113088E-01  7.4617886912E-01  2.5382113088E-01
                       7.4617886912E-01  2.5382113088E-01  2.5382113088E-01
                      -6.4316274779E-21 -4.1302139458E-21  9.7452352427E-21
             xred18    2.5000000000E-01  2.5000000000E-01  2.5000000000E-01
                       7.5000000000E-01  7.5000000000E-01  7.5000000000E-01
                       2.5390614964E-01  2.5390614964E-01  7.4609385036E-01
                       7.4609385036E-01  7.4609385036E-01  2.5390614964E-01
                       2.5390614964E-01  7.4609385036E-01  7.4609385036E-01
                       7.4609385036E-01  2.5390614964E-01  7.4609385036E-01
                       2.5390614964E-01  7.4609385036E-01  2.5390614964E-01
                       7.4609385036E-01  2.5390614964E-01  2.5390614964E-01
                      -5.6458805418E-22 -3.2038855053E-21  4.4079742388E-21
             xred19    2.5000000000E-01  2.5000000000E-01  2.5000000000E-01
                       7.5000000000E-01  7.5000000000E-01  7.5000000000E-01
                       2.5398917875E-01  2.5398917875E-01  7.4601082125E-01
                       7.4601082125E-01  7.4601082125E-01  2.5398917875E-01
                       2.5398917875E-01  7.4601082125E-01  7.4601082125E-01
                       7.4601082125E-01  2.5398917875E-01  7.4601082125E-01
                       2.5398917875E-01  7.4601082125E-01  2.5398917875E-01
                       7.4601082125E-01  2.5398917875E-01  2.5398917875E-01
                      -6.1024422246E-21 -4.0264949953E-21  1.3406974517E-20
             xred20    2.5000000000E-01  2.5000000000E-01  2.5000000000E-01
                       7.5000000000E-01  7.5000000000E-01  7.5000000000E-01
                       2.5407141213E-01  2.5407141213E-01  7.4592858787E-01
                       7.4592858787E-01  7.4592858787E-01  2.5407141213E-01
                       2.5407141213E-01  7.4592858787E-01  7.4592858787E-01
                       7.4592858787E-01  2.5407141213E-01  7.4592858787E-01
                       2.5407141213E-01  7.4592858787E-01  2.5407141213E-01
                       7.4592858787E-01  2.5407141213E-01  2.5407141213E-01
                      -8.2234774276E-21 -1.6085703843E-21  1.4057621179E-20
            znucl       55.00000   35.00000   40.00000

- Timing analysis has been suppressed with timopt=0

 Suggested references for the acknowledgment of ABINIT usage.

 Calculation completed.
.Delivered   0 WARNINGs and  60 COMMENTs to log file.