.Version 9.2.2 of ABINIT

 ABINIT is a project of the Universite Catholique de Louvain,
 Corning Inc. and other collaborators, see ~abinit/doc/developers/contributors.txt .
 acknowledgments of the ABINIT effort.

.Starting date : Mon 12 Dec 2022.
- ( at 08h26 )

- The starting date is more than 2 years after the initial release
- of this version of ABINIT, namely Nov 2020.
- Note that the use beyond 3 years after the release will not be supported.
- Action: please, switch to a more recent version of ABINIT.

- input  file    -> Cs2TiI6.in
- output file    -> Cs2TiI6.out
- root for input  files -> Cs2TiI6i
- root for output files -> Cs2TiI6o

- inpspheads : Reading pseudopotential header in XML form from
-   ../../../Psps_for_tests/ATOMICDATA/Cs.GGA_PBE-JTH.xml
- inpspheads : Reading pseudopotential header in XML form from
-   ../../../Psps_for_tests/ATOMICDATA/I.GGA_PBE-JTH.xml
- inpspheads : Reading pseudopotential header in XML form from
-   ../../../Psps_for_tests/ATOMICDATA/Zr.GGA_PBE-JTH.xml
- inpspheads : Reading pseudopotential header in XML form from
-   ../../../Psps_for_tests/ATOMICDATA/Cl.GGA_PBE-JTH.xml

 DATASET    1 : space group Im m 2 (# 44); Bravais oI (body-center ortho.)
     intxc =       0    ionmov =       0      iscf =      17    lmnmax =      18
     lnmax =       6     mgfft =      60  mpssoang =       3    mqgrid =    3639
     natom =       9  nloc_mem =       2    nspden =       1   nspinor =       1
    nsppol =       1      nsym =       4    n1xccc =       1    ntypat =       4
    occopt =       1   xclevel =       2
-    mband =          42        mffmem =           1         mkmem =          47
       mpw =        8174          nfft =      216000          nkpt =         280
Pmy_natom=         2
 PAW method is used; the additional fine FFT grid is defined by:
   mgfftf=        90    nfftf =    729000
  Rough estimation (10% accuracy) of disk space for files :

[...]

 DATASET   10 : space group Im m 2 (# 44); Bravais oI (body-center ortho.)
     intxc =       0    ionmov =       0      iscf =      17    lmnmax =      18
     lnmax =       6     mgfft =      54  mpssoang =       3    mqgrid =    3301
     natom =       9  nloc_mem =       2    nspden =       1   nspinor =       1
    nsppol =       1      nsym =       4    n1xccc =       1    ntypat =       4
    occopt =       1   xclevel =       2
-    mband =          42        mffmem =           1         mkmem =          47
       mpw =        6133          nfft =      157464          nkpt =         280
Pmy_natom=         2
 PAW method is used; the additional fine FFT grid is defined by:
   mgfftf=        90    nfftf =    729000
  Rough estimation (10% accuracy) of disk space for files :

------------- Echo of variables that govern the present computation ------------
-
- outvars: echo of selected default values
-   iomode0 =  0 , fftalg0 =112 , wfoptalg0 = 10
-
- outvars: echo of global parameters not present in the input file
-  max_nthreads =    0
-
 -outvars: echo values of preprocessed input variables --------
            acell1     1.5348379543E+01  1.5582495348E+01  1.5582495348E+01 Bohr
            acell2     1.5207409895E+01  1.5420917475E+01  1.5420917475E+01 Bohr
            acell3     1.5055028604E+01  1.5258881586E+01  1.5258881586E+01 Bohr
            acell4     1.4912285534E+01  1.5098746328E+01  1.5098746328E+01 Bohr
            acell5     1.4764030083E+01  1.4941186775E+01  1.4941186775E+01 Bohr
            acell6     1.4615534725E+01  1.4781404109E+01  1.4781404109E+01 Bohr
            acell7     1.4463435781E+01  1.4624223203E+01  1.4624223203E+01 Bohr
            acell8     1.4313548072E+01  1.4469077952E+01  1.4469077952E+01 Bohr
            acell9     1.4164347098E+01  1.4312353837E+01  1.4312353837E+01 Bohr
            acell10    1.4009043170E+01  1.4158985170E+01  1.4158985170E+01 Bohr
              amu      1.32905430E+02  1.26904470E+02  9.12240000E+01
                       3.54527000E+01
           diemac      1.20000000E+01
             ecut      1.60000000E+01 Hartree
-          fftalg         112
           istwfk        2    0    0    0    0    0    3    0    0    0
                         0    0    0    0    0    0    0    0    0    0
                         0    0    0    0    0    0    0    0    0    0
                         0    0    0    0    0    0    0    0    0    0
                         0    0    0    0    0    0    0    0    0    0
                       outvar_i_n : Printing only first  50 k-points.
              ixc     -101130
           jdtset        1    2    3    4    5    6    7    8    9   10
              kpt      0.00000000E+00  0.00000000E+00  0.00000000E+00
                       8.33333333E-02  0.00000000E+00  0.00000000E+00
                       1.66666667E-01  0.00000000E+00  0.00000000E+00
                       2.50000000E-01  0.00000000E+00  0.00000000E+00
                       3.33333333E-01  0.00000000E+00  0.00000000E+00
                       4.16666667E-01  0.00000000E+00  0.00000000E+00
                       5.00000000E-01  0.00000000E+00  0.00000000E+00
                       0.00000000E+00  8.33333333E-02  0.00000000E+00
                       8.33333333E-02  8.33333333E-02  0.00000000E+00
                       1.66666667E-01  8.33333333E-02  0.00000000E+00
                       2.50000000E-01  8.33333333E-02  0.00000000E+00
                       3.33333333E-01  8.33333333E-02  0.00000000E+00
                       4.16666667E-01  8.33333333E-02  0.00000000E+00
                       5.00000000E-01  8.33333333E-02  0.00000000E+00
                      -4.16666667E-01  8.33333333E-02  0.00000000E+00
                      -3.33333333E-01  8.33333333E-02  0.00000000E+00
                      -2.50000000E-01  8.33333333E-02  0.00000000E+00
                      -1.66666667E-01  8.33333333E-02  0.00000000E+00
                      -8.33333333E-02  8.33333333E-02  0.00000000E+00
                       0.00000000E+00  1.66666667E-01  0.00000000E+00
                       8.33333333E-02  1.66666667E-01  0.00000000E+00
                       1.66666667E-01  1.66666667E-01  0.00000000E+00
                       2.50000000E-01  1.66666667E-01  0.00000000E+00
                       3.33333333E-01  1.66666667E-01  0.00000000E+00
                       4.16666667E-01  1.66666667E-01  0.00000000E+00
                       5.00000000E-01  1.66666667E-01  0.00000000E+00
                      -4.16666667E-01  1.66666667E-01  0.00000000E+00
                      -3.33333333E-01  1.66666667E-01  0.00000000E+00
                      -2.50000000E-01  1.66666667E-01  0.00000000E+00
                      -1.66666667E-01  1.66666667E-01  0.00000000E+00
                      -8.33333333E-02  1.66666667E-01  0.00000000E+00
                       0.00000000E+00  2.50000000E-01  0.00000000E+00
                       8.33333333E-02  2.50000000E-01  0.00000000E+00
                       1.66666667E-01  2.50000000E-01  0.00000000E+00
                       2.50000000E-01  2.50000000E-01  0.00000000E+00
                       3.33333333E-01  2.50000000E-01  0.00000000E+00
                       4.16666667E-01  2.50000000E-01  0.00000000E+00
                       5.00000000E-01  2.50000000E-01  0.00000000E+00
                      -4.16666667E-01  2.50000000E-01  0.00000000E+00
                      -3.33333333E-01  2.50000000E-01  0.00000000E+00
                      -2.50000000E-01  2.50000000E-01  0.00000000E+00
                      -1.66666667E-01  2.50000000E-01  0.00000000E+00
                      -8.33333333E-02  2.50000000E-01  0.00000000E+00
                       0.00000000E+00  3.33333333E-01  0.00000000E+00
                       8.33333333E-02  3.33333333E-01  0.00000000E+00
                       1.66666667E-01  3.33333333E-01  0.00000000E+00
                       2.50000000E-01  3.33333333E-01  0.00000000E+00
                       3.33333333E-01  3.33333333E-01  0.00000000E+00
                       4.16666667E-01  3.33333333E-01  0.00000000E+00
                       5.00000000E-01  3.33333333E-01  0.00000000E+00
                       outvar_i_n : Printing only first  50 k-points.
         kptrlatt       12    0    0      0   12    0      0    0   12
          kptrlen1     1.84180555E+02
          kptrlen2     1.82488919E+02
          kptrlen3     1.80660343E+02
          kptrlen4     1.78947426E+02
          kptrlen5     1.77168361E+02
          kptrlen6     1.75386417E+02
          kptrlen7     1.73561229E+02
          kptrlen8     1.71762577E+02
          kptrlen9     1.69972165E+02
          kptrlen10    1.68108518E+02
P           mkmem          47
            natom           9
            nband          42
           ndtset          10
            ngfft1         60      60      60
            ngfft2         60      60      60
            ngfft3         60      60      60
            ngfft4         60      60      60
            ngfft5         54      54      54
            ngfft6         54      54      54
            ngfft7         54      54      54
            ngfft8         54      54      54
            ngfft9         54      54      54
            ngfft10        54      54      54
          ngfftdg          90      90      90
             nkpt         280
            nstep        2500
             nsym           4
           ntypat           4
              occ      2.000000  2.000000  2.000000  2.000000  2.000000  2.000000
                       2.000000  2.000000  2.000000  2.000000  2.000000  2.000000
                       2.000000  2.000000  2.000000  2.000000  2.000000  2.000000
                       2.000000  2.000000  2.000000  2.000000  2.000000  2.000000
                       2.000000  2.000000  2.000000  2.000000  2.000000  2.000000
                       2.000000  2.000000  2.000000  2.000000  2.000000  2.000000
                       0.000000  0.000000  0.000000  0.000000  0.000000  0.000000
        pawecutdg      4.00000000E+01 Hartree
            prtwf           0
            rprim1     0.0000000000E+00  7.0710678119E-01  7.0710678119E-01
                       7.1096411835E-01 -6.7132326487E-03  7.0319624211E-01
                       7.1096411835E-01  7.0319624211E-01 -6.7132326487E-03
            rprim2     0.0000000000E+00  7.0710678119E-01  7.0710678119E-01
                       7.1041959479E-01 -6.4323188729E-03  7.0374897841E-01
                       7.1041959479E-01  7.0374897841E-01 -6.4323188729E-03
            rprim3     0.0000000000E+00  7.0710678119E-01  7.0710678119E-01
                       7.0977720220E-01 -6.7339520387E-03  7.0439404961E-01
                       7.0977720220E-01  7.0439404961E-01 -6.7339520387E-03
            rprim4     0.0000000000E+00  7.0710678119E-01  7.0710678119E-01
                       7.0940191518E-01 -6.4006878513E-03  7.0477510876E-01
                       7.0940191518E-01  7.0477510876E-01 -6.4006878513E-03
            rprim5     0.0000000000E+00  7.0710678119E-01  7.0710678119E-01
                       7.0937394963E-01 -6.0834052924E-03  7.0480606678E-01
                       7.0937394963E-01  7.0480606678E-01 -6.0834052924E-03
[...]
                      -7.4610445006E-35 -1.0871010568E-01 -1.0871010568E-01
           xangst7     2.7588841071E+00  2.6919442857E+00  2.6919442857E+00
                       8.2153666107E+00  8.1039420043E+00  8.1039420043E+00
                       5.4871253589E+00  5.4309207683E+00  2.7008350563E+00
                       5.4871253589E+00  5.3210277742E+00  8.3123663572E+00
                       8.1319951807E+00  5.4239513863E+00  5.4239513863E+00
                       5.4871253589E+00  8.3123663572E+00  5.3210277742E+00
                       5.4871253589E+00  2.7008350563E+00  5.4309207683E+00
                       2.8422555371E+00  5.4239513863E+00  5.4239513863E+00
                      -1.8297178908E-34 -1.1295726966E-01 -1.1295726966E-01
           xangst8     2.7351983976E+00  2.6654459451E+00  2.6654459451E+00
                       8.1274887326E+00  8.0213579623E+00  8.0213579623E+00
                       5.4313435651E+00  5.3771008323E+00  2.6886553830E+00
                       5.4313435651E+00  5.2757314891E+00  8.1930194195E+00
                       8.0328561025E+00  5.3721062712E+00  5.3721062712E+00
                       5.4313435651E+00  8.1930194195E+00  5.2757314891E+00
                       5.4313435651E+00  2.6886553830E+00  5.3771008323E+00
                       2.8298310277E+00  5.3721062713E+00  5.3721062713E+00
                      -4.2266483401E-36 -1.1822743588E-01 -1.1822743588E-01
           xangst9     2.7070915575E+00  2.6402619798E+00  2.6402619798E+00
                       8.0393012602E+00  7.9403452616E+00  7.9403452616E+00
                       5.3731964088E+00  5.3229374303E+00  2.6743333231E+00
                       5.3731964088E+00  5.2273889019E+00  8.0760730282E+00
                       7.9302977943E+00  5.3215226842E+00  5.3215226842E+00
                       5.3731964088E+00  8.0760730282E+00  5.2273889019E+00
                       5.3731964088E+00  2.6743333231E+00  5.3229374303E+00
                       2.8160950233E+00  5.3215226842E+00  5.3215226842E+00
                       1.8642019903E-17 -1.2371903907E-01 -1.2371903907E-01
           xangst10    2.6826411431E+00  2.6144695152E+00  2.6144695152E+00
                       7.9573094307E+00  7.8564404288E+00  7.8564404288E+00
                       5.3199752869E+00  5.2679631460E+00  2.6583985274E+00
                       5.3199752869E+00  5.1794821874E+00  7.9540736698E+00
                       7.8389817925E+00  5.2677270542E+00  5.2677270542E+00
                       5.3199752869E+00  7.9540736698E+00  5.1794821874E+00
                       5.3199752869E+00  2.6583985274E+00  5.2679631460E+00
                       2.8009687813E+00  5.2677270544E+00  5.2677270544E+00
                       4.6143430109E-16 -1.3051427480E-01 -1.3051427480E-01
            xcart1     5.5244445352E+00  5.3898763908E+00  5.3898763908E+00
                       1.6632745598E+01  1.6242819646E+01  1.6242819646E+01
                       1.1078595067E+01  1.0869541873E+01  5.2081652688E+00
                       1.1078595067E+01  1.0649410384E+01  1.7009280521E+01
                       1.6688379649E+01  1.0817180303E+01  1.0817180303E+01
                       1.1078595067E+01  1.7009280521E+01  1.0649410384E+01
                       1.1078595067E+01  5.2081652688E+00  1.0869541873E+01
                       5.4688104841E+00  1.0817180303E+01  1.0817180303E+01
                      -1.5759005133E-15 -1.7990864882E-01 -1.7990864882E-01
            xcart2     5.4630041164E+00  5.3382947027E+00  5.3382947027E+00
                       1.6447639771E+01  1.6091557364E+01  1.6091557364E+01
                       1.0955321944E+01  1.0768665816E+01  5.2000477813E+00
                       1.0955321944E+01  1.0556513325E+01  1.6801444499E+01
                       1.6453666315E+01  1.0725934053E+01  1.0725934053E+01
                       1.0955321944E+01  1.6801444499E+01  1.0556513325E+01
                       1.0955321944E+01  5.2000477813E+00  1.0768665816E+01
                       5.4569775732E+00  1.0725934053E+01  1.0725934053E+01
                      -4.1809799158E-16 -1.8229030632E-01 -1.8229030632E-01
            xcart3     5.4175899430E+00  5.2866908111E+00  5.2866908111E+00
                       1.6243222619E+01  1.5932203628E+01  1.5932203628E+01
                       1.0830406281E+01  1.0668539203E+01  5.1797120661E+00
                       1.0830406281E+01  1.0441375329E+01  1.6584549822E+01
                       1.6217248188E+01  1.0628911630E+01  1.0628911630E+01
                       1.0830406281E+01  1.6584549822E+01  1.0441375329E+01
                       1.0830406281E+01  5.1797120661E+00  1.0668539203E+01
                       5.4435643738E+00  1.0628911631E+01  1.0628911631E+01
                       2.6302864042E-16 -1.8679158794E-01 -1.8679158794E-01
            xcart4     5.3598143511E+00  5.2381880516E+00  5.2381880516E+00
                       1.6062344773E+01  1.5782766275E+01  1.5782766275E+01
                       1.0711079562E+01  1.0566805721E+01  5.1660211128E+00
                       1.0711079562E+01  1.0348812260E+01  1.6370484814E+01
                       1.5993571689E+01  1.0537955261E+01  1.0537955261E+01
                       1.0711079562E+01  1.6370484814E+01  1.0348812260E+01
                       1.0711079562E+01  5.1660211128E+00  1.0566805721E+01
                       5.4285874348E+00  1.0537955261E+01  1.0537955261E+01
                       3.6343959998E-34 -1.9236296701E-01 -1.9236296701E-01
            xcart5     5.3189319830E+00  5.1845206441E+00  5.1845206441E+00
                       1.5878845367E+01  1.5624266433E+01  1.5624266433E+01
                       1.0598888675E+01  1.0467301125E+01  5.1501593586E+00
                       1.0598888675E+01  1.0258011059E+01  1.6150250197E+01
                       1.5785882568E+01  1.0440722699E+01  1.0440722699E+01
                       1.0598888675E+01  1.6150250197E+01  1.0258011059E+01
                       1.0598888675E+01  5.1501593586E+00  1.0467301125E+01
                       5.4118947813E+00  1.0440722699E+01  1.0440722699E+01
                      -1.6513560876E-35 -1.9798790074E-01 -1.9798790074E-01
            xcart6     5.2630242158E+00  5.1366541642E+00  5.1366541642E+00
                       1.5697743211E+01  1.5471397879E+01  1.5471397879E+01
                       1.0480383713E+01  1.0365472446E+01  5.1276912362E+00
                       1.0480383713E+01  1.0155691092E+01  1.5931928503E+01
                       1.5568391126E+01  1.0347273362E+01  1.0347273362E+01
                       1.0480383713E+01  1.5931928503E+01  1.0155691092E+01
                       1.0480383713E+01  5.1276912362E+00  1.0365472446E+01
                       5.3923763010E+00  1.0347273362E+01  1.0347273362E+01
                      -1.4099330771E-34 -2.0543232762E-01 -2.0543232762E-01
            xcart7     5.2135353948E+00  5.0870374649E+00  5.0870374649E+00
                       1.5524792975E+01  1.5314230985E+01  1.5314230985E+01
                       1.0369164185E+01  1.0262952901E+01  5.1038385865E+00
                       1.0369164185E+01  1.0055285239E+01  1.5708095931E+01
                       1.5367243805E+01  1.0249782678E+01  1.0249782678E+01
                       1.0369164185E+01  1.5708095931E+01  1.0055285239E+01
                       1.0369164185E+01  5.1038385865E+00  1.0262952901E+01
                       5.3710845648E+00  1.0249782678E+01  1.0249782678E+01
                      -3.4576657140E-34 -2.1345830437E-01 -2.1345830437E-01
            xcart8     5.1687758906E+00  5.0369628582E+00  5.0369628582E+00
                       1.5358727853E+01  1.5158169763E+01  1.5158169763E+01
                       1.0263751872E+01  1.0161247962E+01  5.0808223397E+00
                       1.0263751872E+01  9.9696876650E+00  1.5482562904E+01
                       1.5179898099E+01  1.0151809609E+01  1.0151809609E+01
                       1.0263751872E+01  1.5482562904E+01  9.9696876650E+00
                       1.0263751872E+01  5.0808223397E+00  1.0161247962E+01
                       5.3476056447E+00  1.0151809610E+01  1.0151809610E+01
                      -7.9872078228E-36 -2.2341747521E-01 -2.2341747521E-01
            xcart9     5.1156616602E+00  4.9893720610E+00  4.9893720610E+00
                       1.5192077681E+01  1.5005077945E+01  1.5005077945E+01
                       1.0153869671E+01  1.0058893966E+01  5.0537575687E+00
                       1.0153869671E+01  9.8783334147E+00  1.5261566252E+01
                       1.4986090983E+01  1.0056220483E+01  1.0056220483E+01
                       1.0153869671E+01  1.5261566252E+01  9.8783334147E+00
                       1.0153869671E+01  5.0537575687E+00  1.0058893966E+01
                       5.3216483583E+00  1.0056220483E+01  1.0056220483E+01
                       3.5228312180E-17 -2.3379510126E-01 -2.3379510126E-01
            xcart10    5.0694570732E+00  4.9406313666E+00  4.9406313666E+00
                       1.5037135579E+01  1.4846520790E+01  1.4846520790E+01
                       1.0053296326E+01  9.9550076240E+00  5.0236451689E+00
                       1.0053296326E+01  9.7878028443E+00  1.5031020877E+01
                       1.4813528749E+01  9.9545614752E+00  9.9545614752E+00
                       1.0053296326E+01  1.5031020877E+01  9.7878028443E+00
                       1.0053296326E+01  5.0236451689E+00  9.9550076240E+00
                       5.2930639034E+00  9.9545614756E+00  9.9545614756E+00
                       8.7198445738E-16 -2.4663623580E-01 -2.4663623580E-01
             xred1     2.4729842847E-01  2.4932965335E-01  2.4932965335E-01
                       7.4595773517E-01  7.5067034665E-01  7.5067034665E-01
                       2.4070723326E-01  2.4411073209E-01  7.5588926791E-01
                       7.7424838841E-01  7.8746056430E-01  2.1253943570E-01
                       2.4352354237E-01  7.5318122690E-01  7.5318122690E-01
                       7.7424838841E-01  2.1253943570E-01  7.8746056430E-01
                       2.4070723326E-01  7.5588926791E-01  2.4411073209E-01
                       7.4988599617E-01  2.4681877310E-01  2.4681877310E-01
                      -1.6576945497E-02 -7.1322662243E-17 -7.0924662787E-17
             xred2     2.4710382179E-01  2.4933106231E-01  2.4933106231E-01
                       7.4576594641E-01  7.5066893769E-01  7.5066893769E-01
                       2.4250551208E-01  2.4576344800E-01  7.5423655200E-01
                       7.7207707497E-01  7.8511378576E-01  2.1488621424E-01
                       2.4651458664E-01  7.5094398863E-01  7.5094398863E-01
                       7.7207707497E-01  2.1488621424E-01  7.8511378576E-01
                       2.4250551208E-01  7.5423655200E-01  2.4576344800E-01
                       7.4840256390E-01  2.4905601137E-01  2.4905601137E-01
                      -1.6952092780E-02 -1.7454709172E-17 -2.0709207300E-17
             xred3     2.4650194164E-01  2.5011018989E-01  2.5011018989E-01
                       7.4672232143E-01  7.4988981011E-01  7.4988981011E-01
                       2.4436297914E-01  2.4708238655E-01  7.5291761345E-01
                       7.6935759775E-01  7.8306904064E-01  2.1693095936E-01
                       2.4974987992E-01  7.4869066623E-01  7.4869066623E-01
                       7.6935759775E-01  2.1693095936E-01  7.8306904064E-01
                       2.4436297914E-01  7.5291761345E-01  2.4708238655E-01
                       7.4713121238E-01  2.5130933377E-01  2.5130933377E-01
                      -1.7546509140E-02  1.1263904597E-17  1.3022224066E-17
             xred4     2.4656647038E-01  2.5019953965E-01  2.5019953965E-01
                       7.4696554968E-01  7.4980046035E-01  7.4980046035E-01
                       2.4601498988E-01  2.4851678429E-01  7.5148321571E-01
                       7.6696850777E-01  7.8039436634E-01  2.1960563366E-01
                       2.5278181915E-01  7.4659008910E-01  7.4659008910E-01
                       7.6696850777E-01  2.1960563366E-01  7.8039436634E-01
                       2.4601498988E-01  7.5148321571E-01  2.4851678429E-01
                       7.4596199735E-01  2.5340991090E-01  2.5340991090E-01
                      -1.8242831806E-02  1.0729905370E-18 -1.0729905370E-18
             xred5     2.4569436170E-01  2.5091932495E-01  2.5091932495E-01
                       7.4753301160E-01  7.4908067505E-01  7.4908067505E-01
                       2.4798087995E-01  2.4969987488E-01  7.5030012512E-01
                       7.6479426746E-01  7.7737236621E-01  2.2262763379E-01
                       2.5539839840E-01  7.4469517761E-01  7.4469517761E-01
                       7.6479426746E-01  2.2262763379E-01  7.7737236621E-01
                       2.4798087995E-01  7.5030012512E-01  2.4969987488E-01
                       7.4478875362E-01  2.5530482239E-01  2.5530482239E-01
                      -1.8964820096E-02  5.7421231236E-20 -5.7421231236E-20
             xred6     2.4593843547E-01  2.5108929023E-01  2.5108929023E-01
                       7.4811701593E-01  7.4891070977E-01  7.4891070977E-01
                       2.4956690317E-01  2.5085964666E-01  7.4914035334E-01
                       7.6213190746E-01  7.7475256638E-01  2.2524743362E-01
                       2.5847282343E-01  7.4273955761E-01  7.4273955761E-01
                       7.6213190746E-01  2.2524743362E-01  7.7475256638E-01
                       2.4956690317E-01  7.4914035334E-01  2.5085964666E-01
                       7.4395193865E-01  2.5726044239E-01  2.5726044239E-01
                      -1.9877834738E-02  2.2876154756E-19 -2.2876154756E-19
             xred7     2.4600694587E-01  2.5139612517E-01  2.5139612517E-01
                       7.4879919621E-01  7.4860387483E-01  7.4860387483E-01
                       2.5127118002E-01  2.5189819780E-01  7.4810180220E-01
                       7.5955283430E-01  7.7184366050E-01  2.2815633950E-01
                       2.6120186428E-01  7.4100687052E-01  7.4100687052E-01
                       7.5955283430E-01  2.2815633950E-01  7.7184366050E-01
                       2.5127118002E-01  7.4810180220E-01  2.5189819780E-01
                       7.4321560532E-01  2.5899312948E-01  2.5899312948E-01
                      -2.0871640294E-02 -4.2979538202E-19  4.2979538202E-19
             xred8     2.4586666542E-01  2.5179758607E-01  2.5179758607E-01
                       7.4946183756E-01  7.4820241393E-01  7.4820241393E-01
                       2.5297691499E-01  2.5278293182E-01  7.4721706818E-01
                       7.5737230795E-01  7.6826036936E-01  2.3173963064E-01
                       2.6353292279E-01  7.3949069933E-01  7.3949069933E-01
                       7.5737230795E-01  2.3173963064E-01  7.6826036936E-01
                       2.5297691499E-01  7.4721706818E-01  2.5278293182E-01
                       7.4251432145E-01  2.6050930067E-01  2.6050930067E-01
                      -2.2074193060E-02  1.2392109404E-20 -1.2392109404E-20
             xred9     2.4624781161E-01  2.5190699832E-01  2.5190699832E-01
                       7.5006180825E-01  7.4809300168E-01  7.4809300168E-01
                       2.5444764999E-01  2.5361839707E-01  7.4638160293E-01
                       7.5502385744E-01  7.6499368455E-01  2.3500631545E-01
                       2.6609536591E-01  7.3794974080E-01  7.3794974080E-01
                       7.5502385744E-01  2.3500631545E-01  7.6499368455E-01
                       2.5444764999E-01  7.4638160293E-01  2.5361839707E-01
                       7.4199484750E-01  2.6205025920E-01  2.6205025920E-01
                      -2.3342848119E-02  6.0499227557E-20  3.4089477244E-18
             xred10    2.4662786905E-01  2.5212909820E-01  2.5212909820E-01
                       7.5088606545E-01  7.4787090180E-01  7.4787090180E-01
                       2.5604784958E-01  2.5427760239E-01  7.4572239761E-01
                       7.5273070699E-01  7.6126169347E-01  2.3873830653E-01
                       2.6816361444E-01  7.3674983151E-01  7.3674983151E-01
                       7.5273070699E-01  2.3873830653E-01  7.6126169347E-01
                       2.5604784958E-01  7.4572239761E-01  2.5427760239E-01
                       7.4166327746E-01  2.6325016849E-01  2.6325016849E-01
                      -2.4897939524E-02  4.1507296291E-17  4.5228877507E-17
            znucl       55.00000   53.00000   40.00000   17.00000

- Timing analysis has been suppressed with timopt=0

 Suggested references for the acknowledgment of ABINIT usage.

 Calculation completed.
.Delivered   0 WARNINGs and   5 COMMENTs to log file.