.Version 9.2.2 of ABINIT

 ABINIT is a project of the Universite Catholique de Louvain,
 Corning Inc. and other collaborators, see ~abinit/doc/developers/contributors.txt .
 acknowledgments of the ABINIT effort.

.Starting date : Sun 11 Sep 2022.
- ( at 10h10 )

- input  file    -> Cs2TiI6.in
- output file    -> Cs2TiI6.out
- root for input  files -> Cs2TiI6i
- root for output files -> Cs2TiI6o

- inpspheads : Reading pseudopotential header in XML form from
-   ../../../Psps_for_tests/ATOMICDATA/Cs.GGA_PBE-JTH.xml
- inpspheads : Reading pseudopotential header in XML form from
-   ../../../Psps_for_tests/ATOMICDATA/I.GGA_PBE-JTH.xml
- inpspheads : Reading pseudopotential header in XML form from
-   ../../../Psps_for_tests/ATOMICDATA/Zr.GGA_PBE-JTH.xml

 DATASET    1 : space group Fm -3 m (#225); Bravais cF (face-center cubic)
     intxc =       0    ionmov =       2      iscf =      17    lmnmax =      18
     lnmax =       6     mgfft =      60  mpssoang =       3    mqgrid =    3859
     natom =       9  nloc_mem =       2    nspden =       1   nspinor =       1
    nsppol =       1      nsym =      48    n1xccc =       1    ntypat =       3
    occopt =       1   xclevel =       2
-    mband =          42        mffmem =           1         mkmem =           2
       mpw =        9902          nfft =      216000          nkpt =          10
Pmy_natom=         2
 PAW method is used; the additional fine FFT grid is defined by:
   mgfftf=        96    nfftf =    884736
  Rough estimation (10% accuracy) of disk space for files :

[...]

 DATASET    9 : space group Fm -3 m (#225); Bravais cF (face-center cubic)
     intxc =       0    ionmov =       2      iscf =      17    lmnmax =      18
     lnmax =       6     mgfft =      60  mpssoang =       3    mqgrid =    3825
     natom =       9  nloc_mem =       2    nspden =       1   nspinor =       1
    nsppol =       1      nsym =      48    n1xccc =       1    ntypat =       3
    occopt =       1   xclevel =       2
-    mband =          42        mffmem =           1         mkmem =           2
       mpw =        9651          nfft =      216000          nkpt =          10
Pmy_natom=         2
 PAW method is used; the additional fine FFT grid is defined by:
   mgfftf=        96    nfftf =    884736
  Rough estimation (10% accuracy) of disk space for files :

------------- Echo of variables that govern the present computation ------------
-
- outvars: echo of selected default values
-   iomode0 =  0 , fftalg0 =112 , wfoptalg0 = 10
-
- outvars: echo of global parameters not present in the input file
-  max_nthreads =    0
-
 -outvars: echo values of preprocessed input variables --------
            acell      1.6056750671E+01  1.6056750671E+01  1.6056750671E+01 Bohr
              amu      1.32905430E+02  1.26904470E+02  9.12240000E+01
           diemac      1.20000000E+01
          dilatmx      1.15000000E+00
             ecut      1.60000000E+01 Hartree
           ecutsm      5.00000000E-01 Hartree
-          fftalg         112
           ionmov           2
              ixc     -101130
           jdtset        1    2    3    4    5    6    7    8    9
              kpt     -1.25000000E-01 -2.50000000E-01  0.00000000E+00
                      -1.25000000E-01  5.00000000E-01  0.00000000E+00
                      -2.50000000E-01 -3.75000000E-01  0.00000000E+00
                      -1.25000000E-01 -3.75000000E-01  1.25000000E-01
                      -1.25000000E-01  2.50000000E-01  0.00000000E+00
                      -2.50000000E-01  3.75000000E-01  0.00000000E+00
                      -3.75000000E-01  5.00000000E-01  0.00000000E+00
                      -2.50000000E-01  5.00000000E-01  1.25000000E-01
                      -1.25000000E-01  0.00000000E+00  0.00000000E+00
                      -3.75000000E-01  0.00000000E+00  0.00000000E+00
         kptrlatt        4   -4    4     -4    4    4     -4   -4    4
          kptrlen1     8.16567977E+01
          kptrlen2     8.15659670E+01
          kptrlen3     8.14751363E+01
          kptrlen4     8.13843056E+01
          kptrlen5     8.12934749E+01
          kptrlen6     8.12026443E+01
          kptrlen7     8.11118136E+01
          kptrlen8     8.10209829E+01
          kptrlen9     8.09301522E+01
P           mkmem           2
            natom           9
            nband          42
           ndtset           9
            ngfft          60      60      60
          ngfftdg          96      96      96
             nkpt          10
            nstep        2500
             nsym          48
            ntime        1000
           ntypat           3
              occ      2.000000  2.000000  2.000000  2.000000  2.000000  2.000000
                       2.000000  2.000000  2.000000  2.000000  2.000000  2.000000
                       2.000000  2.000000  2.000000  2.000000  2.000000  2.000000
                       2.000000  2.000000  2.000000  2.000000  2.000000  2.000000
                       2.000000  2.000000  2.000000  2.000000  2.000000  2.000000
                       2.000000  2.000000  2.000000  2.000000  2.000000  2.000000
                       0.000000  0.000000  0.000000  0.000000  0.000000  0.000000
        optforces           1
        pawecutdg      4.00000000E+01 Hartree
            prtwf           0
            rprim1     0.0000000000E+00  6.3568899629E-01  6.3568899629E-01
                       6.3568899629E-01  0.0000000000E+00  6.3568899629E-01
                       6.3568899629E-01  6.3568899629E-01  0.0000000000E+00
            rprim2     0.0000000000E+00  6.3498188951E-01  6.3498188951E-01
                       6.3498188951E-01  0.0000000000E+00  6.3498188951E-01
                       6.3498188951E-01  6.3498188951E-01  0.0000000000E+00
            rprim3     0.0000000000E+00  6.3427478273E-01  6.3427478273E-01
                       6.3427478273E-01  0.0000000000E+00  6.3427478273E-01
                       6.3427478273E-01  6.3427478273E-01  0.0000000000E+00
            rprim4     0.0000000000E+00  6.3356767595E-01  6.3356767595E-01
                       6.3356767595E-01  0.0000000000E+00  6.3356767595E-01
                       6.3356767595E-01  6.3356767595E-01  0.0000000000E+00
            rprim5     0.0000000000E+00  6.3286056917E-01  6.3286056917E-01
                       6.3286056917E-01  0.0000000000E+00  6.3286056917E-01
                       6.3286056917E-01  6.3286056917E-01  0.0000000000E+00
            rprim6     0.0000000000E+00  6.3215346238E-01  6.3215346238E-01
                       6.3215346238E-01  0.0000000000E+00  6.3215346238E-01
                       6.3215346238E-01  6.3215346238E-01  0.0000000000E+00
            rprim7     0.0000000000E+00  6.3144635560E-01  6.3144635560E-01
                       6.3144635560E-01  0.0000000000E+00  6.3144635560E-01
                       6.3144635560E-01  6.3144635560E-01  0.0000000000E+00
            rprim8     0.0000000000E+00  6.3073924882E-01  6.3073924882E-01
                       6.3073924882E-01  0.0000000000E+00  6.3073924882E-01
                       6.3073924882E-01  6.3073924882E-01  0.0000000000E+00
            rprim9     0.0000000000E+00  6.3003214204E-01  6.3003214204E-01
                       6.3003214204E-01  0.0000000000E+00  6.3003214204E-01
                       6.3003214204E-01  6.3003214204E-01  0.0000000000E+00
           shiftk      5.00000000E-01  5.00000000E-01  5.00000000E-01
          spgroup         225
           symrel      1  0  0   0  1  0   0  0  1      -1  0  0   0 -1  0   0  0 -1
                       0 -1  1   0 -1  0   1 -1  0       0  1 -1   0  1  0  -1  1  0
                      -1  0  0  -1  0  1  -1  1  0       1  0  0   1  0 -1   1 -1  0
                       0  1 -1   1  0 -1   0  0 -1       0 -1  1  -1  0  1   0  0  1
                      -1  0  0  -1  1  0  -1  0  1       1  0  0   1 -1  0   1  0 -1
                       0 -1  1   1 -1  0   0 -1  0       0  1 -1  -1  1  0   0  1  0
                       1  0  0   0  0  1   0  1  0      -1  0  0   0  0 -1   0 -1  0
                       0  1 -1   0  0 -1   1  0 -1       0 -1  1   0  0  1  -1  0  1
                      -1  0  1  -1  1  0  -1  0  0       1  0 -1   1 -1  0   1  0  0
                       0 -1  0   1 -1  0   0 -1  1       0  1  0  -1  1  0   0  1 -1
                       1  0 -1   0  0 -1   0  1 -1      -1  0  1   0  0  1   0 -1  1
                       0  1  0   0  0  1   1  0  0       0 -1  0   0  0 -1  -1  0  0
                       1  0 -1   0  1 -1   0  0 -1      -1  0  1   0 -1  1   0  0  1
                       0 -1  0   0 -1  1   1 -1  0       0  1  0   0  1 -1  -1  1  0
                      -1  0  1  -1  0  0  -1  1  0       1  0 -1   1  0  0   1 -1  0
                       0  1  0   1  0  0   0  0  1       0 -1  0  -1  0  0   0  0 -1
                       0  0 -1   0  1 -1   1  0 -1       0  0  1   0 -1  1  -1  0  1
                       1 -1  0   0 -1  1   0 -1  0      -1  1  0   0  1 -1   0  1  0
                       0  0  1   1  0  0   0  1  0       0  0 -1  -1  0  0   0 -1  0
                      -1  1  0  -1  0  0  -1  0  1       1 -1  0   1  0  0   1  0 -1
                       0  0  1   0  1  0   1  0  0       0  0 -1   0 -1  0  -1  0  0
                       1 -1  0   0 -1  0   0 -1  1      -1  1  0   0  1  0   0  1 -1
                       0  0 -1   1  0 -1   0  1 -1       0  0  1  -1  0  1   0 -1  1
                      -1  1  0  -1  0  1  -1  0  0       1 -1  0   1  0 -1   1  0  0
           toldff      1.00000000E-08
           tolmxf      1.00000000E-05
            typat      1  1  2  2  2  2  2  2  3
           useylm           1
              wtk        0.09375    0.09375    0.09375    0.18750    0.09375    0.09375
                         0.09375    0.18750    0.03125    0.03125
           xangst1     2.7006822682E+00  2.7006822682E+00  2.7006822682E+00
                       8.1020468046E+00  8.1020468046E+00  8.1020468046E+00
                       5.4013645364E+00  5.4013645364E+00  2.8051182397E+00
                       5.4013645364E+00  5.4013645364E+00  7.9976108331E+00
                       7.9976108331E+00  5.4013645364E+00  5.4013645364E+00
                       5.4013645364E+00  7.9976108331E+00  5.4013645364E+00
                       5.4013645364E+00  2.8051182397E+00  5.4013645364E+00
                       2.8051182397E+00  5.4013645364E+00  5.4013645364E+00
                      -7.5585847482E-19 -5.1007424540E-20  5.6138165254E-19
           xangst2     2.6976781723E+00  2.6976781723E+00  2.6976781723E+00
                       8.0930345168E+00  8.0930345168E+00  8.0930345168E+00
                       5.3953563445E+00  5.3953563445E+00  2.8019979747E+00
                       5.3953563445E+00  5.3953563445E+00  7.9887147143E+00
                       7.9887147143E+00  5.3953563445E+00  5.3953563445E+00
                       5.3953563445E+00  7.9887147143E+00  5.3953563445E+00
                       5.3953563445E+00  2.8019979747E+00  5.3953563445E+00
                       2.8019979747E+00  5.3953563445E+00  5.3953563445E+00
                      -7.5501769788E-19 -5.0950686582E-20  5.6075720131E-19
[...]
                      -7.4117782606E-19  3.2525412328E-19  6.3252664142E-19
           xangst4     2.6916699803E+00  2.6916699803E+00  2.6916699803E+00
                       8.0750099410E+00  8.0750099410E+00  8.0750099410E+00
                       5.3833399607E+00  5.3833399607E+00  2.7870453419E+00
                       5.3833399607E+00  5.3833399607E+00  7.9796345794E+00
                       7.9796345794E+00  5.3833399607E+00  5.3833399607E+00
                       5.3833399607E+00  7.9796345794E+00  5.3833399607E+00
                       5.3833399607E+00  2.7870453419E+00  5.3833399607E+00
                       2.7870453419E+00  5.3833399607E+00  5.3833399607E+00
                      -8.4246520689E-19  1.6434481818E-20  3.0277153936E-19
           xangst5     2.6886658844E+00  2.6886658844E+00  2.6886658844E+00
                       8.0659976531E+00  8.0659976531E+00  8.0659976531E+00
                       5.3773317687E+00  5.3773317687E+00  2.7854113330E+00
                       5.3773317687E+00  5.3773317687E+00  7.9692522045E+00
                       7.9692522045E+00  5.3773317687E+00  5.3773317687E+00
                       5.3773317687E+00  7.9692522045E+00  5.3773317687E+00
                       5.3773317687E+00  2.7854113330E+00  5.3773317687E+00
                       2.7854113330E+00  5.3773317687E+00  5.3773317687E+00
                      -6.1823131576E-19  1.0203708399E-19  3.1374751624E-19
           xangst6     2.6856617884E+00  2.6856617884E+00  2.6856617884E+00
                       8.0569853652E+00  8.0569853652E+00  8.0569853652E+00
                       5.3713235768E+00  5.3713235768E+00  2.7837511968E+00
                       5.3713235768E+00  5.3713235768E+00  7.9588959568E+00
                       7.9588959568E+00  5.3713235768E+00  5.3713235768E+00
                       5.3713235768E+00  7.9588959568E+00  5.3713235768E+00
                       5.3713235768E+00  2.7837511968E+00  5.3713235768E+00
                       2.7837511968E+00  5.3713235768E+00  5.3713235768E+00
                      -7.5165459009E-19 -5.0723734749E-20  5.5825939641E-19
           xangst7     2.6826576925E+00  2.6826576925E+00  2.6826576925E+00
                       8.0479730774E+00  8.0479730774E+00  8.0479730774E+00
                       5.3653153849E+00  5.3653153849E+00  2.7821041496E+00
                       5.3653153849E+00  5.3653153849E+00  7.9485266202E+00
                       7.9485266202E+00  5.3653153849E+00  5.3653153849E+00
                       5.3653153849E+00  7.9485266202E+00  5.3653153849E+00
                       5.3653153849E+00  2.7821041496E+00  5.3653153849E+00
                       2.7821041496E+00  5.3653153849E+00  5.3653153849E+00
                      -6.2145877893E-19  1.1313109154E-19  4.4376528609E-19
           xangst8     2.6796535965E+00  2.6796535965E+00  2.6796535965E+00
                       8.0389607895E+00  8.0389607895E+00  8.0389607895E+00
                       5.3593071930E+00  5.3593071930E+00  2.7804227729E+00
                       5.3593071930E+00  5.3593071930E+00  7.9381916130E+00
                       7.9381916130E+00  5.3593071930E+00  5.3593071930E+00
                       5.3593071930E+00  7.9381916130E+00  5.3593071930E+00
                       5.3593071930E+00  2.7804227729E+00  5.3593071930E+00
                       2.7804227729E+00  5.3593071930E+00  5.3593071930E+00
                      -6.9765310031E-19 -8.6110232190E-20  4.7354790290E-19
           xangst9     2.6766495005E+00  2.6766495005E+00  2.6766495005E+00
                       8.0299485016E+00  8.0299485016E+00  8.0299485016E+00
                       5.3532990011E+00  5.3532990011E+00  2.7787344616E+00
                       5.3532990011E+00  5.3532990011E+00  7.9278635405E+00
                       7.9278635405E+00  5.3532990011E+00  5.3532990011E+00
                       5.3532990011E+00  7.9278635405E+00  5.3532990011E+00
                       5.3532990011E+00  2.7787344616E+00  5.3532990011E+00
                       2.7787344616E+00  5.3532990011E+00  5.3532990011E+00
                      -7.3180991618E-19 -5.9858709566E-20  5.2160558805E-19
            xcart1     5.1035498589E+00  5.1035498589E+00  5.1035498589E+00
                       1.5310649577E+01  1.5310649577E+01  1.5310649577E+01
                       1.0207099718E+01  1.0207099718E+01  5.2758318961E+00
                       1.0207099718E+01  1.0207099718E+01  1.5138367539E+01
                       1.5138367539E+01  1.0207099718E+01  1.0207099718E+01
                       1.0207099718E+01  1.5138367539E+01  1.0207099718E+01
                       1.0207099718E+01  5.2758318961E+00  1.0207099718E+01
                       5.2758318961E+00  1.0207099718E+01  1.0207099718E+01
                      -1.3525996951E-18 -1.4392230508E-19  9.8260250898E-19
            xcart2     5.0978729402E+00  5.0978729402E+00  5.0978729402E+00
                       1.5293618821E+01  1.5293618821E+01  1.5293618821E+01
                       1.0195745880E+01  1.0195745880E+01  5.2728299526E+00
                       1.0195745880E+01  1.0195745880E+01  1.5118661808E+01
                       1.5118661808E+01  1.0195745880E+01  1.0195745880E+01
                       1.0195745880E+01  1.5118661808E+01  1.0195745880E+01
                       1.0195745880E+01  5.2728299526E+00  1.0195745880E+01
                       5.2728299526E+00  1.0195745880E+01  1.0195745880E+01
                      -1.7570086830E-18 -4.8320572792E-19  1.3566326993E-18
            xcart3     5.0921960216E+00  5.0921960216E+00  5.0921960216E+00
                       1.5276588065E+01  1.5276588065E+01  1.5276588065E+01
                       1.0184392043E+01  1.0184392043E+01  5.2697879093E+00
                       1.0184392043E+01  1.0184392043E+01  1.5098996177E+01
                       1.5098996177E+01  1.0184392043E+01  1.0184392043E+01
                       1.0184392043E+01  1.5098996177E+01  1.0184392043E+01
                       1.0184392043E+01  5.2697879093E+00  1.0184392043E+01
                       5.2697879093E+00  1.0184392043E+01  1.0184392043E+01
                      -1.4006231070E-18  6.1464121659E-19  1.1953021240E-18
            xcart4     5.0865191029E+00  5.0865191029E+00  5.0865191029E+00
                       1.5259557309E+01  1.5259557309E+01  1.5259557309E+01
                       1.0173038206E+01  1.0173038206E+01  5.2667524161E+00
                       1.0173038206E+01  1.0173038206E+01  1.5079323996E+01
                       1.5079323996E+01  1.0173038206E+01  1.0173038206E+01
                       1.0173038206E+01  1.5079323996E+01  1.0173038206E+01
                       1.0173038206E+01  5.2667524161E+00  1.0173038206E+01
                       5.2667524161E+00  1.0173038206E+01  1.0173038206E+01
                      -1.5920285175E-18  3.1056669772E-20  5.7215529022E-19
            xcart5     5.0808421843E+00  5.0808421843E+00  5.0808421843E+00
                       1.5242526553E+01  1.5242526553E+01  1.5242526553E+01
                       1.0161684369E+01  1.0161684369E+01  5.2636645868E+00
                       1.0161684369E+01  1.0161684369E+01  1.5059704150E+01
                       1.5059704150E+01  1.0161684369E+01  1.0161684369E+01
                       1.0161684369E+01  1.5059704150E+01  1.0161684369E+01
                       1.0161684369E+01  5.2636645868E+00  1.0161684369E+01
                       5.2636645868E+00  1.0161684369E+01  1.0161684369E+01
                      -1.1682878736E-18  1.9282214414E-19  5.9289688057E-19
            xcart6     5.0751652657E+00  5.0751652657E+00  5.0751652657E+00
                       1.5225495797E+01  1.5225495797E+01  1.5225495797E+01
                       1.0150330531E+01  1.0150330531E+01  5.2605273841E+00
                       1.0150330531E+01  1.0150330531E+01  1.5040133678E+01
                       1.5040133678E+01  1.0150330531E+01  1.0150330531E+01
                       1.0150330531E+01  1.5040133678E+01  1.0150330531E+01
                       1.0150330531E+01  5.2605273841E+00  1.0150330531E+01
                       5.2605273841E+00  1.0150330531E+01  1.0150330531E+01
                      -1.4204213218E-18 -9.5853967112E-20  1.0549573703E-18
            xcart7     5.0694883470E+00  5.0694883470E+00  5.0694883470E+00
                       1.5208465041E+01  1.5208465041E+01  1.5208465041E+01
                       1.0138976694E+01  1.0138976694E+01  5.2574149159E+00
                       1.0138976694E+01  1.0138976694E+01  1.5020538472E+01
                       1.5020538472E+01  1.0138976694E+01  1.0138976694E+01
                       1.0138976694E+01  1.5020538472E+01  1.0138976694E+01
                       1.0138976694E+01  5.2574149159E+00  1.0138976694E+01
                       5.2574149159E+00  1.0138976694E+01  1.0138976694E+01
                      -1.1743868951E-18  2.1378678012E-19  8.3859485798E-19
            xcart8     5.0638114284E+00  5.0638114284E+00  5.0638114284E+00
                       1.5191434285E+01  1.5191434285E+01  1.5191434285E+01
                       1.0127622857E+01  1.0127622857E+01  5.2542375745E+00
                       1.0127622857E+01  1.0127622857E+01  1.5001008139E+01
                       1.5001008139E+01  1.0127622857E+01  1.0127622857E+01
                       1.0127622857E+01  1.5001008139E+01  1.0127622857E+01
                       1.0127622857E+01  5.2542375745E+00  1.0127622857E+01
                       5.2542375745E+00  1.0127622857E+01  1.0127622857E+01
                      -1.3183732954E-18 -1.6272475608E-19  8.9487584728E-19
            xcart9     5.0581345097E+00  5.0581345097E+00  5.0581345097E+00
                       1.5174403529E+01  1.5174403529E+01  1.5174403529E+01
                       1.0116269019E+01  1.0116269019E+01  5.2510471285E+00
                       1.0116269019E+01  1.0116269019E+01  1.4981490910E+01
                       1.4981490910E+01  1.0116269019E+01  1.0116269019E+01
                       1.0116269019E+01  1.4981490910E+01  1.0116269019E+01
                       1.0116269019E+01  5.2510471285E+00  1.0116269019E+01
                       5.2510471285E+00  1.0116269019E+01  1.0116269019E+01
                      -1.3829203229E-18 -1.1311656775E-19  9.8569171079E-19
             xred1     2.5000000000E-01  2.5000000000E-01  2.5000000000E-01
                       7.5000000000E-01  7.5000000000E-01  7.5000000000E-01
                       2.5843932371E-01  2.5843932371E-01  7.4156067629E-01
                       7.4156067629E-01  7.4156067629E-01  2.5843932371E-01
                       2.5843932371E-01  7.4156067629E-01  7.4156067629E-01
                       7.4156067629E-01  2.5843932371E-01  7.4156067629E-01
                       2.5843932371E-01  7.4156067629E-01  2.5843932371E-01
                       7.4156067629E-01  2.5843932371E-01  2.5843932371E-01
                       1.0734096656E-19 -1.1074393671E-20 -1.2144118201E-19
             xred2     2.5000000000E-01  2.5000000000E-01  2.5000000000E-01
                       7.5000000000E-01  7.5000000000E-01  7.5000000000E-01
                       2.5857990256E-01  2.5857990256E-01  7.4142009744E-01
                       7.4142009744E-01  7.4142009744E-01  2.5857990256E-01
                       2.5857990256E-01  7.4142009744E-01  7.4142009744E-01
                       7.4142009744E-01  2.5857990256E-01  7.4142009744E-01
                       2.5857990256E-01  7.4142009744E-01  2.5857990256E-01
                       7.4142009744E-01  2.5857990256E-01  2.5857990256E-01
                       1.2899672497E-19  4.0619757085E-21 -1.7638960172E-19
             xred3     2.5000000000E-01  2.5000000000E-01  2.5000000000E-01
                       7.5000000000E-01  7.5000000000E-01  7.5000000000E-01
                       2.5871882617E-01  2.5871882617E-01  7.4128117383E-01
                       7.4128117383E-01  7.4128117383E-01  2.5871882617E-01
                       2.5871882617E-01  7.4128117383E-01  7.4128117383E-01
                       7.4128117383E-01  2.5871882617E-01  7.4128117383E-01
                       2.5871882617E-01  7.4128117383E-01  2.5871882617E-01
                       7.4128117383E-01  2.5871882617E-01  2.5871882617E-01
                       1.5762189996E-19 -4.0255824604E-20 -9.7270608107E-20
             xred4     2.5000000000E-01  2.5000000000E-01  2.5000000000E-01
                       7.5000000000E-01  7.5000000000E-01  7.5000000000E-01
                       2.5885838181E-01  2.5885838181E-01  7.4114161819E-01
                       7.4114161819E-01  7.4114161819E-01  2.5885838181E-01
                       2.5885838181E-01  7.4114161819E-01  7.4114161819E-01
                       7.4114161819E-01  2.5885838181E-01  7.4114161819E-01
                       2.5885838181E-01  7.4114161819E-01  2.5885838181E-01
                       7.4114161819E-01  2.5885838181E-01  2.5885838181E-01
                       1.0789502767E-19 -5.1652705701E-20 -1.0484218651E-19
             xred5     2.5000000000E-01  2.5000000000E-01  2.5000000000E-01
                       7.5000000000E-01  7.5000000000E-01  7.5000000000E-01
                       2.5899567413E-01  2.5899567413E-01  7.4100432587E-01
                       7.4100432587E-01  7.4100432587E-01  2.5899567413E-01
                       2.5899567413E-01  7.4100432587E-01  7.4100432587E-01
                       7.4100432587E-01  2.5899567413E-01  7.4100432587E-01
                       2.5899567413E-01  7.4100432587E-01  2.5899567413E-01
                       7.4100432587E-01  2.5899567413E-01  2.5899567413E-01
                       9.6145817337E-20 -3.7799498059E-20 -7.7170405668E-20
             xred6     2.5000000000E-01  2.5000000000E-01  2.5000000000E-01
                       7.5000000000E-01  7.5000000000E-01  7.5000000000E-01
                       2.5913084150E-01  2.5913084150E-01  7.4086915850E-01
                       7.4086915850E-01  7.4086915850E-01  2.5913084150E-01
                       2.5913084150E-01  7.4086915850E-01  7.4086915850E-01
                       7.4086915850E-01  2.5913084150E-01  7.4086915850E-01
                       2.5913084150E-01  7.4086915850E-01  2.5913084150E-01
                       7.4086915850E-01  2.5913084150E-01  2.5913084150E-01
                       1.1721414971E-19 -1.3280847532E-20 -1.2665758279E-19
             xred7     2.5000000000E-01  2.5000000000E-01  2.5000000000E-01
                       7.5000000000E-01  7.5000000000E-01  7.5000000000E-01
                       2.5926753136E-01  2.5926753136E-01  7.4073246864E-01
                       7.4073246864E-01  7.4073246864E-01  2.5926753136E-01
                       2.5926753136E-01  7.4073246864E-01  7.4073246864E-01
                       7.4073246864E-01  2.5926753136E-01  7.4073246864E-01
                       2.5926753136E-01  7.4073246864E-01  2.5926753136E-01
                       7.4073246864E-01  2.5926753136E-01  2.5926753136E-01
                       1.0981229173E-19 -2.7102282300E-20 -8.8726654929E-20
             xred8     2.5000000000E-01  2.5000000000E-01  2.5000000000E-01
                       7.5000000000E-01  7.5000000000E-01  7.5000000000E-01
                       2.5940132491E-01  2.5940132491E-01  7.4059867509E-01
                       7.4059867509E-01  7.4059867509E-01  2.5940132491E-01
                       2.5940132491E-01  7.4059867509E-01  7.4059867509E-01
                       7.4059867509E-01  2.5940132491E-01  7.4059867509E-01
                       2.5940132491E-01  7.4059867509E-01  2.5940132491E-01
                       7.4059867509E-01  2.5940132491E-01  2.5940132491E-01
                       1.0123423905E-19 -1.2874328738E-20 -1.1730165767E-19
             xred9     2.5000000000E-01  2.5000000000E-01  2.5000000000E-01
                       7.5000000000E-01  7.5000000000E-01  7.5000000000E-01
                       2.5953477109E-01  2.5953477109E-01  7.4046522891E-01
                       7.4046522891E-01  7.4046522891E-01  2.5953477109E-01
                       2.5953477109E-01  7.4046522891E-01  7.4046522891E-01
                       7.4046522891E-01  2.5953477109E-01  7.4046522891E-01
                       2.5953477109E-01  7.4046522891E-01  2.5953477109E-01
                       7.4046522891E-01  2.5953477109E-01  2.5953477109E-01
                       1.1147862229E-19 -1.4042333385E-20 -1.2266027113E-19
            znucl       55.00000   53.00000   40.00000

- Timing analysis has been suppressed with timopt=0

 Suggested references for the acknowledgment of ABINIT usage.

 Calculation completed.
.Delivered   0 WARNINGs and  32 COMMENTs to log file.