.Version 9.2.2 of ABINIT

 ABINIT is a project of the Universite Catholique de Louvain,
 Corning Inc. and other collaborators, see ~abinit/doc/developers/contributors.txt .
 acknowledgments of the ABINIT effort.

.Starting date : Wed  9 Nov 2022.
- ( at 13h17 )

- input  file    -> Cs2TiI6.in
- output file    -> Cs2TiI6.out
- root for input  files -> Cs2TiI6i
- root for output files -> Cs2TiI6o

- inpspheads : Reading pseudopotential header in XML form from
-   ../../../Psps_for_tests/ATOMICDATA/Cs.GGA_PBE-JTH.xml
- inpspheads : Reading pseudopotential header in XML form from
-   ../../../Psps_for_tests/ATOMICDATA/I.GGA_PBE-JTH.xml
- inpspheads : Reading pseudopotential header in XML form from
-   ../../../Psps_for_tests/ATOMICDATA/Hf.GGA_PBE-JTH.xml
- inpspheads : Reading pseudopotential header in XML form from
-   ../../../Psps_for_tests/ATOMICDATA/Cl.GGA_PBE-JTH.xml

 DATASET    1 : space group I4/m m m (#139); Bravais tI (body-center tetrag.)
     intxc =       0    ionmov =       0      iscf =      17    lmnmax =      18
     lnmax =       6     mgfft =      60  mpssoang =       3    mqgrid =    3418
     natom =       9  nloc_mem =       2    nspden =       1   nspinor =       1
    nsppol =       1      nsym =      16    n1xccc =       1    ntypat =       4
    occopt =       1   xclevel =       2
-    mband =          42        mffmem =           1         mkmem =          41
       mpw =        6921          nfft =      216000          nkpt =         163
Pmy_natom=         3
 PAW method is used; the additional fine FFT grid is defined by:
   mgfftf=        90    nfftf =    729000
  Rough estimation (10% accuracy) of disk space for files :

[...]

 DATASET   10 : space group I4/m m m (#139); Bravais tI (body-center tetrag.)
     intxc =       0    ionmov =       0      iscf =      17    lmnmax =      18
     lnmax =       6     mgfft =      54  mpssoang =       3    mqgrid =    3387
     natom =       9  nloc_mem =       2    nspden =       1   nspinor =       1
    nsppol =       1      nsym =      16    n1xccc =       1    ntypat =       4
    occopt =       1   xclevel =       2
-    mband =          42        mffmem =           1         mkmem =          41
       mpw =        6748          nfft =      157464          nkpt =         163
Pmy_natom=         3
 PAW method is used; the additional fine FFT grid is defined by:
   mgfftf=        90    nfftf =    729000
  Rough estimation (10% accuracy) of disk space for files :

------------- Echo of variables that govern the present computation ------------
-
- outvars: echo of selected default values
-   iomode0 =  0 , fftalg0 =112 , wfoptalg0 = 10
-
- outvars: echo of global parameters not present in the input file
-  max_nthreads =    0
-
 -outvars: echo values of preprocessed input variables --------
            acell1     1.4562881509E+01  1.5072485996E+01  1.4562881509E+01 Bohr
            acell2     1.4548250792E+01  1.5057538625E+01  1.4548250792E+01 Bohr
            acell3     1.4532574765E+01  1.5045346766E+01  1.4532574765E+01 Bohr
            acell4     1.4517246772E+01  1.5032241647E+01  1.4517246772E+01 Bohr
            acell5     1.4502012161E+01  1.5018892643E+01  1.4502012161E+01 Bohr
            acell6     1.4486790253E+01  1.5005512562E+01  1.4486790253E+01 Bohr
            acell7     1.4471124384E+01  1.4993314478E+01  1.4471124384E+01 Bohr
            acell8     1.4455525303E+01  1.4980945682E+01  1.4455525303E+01 Bohr
            acell9     1.4439818416E+01  1.4968871272E+01  1.4439818416E+01 Bohr
            acell10    1.4424044912E+01  1.4956983241E+01  1.4424044912E+01 Bohr
              amu      1.32905430E+02  1.26904470E+02  1.78490000E+02
                       3.54527000E+01
           diemac      1.20000000E+01
             ecut      1.60000000E+01 Hartree
-          fftalg         112
           istwfk        2    0    0    0    0    0    3    0    0    0
                         0    0    0    0    0    0    0    0    0    0
                         0    0    0    0    0    0    0    0    0    0
                         0    0    0    0    0    0    0    0    0    0
                         0    0    7    0    0    0    0    0    0    0
                       outvar_i_n : Printing only first  50 k-points.
              ixc     -101130
           jdtset        1    2    3    4    5    6    7    8    9   10
              kpt      0.00000000E+00  0.00000000E+00  0.00000000E+00
                       8.33333333E-02  0.00000000E+00  0.00000000E+00
                       1.66666667E-01  0.00000000E+00  0.00000000E+00
                       2.50000000E-01  0.00000000E+00  0.00000000E+00
                       3.33333333E-01  0.00000000E+00  0.00000000E+00
                       4.16666667E-01  0.00000000E+00  0.00000000E+00
                       5.00000000E-01  0.00000000E+00  0.00000000E+00
                       8.33333333E-02  8.33333333E-02  0.00000000E+00
                       1.66666667E-01  8.33333333E-02  0.00000000E+00
                       2.50000000E-01  8.33333333E-02  0.00000000E+00
                       3.33333333E-01  8.33333333E-02  0.00000000E+00
                       4.16666667E-01  8.33333333E-02  0.00000000E+00
                       5.00000000E-01  8.33333333E-02  0.00000000E+00
                      -4.16666667E-01  8.33333333E-02  0.00000000E+00
                      -3.33333333E-01  8.33333333E-02  0.00000000E+00
                      -2.50000000E-01  8.33333333E-02  0.00000000E+00
                      -1.66666667E-01  8.33333333E-02  0.00000000E+00
                      -8.33333333E-02  8.33333333E-02  0.00000000E+00
                       1.66666667E-01  1.66666667E-01  0.00000000E+00
                       2.50000000E-01  1.66666667E-01  0.00000000E+00
                       3.33333333E-01  1.66666667E-01  0.00000000E+00
                       4.16666667E-01  1.66666667E-01  0.00000000E+00
                       5.00000000E-01  1.66666667E-01  0.00000000E+00
                      -4.16666667E-01  1.66666667E-01  0.00000000E+00
                      -3.33333333E-01  1.66666667E-01  0.00000000E+00
                      -2.50000000E-01  1.66666667E-01  0.00000000E+00
                      -1.66666667E-01  1.66666667E-01  0.00000000E+00
                       2.50000000E-01  2.50000000E-01  0.00000000E+00
                       3.33333333E-01  2.50000000E-01  0.00000000E+00
                       4.16666667E-01  2.50000000E-01  0.00000000E+00
                       5.00000000E-01  2.50000000E-01  0.00000000E+00
                      -4.16666667E-01  2.50000000E-01  0.00000000E+00
                      -3.33333333E-01  2.50000000E-01  0.00000000E+00
                      -2.50000000E-01  2.50000000E-01  0.00000000E+00
                       3.33333333E-01  3.33333333E-01  0.00000000E+00
                       4.16666667E-01  3.33333333E-01  0.00000000E+00
                       5.00000000E-01  3.33333333E-01  0.00000000E+00
                      -4.16666667E-01  3.33333333E-01  0.00000000E+00
                      -3.33333333E-01  3.33333333E-01  0.00000000E+00
                       4.16666667E-01  4.16666667E-01  0.00000000E+00
                       5.00000000E-01  4.16666667E-01  0.00000000E+00
                      -4.16666667E-01  4.16666667E-01  0.00000000E+00
                       5.00000000E-01  5.00000000E-01  0.00000000E+00
                       8.33333333E-02  0.00000000E+00  8.33333333E-02
                       1.66666667E-01  0.00000000E+00  8.33333333E-02
                       2.50000000E-01  0.00000000E+00  8.33333333E-02
                       3.33333333E-01  0.00000000E+00  8.33333333E-02
                       4.16666667E-01  0.00000000E+00  8.33333333E-02
                       5.00000000E-01  0.00000000E+00  8.33333333E-02
                      -4.16666667E-01  0.00000000E+00  8.33333333E-02
                       outvar_i_n : Printing only first  50 k-points.
         kptrlatt       12    0    0      0   12    0      0    0   12
          kptrlen1     1.74754578E+02
          kptrlen2     1.74579010E+02
          kptrlen3     1.74390897E+02
          kptrlen4     1.74206961E+02
          kptrlen5     1.74024146E+02
          kptrlen6     1.73841483E+02
          kptrlen7     1.73653493E+02
          kptrlen8     1.73466304E+02
          kptrlen9     1.73277821E+02
          kptrlen10    1.73088539E+02
P           mkmem          41
            natom           9
            nband          42
           ndtset          10
            ngfft1         60      60      60
            ngfft2         60      60      60
            ngfft3         60      60      60
            ngfft4         60      60      60
            ngfft5         60      60      60
            ngfft6         60      60      60
            ngfft7         54      54      54
            ngfft8         54      54      54
            ngfft9         54      54      54
            ngfft10        54      54      54
          ngfftdg          90      90      90
             nkpt         163
            nstep        2500
             nsym          16
           ntypat           4
              occ      2.000000  2.000000  2.000000  2.000000  2.000000  2.000000
                       2.000000  2.000000  2.000000  2.000000  2.000000  2.000000
                       2.000000  2.000000  2.000000  2.000000  2.000000  2.000000
                       2.000000  2.000000  2.000000  2.000000  2.000000  2.000000
                       2.000000  2.000000  2.000000  2.000000  2.000000  2.000000
                       2.000000  2.000000  2.000000  2.000000  2.000000  2.000000
                       0.000000  0.000000  0.000000  0.000000  0.000000  0.000000
        pawecutdg      4.00000000E+01 Hartree
            prtwf           0
            rprim1     0.0000000000E+00  6.8146485518E-01  7.3185083942E-01
                       7.0710678119E-01  0.0000000000E+00  7.0710678119E-01
                       7.3185083942E-01  6.8146485518E-01  0.0000000000E+00
            rprim2     0.0000000000E+00  6.8145465950E-01  7.3186033302E-01
                       7.0710678119E-01  0.0000000000E+00  7.0710678119E-01
                       7.3186033302E-01  6.8145465950E-01  0.0000000000E+00
            rprim3     0.0000000000E+00  6.8124385475E-01  7.3205656227E-01
                       7.0710678119E-01  0.0000000000E+00  7.0710678119E-01
                       7.3205656227E-01  6.8124385475E-01  0.0000000000E+00
            rprim4     0.0000000000E+00  6.8109917037E-01  7.3219117731E-01
                       7.0710678119E-01  0.0000000000E+00  7.0710678119E-01
                       7.3219117731E-01  6.8109917037E-01  0.0000000000E+00
            rprim5     0.0000000000E+00  6.8097198234E-01  7.3230946960E-01
                       7.0710678119E-01  0.0000000000E+00  7.0710678119E-01
                       7.3230946960E-01  6.8097198234E-01  0.0000000000E+00
            rprim6     0.0000000000E+00  6.8084680502E-01  7.3242585160E-01
                       7.0710678119E-01  0.0000000000E+00  7.0710678119E-01
                       7.3242585160E-01  6.8084680502E-01  0.0000000000E+00
[...]
                      -2.3161653416E-19 -6.6744791877E-20 -7.3626671113E-20
           xangst7     2.8051351345E+00  2.6060795768E+00  2.8051351345E+00
                       8.4154054035E+00  7.8182387304E+00  8.4154054035E+00
                       5.6102702690E+00  8.0016367754E+00  5.6102702690E+00
                       5.6102702690E+00  5.2121591536E+00  2.8473268383E+00
                       5.6102702690E+00  5.2121591536E+00  8.3732136998E+00
                       5.6102702690E+00  2.4226815318E+00  5.6102702690E+00
                       8.3732136998E+00  5.2121591536E+00  5.6102702690E+00
                       2.8473268383E+00  5.2121591536E+00  5.6102702690E+00
                      -2.3270912978E-19 -6.8215139118E-20 -7.2378127191E-20
           xangst8     2.8028210268E+00  2.6025062762E+00  2.8028210268E+00
                       8.4084630804E+00  7.8075188286E+00  8.4084630804E+00
                       5.6056420536E+00  7.9875310306E+00  5.6056420536E+00
                       5.6056420536E+00  5.2050125524E+00  2.8464879948E+00
                       5.6056420536E+00  5.2050125524E+00  8.3647961124E+00
                       5.6056420536E+00  2.4224940742E+00  5.6056420536E+00
                       8.3647961124E+00  5.2050125524E+00  5.6056420536E+00
                       2.8464879948E+00  5.2050125524E+00  5.6056420536E+00
                      -2.3111916510E-19 -6.5477846845E-20 -6.9903041489E-20
           xangst9     2.8005619965E+00  2.5988312721E+00  2.8005619965E+00
                       8.4016859895E+00  7.7964938163E+00  8.4016859895E+00
                       5.6011239930E+00  7.9729997411E+00  5.6011239930E+00
                       5.6011239930E+00  5.1976625442E+00  2.8456608276E+00
                       5.6011239930E+00  5.1976625442E+00  8.3565871585E+00
                       5.6011239930E+00  2.4223253473E+00  5.6011239930E+00
                       8.3565871585E+00  5.1976625442E+00  5.6011239930E+00
                       2.8456608276E+00  5.1976625442E+00  5.6011239930E+00
                      -2.3089415725E-19 -6.6731560017E-20 -7.4529546124E-20
           xangst10    2.7983378363E+00  2.5950922308E+00  2.7983378363E+00
                       8.3950135090E+00  7.7852766923E+00  8.3950135090E+00
                       5.5966756727E+00  7.9582068877E+00  5.5966756727E+00
                       5.5966756727E+00  5.1901844616E+00  2.8448532861E+00
                       5.5966756727E+00  5.1901844616E+00  8.3484980593E+00
                       5.5966756727E+00  2.4221620354E+00  5.5966756727E+00
                       8.3484980593E+00  5.1901844616E+00  5.5966756727E+00
                       2.8448532861E+00  5.1901844616E+00  5.5966756727E+00
                      -2.4102748874E-19 -6.9862541800E-20 -7.1978487380E-20
            xcart1     5.3289285285E+00  4.9620459693E+00  5.3289285285E+00
                       1.5986785585E+01  1.4886137908E+01  1.5986785585E+01
                       1.0657857057E+01  1.5267259794E+01  1.0657857057E+01
                       1.0657857057E+01  9.9240919385E+00  5.3899784245E+00
                       1.0657857057E+01  9.9240919385E+00  1.5925735689E+01
                       1.0657857057E+01  4.5809240832E+00  1.0657857057E+01
                       1.5925735689E+01  9.9240919385E+00  1.0657857057E+01
                       5.3899784245E+00  9.9240919385E+00  1.0657857057E+01
                      -4.4175081749E-19 -1.2983718714E-19 -1.3782648785E-19
            xcart2     5.3236438348E+00  4.9569866449E+00  5.3236438348E+00
                       1.5970931504E+01  1.4870959935E+01  1.5970931504E+01
                       1.0647287670E+01  1.5247438498E+01  1.0647287670E+01
                       1.0647287670E+01  9.9139732898E+00  5.3883872235E+00
                       1.0647287670E+01  9.9139732898E+00  1.5906188116E+01
                       1.0647287670E+01  4.5805080819E+00  1.0647287670E+01
                       1.5906188116E+01  9.9139732898E+00  1.0647287670E+01
                       5.3883872235E+00  9.9139732898E+00  1.0647287670E+01
                      -4.3561239511E-19 -1.3287387378E-19 -1.4329020831E-19
            xcart3     5.3193333617E+00  4.9501136262E+00  5.3193333617E+00
                       1.5958000085E+01  1.4850340879E+01  1.5958000085E+01
                       1.0638666723E+01  1.5220476372E+01  1.0638666723E+01
                       1.0638666723E+01  9.9002272524E+00  5.3869016076E+00
                       1.0638666724E+01  9.9002272524E+00  1.5890431839E+01
                       1.0638666724E+01  4.5799781323E+00  1.0638666724E+01
                       1.5890431839E+01  9.9002272524E+00  1.0638666724E+01
                       5.3869016076E+00  9.9002272524E+00  1.0638666723E+01
                      -4.4223759277E-19 -1.3116607247E-19 -1.3703215724E-19
            xcart4     5.3147000026E+00  4.9438423662E+00  5.3147000026E+00
                       1.5944100008E+01  1.4831527099E+01  1.5944100008E+01
                       1.0629400005E+01  1.5195818404E+01  1.0629400005E+01
                       1.0629400005E+01  9.8876847325E+00  5.3853573207E+00
                       1.0629400005E+01  9.8876847325E+00  1.5873442690E+01
                       1.0629400005E+01  4.5795510609E+00  1.0629400005E+01
                       1.5873442690E+01  9.8876847325E+00  1.0629400005E+01
                       5.3853573207E+00  9.8876847325E+00  1.0629400005E+01
                      -4.4057131904E-19 -1.2936087059E-19 -1.3745848371E-19
            xcart5     5.3099804169E+00  4.9377319846E+00  5.3099804169E+00
                       1.5929941251E+01  1.4813195954E+01  1.5929941251E+01
                       1.0619960834E+01  1.5171908239E+01  1.0619960834E+01
                       1.0619960834E+01  9.8754639692E+00  5.3837600587E+00
                       1.0619960834E+01  9.8754639692E+00  1.5856161609E+01
                       1.0619960834E+01  4.5790196991E+00  1.0619960834E+01
                       1.5856161609E+01  9.8754639692E+00  1.0619960834E+01
                       5.3837600587E+00  9.8754639692E+00  1.0619960834E+01
                      -4.4018008075E-19 -1.2920098598E-19 -1.3733641716E-19
            xcart6     5.3052498440E+00  4.9316424294E+00  5.3052498440E+00
                       1.5915749532E+01  1.4794927288E+01  1.5915749532E+01
                       1.0610499688E+01  1.5147965390E+01  1.0610499688E+01
                       1.0610499688E+01  9.8632848587E+00  5.3821439970E+00
                       1.0610499688E+01  9.8632848587E+00  1.5838855379E+01
                       1.0610499688E+01  4.5786043271E+00  1.0610499688E+01
                       1.5838855379E+01  9.8632848587E+00  1.0610499688E+01
                       5.3821439970E+00  9.8632848587E+00  1.0610499688E+01
                      -4.3769181740E-19 -1.2612937744E-19 -1.3913424448E-19
            xcart7     5.3009371700E+00  4.9247766807E+00  5.3009371700E+00
                       1.5902811510E+01  1.4774330042E+01  1.5902811510E+01
                       1.0601874340E+01  1.5120902120E+01  1.0601874340E+01
                       1.0601874340E+01  9.8495533613E+00  5.3806679351E+00
                       1.0601874340E+01  9.8495533613E+00  1.5823080745E+01
                       1.0601874340E+01  4.5782046023E+00  1.0601874340E+01
                       1.5823080745E+01  9.8495533613E+00  1.0601874340E+01
                       5.3806679351E+00  9.8495533613E+00  1.0601874340E+01
                      -4.3975652390E-19 -1.2890793105E-19 -1.3677483840E-19
            xcart8     5.2965641401E+00  4.9180241211E+00  5.2965641401E+00
                       1.5889692420E+01  1.4754072363E+01  1.5889692420E+01
                       1.0593128280E+01  1.5094246126E+01  1.0593128280E+01
                       1.0593128280E+01  9.8360482423E+00  5.3790827508E+00
                       1.0593128280E+01  9.8360482423E+00  1.5807173810E+01
                       1.0593128280E+01  4.5778503588E+00  1.0593128280E+01
                       1.5807173810E+01  9.8360482423E+00  1.0593128280E+01
                       5.3790827508E+00  9.8360482423E+00  1.0593128280E+01
                      -4.3675192611E-19 -1.2373519831E-19 -1.3209760427E-19
            xcart9     5.2922951916E+00  4.9110793698E+00  5.2922951916E+00
                       1.5876885575E+01  1.4733238109E+01  1.5876885575E+01
                       1.0584590383E+01  1.5066785968E+01  1.0584590383E+01
                       1.0584590383E+01  9.8221587397E+00  5.3775196312E+00
                       1.0584590383E+01  9.8221587397E+00  1.5791661135E+01
                       1.0584590383E+01  4.5775315112E+00  1.0584590383E+01
                       1.5791661135E+01  9.8221587397E+00  1.0584590383E+01
                       5.3775196312E+00  9.8221587397E+00  1.0584590383E+01
                      -4.3632672288E-19 -1.2610437285E-19 -1.4084043098E-19
            xcart10    5.2880921380E+00  4.9040136057E+00  5.2880921380E+00
                       1.5864276414E+01  1.4712040817E+01  1.5864276414E+01
                       1.0576184276E+01  1.5038831527E+01  1.0576184276E+01
                       1.0576184276E+01  9.8080272115E+00  5.3759935989E+00
                       1.0576184276E+01  9.8080272115E+00  1.5776374953E+01
                       1.0576184276E+01  4.5772228964E+00  1.0576184276E+01
                       1.5776374953E+01  9.8080272115E+00  1.0576184276E+01
                       5.3759935989E+00  9.8080272115E+00  1.0576184276E+01
                      -4.5547594421E-19 -1.3202107095E-19 -1.3601962861E-19
             xred1     2.5000000000E-01  2.5000000000E-01  2.5000000000E-01
                       7.5000000000E-01  7.5000000000E-01  7.5000000000E-01
                       7.6920185184E-01  2.3079814816E-01  7.6920185184E-01
                       2.5286407932E-01  2.5286407932E-01  7.4713592068E-01
                       7.4713592068E-01  7.4713592068E-01  2.5286407932E-01
                       2.3079814816E-01  7.6920185184E-01  2.3079814816E-01
                       2.5286407932E-01  7.4713592068E-01  7.4713592068E-01
                       7.4713592068E-01  2.5286407932E-01  2.5286407932E-01
                       7.7167141090E-21 -2.0648627824E-20 -2.0799743563E-20
             xred2     2.5000000000E-01  2.5000000000E-01  2.5000000000E-01
                       7.5000000000E-01  7.5000000000E-01  7.5000000000E-01
                       7.6898726938E-01  2.3101273062E-01  7.6898726938E-01
                       2.5304037003E-01  2.5304037003E-01  7.4695962997E-01
                       7.4695962997E-01  7.4695962997E-01  2.5304037003E-01
                       2.3101273062E-01  7.6898726938E-01  2.3101273062E-01
                       2.5304037003E-01  7.4695962997E-01  7.4695962997E-01
                       7.4695962997E-01  2.5304037003E-01  2.5304037003E-01
                       7.0261993049E-21 -2.0484106403E-20 -2.0428885584E-20
             xred3     2.5000000000E-01  2.5000000000E-01  2.5000000000E-01
                       7.5000000000E-01  7.5000000000E-01  7.5000000000E-01
                       7.6869328271E-01  2.3130671729E-01  7.6869328271E-01
                       2.5317559745E-01  2.5317559745E-01  7.4682440255E-01
                       7.4682440255E-01  7.4682440255E-01  2.5317559745E-01
                       2.3130671729E-01  7.6869328271E-01  2.3130671729E-01
                       2.5317559745E-01  7.4682440255E-01  7.4682440255E-01
                       7.4682440255E-01  2.5317559745E-01  2.5317559745E-01
                       7.7197610758E-21 -2.0600337261E-20 -2.0968555182E-20
             xred4     2.5000000000E-01  2.5000000000E-01  2.5000000000E-01
                       7.5000000000E-01  7.5000000000E-01  7.5000000000E-01
                       7.6842146646E-01  2.3157853354E-01  7.6842146646E-01
                       2.5332367387E-01  2.5332367387E-01  7.4667632613E-01
                       7.4667632613E-01  7.4667632613E-01  2.5332367387E-01
                       2.3157853354E-01  7.6842146646E-01  2.3157853354E-01
                       2.5332367387E-01  7.4667632613E-01  7.4667632613E-01
                       7.4667632613E-01  2.5332367387E-01  2.5332367387E-01
                       7.7167141090E-21 -2.0648627824E-20 -2.0799743563E-20
             xred5     2.5000000000E-01  2.5000000000E-01  2.5000000000E-01
                       7.5000000000E-01  7.5000000000E-01  7.5000000000E-01
                       7.6816179405E-01  2.3183820595E-01  7.6816179405E-01
                       2.5347363060E-01  2.5347363060E-01  7.4652636940E-01
                       7.4652636940E-01  7.4652636940E-01  2.5347363060E-01
                       2.3183820595E-01  7.6816179405E-01  2.3183820595E-01
                       2.5347363060E-01  7.4652636940E-01  7.4652636940E-01
                       7.4652636940E-01  2.5347363060E-01  2.5347363060E-01
                       7.7167141090E-21 -2.0648627824E-20 -2.0799743563E-20
             xred6     2.5000000000E-01  2.5000000000E-01  2.5000000000E-01
                       7.5000000000E-01  7.5000000000E-01  7.5000000000E-01
                       7.6789657844E-01  2.3210342156E-01  7.6789657844E-01
                       2.5362349349E-01  2.5362349349E-01  7.4637650651E-01
                       7.4637650651E-01  7.4637650651E-01  2.5362349349E-01
                       2.3210342156E-01  7.6789657844E-01  2.3210342156E-01
                       2.5362349349E-01  7.4637650651E-01  7.4637650651E-01
                       7.4637650651E-01  2.5362349349E-01  2.5362349349E-01
                       7.6750856219E-21 -2.0787968952E-20 -2.0462851488E-20
             xred7     2.5000000000E-01  2.5000000000E-01  2.5000000000E-01
                       7.5000000000E-01  7.5000000000E-01  7.5000000000E-01
                       7.6759328904E-01  2.3240671096E-01  7.6759328904E-01
                       2.5376022025E-01  2.5376022025E-01  7.4623977975E-01
                       7.4623977975E-01  7.4623977975E-01  2.5376022025E-01
                       2.3240671096E-01  7.6759328904E-01  2.3240671096E-01
                       2.5376022025E-01  7.4623977975E-01  7.4623977975E-01
                       7.4623977975E-01  2.5376022025E-01  2.5376022025E-01
                       7.7452157584E-21 -2.0646221186E-20 -2.0832908806E-20
             xred8     2.5000000000E-01  2.5000000000E-01  2.5000000000E-01
                       7.5000000000E-01  7.5000000000E-01  7.5000000000E-01
                       7.6729219672E-01  2.3270780328E-01  7.6729219672E-01
                       2.5389491227E-01  2.5389491227E-01  7.4610508773E-01
                       7.4610508773E-01  7.4610508773E-01  2.5389491227E-01
                       2.3270780328E-01  7.6729219672E-01  2.3270780328E-01
                       2.5389491227E-01  7.4610508773E-01  7.4610508773E-01
                       7.4610508773E-01  2.5389491227E-01  2.5389491227E-01
                       8.0899252926E-21 -2.0560047505E-20 -2.0669692620E-20
             xred9     2.5000000000E-01  2.5000000000E-01  2.5000000000E-01
                       7.5000000000E-01  7.5000000000E-01  7.5000000000E-01
                       7.6697935594E-01  2.3302064406E-01  7.6697935594E-01
                       2.5402587330E-01  2.5402587330E-01  7.4597412670E-01
                       7.4597412670E-01  7.4597412670E-01  2.5402587330E-01
                       2.3302064406E-01  7.6697935594E-01  2.3302064406E-01
                       2.5402587330E-01  7.4597412670E-01  7.4597412670E-01
                       7.4597412670E-01  2.5402587330E-01  2.5402587330E-01
                       7.5389426391E-21 -2.0845119438E-20 -2.0377706112E-20
             xred10    2.5000000000E-01  2.5000000000E-01  2.5000000000E-01
                       7.5000000000E-01  7.5000000000E-01  7.5000000000E-01
                       7.6665934965E-01  2.3334065035E-01  7.6665934965E-01
                       2.5415563206E-01  2.5415563206E-01  7.4584436794E-01
                       7.4584436794E-01  7.4584436794E-01  2.5415563206E-01
                       2.3334065035E-01  7.6665934965E-01  2.3334065035E-01
                       2.5415563206E-01  7.4584436794E-01  7.4584436794E-01
                       7.4584436794E-01  2.5415563206E-01  2.5415563206E-01
                       8.3723700540E-21 -2.1233306008E-20 -2.1832882357E-20
            znucl       55.00000   53.00000   72.00000   17.00000

- Timing analysis has been suppressed with timopt=0

 Suggested references for the acknowledgment of ABINIT usage.

 Calculation completed.
.Delivered   0 WARNINGs and   6 COMMENTs to log file.