.Version 9.2.2 of ABINIT

 ABINIT is a project of the Universite Catholique de Louvain,
 Corning Inc. and other collaborators, see ~abinit/doc/developers/contributors.txt .
 acknowledgments of the ABINIT effort.

.Starting date : Sat 15 Jul 2023.
- ( at 02h37 )

- The starting date is more than 2 years after the initial release
- of this version of ABINIT, namely Nov 2020.
- Note that the use beyond 3 years after the release will not be supported.
- Action: please, switch to a more recent version of ABINIT.

- input  file    -> Cs2TiI6.in
- output file    -> Cs2TiI6.out
- root for input  files -> Cs2TiI6i
- root for output files -> Cs2TiI6o

 Symmetries : space group I4/m m m (#139); Bravais tI (body-center tetrag.)
     intxc =       0    ionmov =       0      iscf =      17    lmnmax =       8
     lnmax =       8     mgfft =      64  mpssoang =       4    mqgrid =    3001
     natom =       9  nloc_mem =       1    nspden =       1   nspinor =       1
    nsppol =       1      nsym =      16    n1xccc =    2501    ntypat =       4
    occopt =       1   xclevel =       2
-    mband =          42        mffmem =           1         mkmem =          28
       mpw =        9582          nfft =      262144          nkpt =         163
  Rough estimation (10% accuracy) of disk space for files :

------------- Echo of variables that govern the present computation ------------
-
- outvars: echo of selected default values
-   iomode0 =  0 , fftalg0 =112 , wfoptalg0 =  0
-
- outvars: echo of global parameters not present in the input file
-  max_nthreads =    0
-
 -outvars: echo values of preprocessed input variables --------
            acell      1.4517246772E+01  1.5032241647E+01  1.4517246772E+01 Bohr
              amu      1.32905430E+02  1.26904470E+02  1.78490000E+02
                       3.54527000E+01
           diemac      1.20000000E+01
             ecut      2.00000000E+01 Hartree
-          fftalg         112
             iscf          17
           istwfk        2    0    0    0    0    0    3    0    0    0
                         0    0    0    0    0    0    0    0    0    0
                         0    0    0    0    0    0    0    0    0    0
                         0    0    0    0    0    0    0    0    0    0
                         0    0    7    0    0    0    0    0    0    0
                       outvar_i_n : Printing only first  50 k-points.
              ixc          32
              kpt      0.00000000E+00  0.00000000E+00  0.00000000E+00
                       8.33333333E-02  0.00000000E+00  0.00000000E+00
                       1.66666667E-01  0.00000000E+00  0.00000000E+00
                       2.50000000E-01  0.00000000E+00  0.00000000E+00
                       3.33333333E-01  0.00000000E+00  0.00000000E+00
                       4.16666667E-01  0.00000000E+00  0.00000000E+00
                       5.00000000E-01  0.00000000E+00  0.00000000E+00
                       8.33333333E-02  8.33333333E-02  0.00000000E+00
                       1.66666667E-01  8.33333333E-02  0.00000000E+00
                       2.50000000E-01  8.33333333E-02  0.00000000E+00
                       3.33333333E-01  8.33333333E-02  0.00000000E+00
                       4.16666667E-01  8.33333333E-02  0.00000000E+00
                       5.00000000E-01  8.33333333E-02  0.00000000E+00
                      -4.16666667E-01  8.33333333E-02  0.00000000E+00
                      -3.33333333E-01  8.33333333E-02  0.00000000E+00
                      -2.50000000E-01  8.33333333E-02  0.00000000E+00
                      -1.66666667E-01  8.33333333E-02  0.00000000E+00
                      -8.33333333E-02  8.33333333E-02  0.00000000E+00
                       1.66666667E-01  1.66666667E-01  0.00000000E+00
                       2.50000000E-01  1.66666667E-01  0.00000000E+00
                       3.33333333E-01  1.66666667E-01  0.00000000E+00
                       4.16666667E-01  1.66666667E-01  0.00000000E+00
                       5.00000000E-01  1.66666667E-01  0.00000000E+00
                      -4.16666667E-01  1.66666667E-01  0.00000000E+00
                      -3.33333333E-01  1.66666667E-01  0.00000000E+00
                      -2.50000000E-01  1.66666667E-01  0.00000000E+00
                      -1.66666667E-01  1.66666667E-01  0.00000000E+00
                       2.50000000E-01  2.50000000E-01  0.00000000E+00
                       3.33333333E-01  2.50000000E-01  0.00000000E+00
                       4.16666667E-01  2.50000000E-01  0.00000000E+00
                       5.00000000E-01  2.50000000E-01  0.00000000E+00
                      -4.16666667E-01  2.50000000E-01  0.00000000E+00
                      -3.33333333E-01  2.50000000E-01  0.00000000E+00
                      -2.50000000E-01  2.50000000E-01  0.00000000E+00
                       3.33333333E-01  3.33333333E-01  0.00000000E+00
                       4.16666667E-01  3.33333333E-01  0.00000000E+00
                       5.00000000E-01  3.33333333E-01  0.00000000E+00
                      -4.16666667E-01  3.33333333E-01  0.00000000E+00
                      -3.33333333E-01  3.33333333E-01  0.00000000E+00
                       4.16666667E-01  4.16666667E-01  0.00000000E+00
                       5.00000000E-01  4.16666667E-01  0.00000000E+00
                      -4.16666667E-01  4.16666667E-01  0.00000000E+00
                       5.00000000E-01  5.00000000E-01  0.00000000E+00
                       8.33333333E-02  0.00000000E+00  8.33333333E-02
                       1.66666667E-01  0.00000000E+00  8.33333333E-02
                       2.50000000E-01  0.00000000E+00  8.33333333E-02
                       3.33333333E-01  0.00000000E+00  8.33333333E-02
                       4.16666667E-01  0.00000000E+00  8.33333333E-02
                       5.00000000E-01  0.00000000E+00  8.33333333E-02
                      -4.16666667E-01  0.00000000E+00  8.33333333E-02
                       outvar_i_n : Printing only first  50 k-points.
         kptrlatt       12    0    0      0   12    0      0    0   12
          kptrlen      1.74206961E+02
P           mkmem          28
            natom           9
            nband          42
            ngfft          64      64      64
             nkpt         163
            nstep        2500
             nsym          16
           ntypat           4
              occ      2.000000  2.000000  2.000000  2.000000  2.000000  2.000000
                       2.000000  2.000000  2.000000  2.000000  2.000000  2.000000
                       2.000000  2.000000  2.000000  2.000000  2.000000  2.000000
                       2.000000  2.000000  2.000000  2.000000  2.000000  2.000000
                       2.000000  2.000000  2.000000  2.000000  2.000000  2.000000
                       2.000000  2.000000  2.000000  2.000000  2.000000  2.000000
                       0.000000  0.000000  0.000000  0.000000  0.000000  0.000000
            rprim      0.0000000000E+00  6.8109917037E-01  7.3219117731E-01
                       7.0710678119E-01  0.0000000000E+00  7.0710678119E-01
                       7.3219117731E-01  6.8109917037E-01  0.0000000000E+00
          spgroup         139
           symrel      1  0  0   0  1  0   0  0  1      -1  0  0   0 -1  0   0  0 -1
                       0  0 -1   0 -1  0  -1  0  0       0  0  1   0  1  0   1  0  0
                       0 -1  1   0 -1  0   1 -1  0       0  1 -1   0  1  0  -1  1  0
                      -1  1  0   0  1  0   0  1 -1       1 -1  0   0 -1  0   0 -1  1
                       0 -1  1  -1  0  1   0  0  1       0  1 -1   1  0 -1   0  0 -1
                       0  0 -1   1  0 -1   0  1 -1       0  0  1  -1  0  1   0 -1  1
                       1  0  0   1  0 -1   1 -1  0      -1  0  0  -1  0  1  -1  1  0
                      -1  1  0  -1  0  1  -1  0  0       1 -1  0   1  0 -1   1  0  0
           toldfe      1.00000000E-08 Hartree
            typat      1  1  4  2  2  4  2  2  3
              wtk        0.00058    0.00463    0.00463    0.00463    0.00463    0.00463
                         0.00231    0.00231    0.00926    0.00926    0.00926    0.00926
                         0.00926    0.00926    0.00926    0.00926    0.00926    0.00463
                         0.00231    0.00926    0.00926    0.00926    0.00926    0.00926
                         0.00926    0.00926    0.00463    0.00231    0.00926    0.00926
                         0.00926    0.00926    0.00926    0.00463    0.00231    0.00926
                         0.00926    0.00926    0.00463    0.00231    0.00926    0.00463
                         0.00116    0.00116    0.00463    0.00463    0.00463    0.00463
                         0.00463    0.00463
                       outvars : Printing only first  50 k-points.
           xangst      2.8124181119E+00  2.6161687031E+00  2.8124181119E+00
                       8.4372543356E+00  7.8485061092E+00  8.4372543356E+00
                       5.6248362238E+00  8.0412807653E+00  5.6248362238E+00
                       5.6248362238E+00  5.2323374061E+00  2.8498083542E+00
                       5.6248362237E+00  5.2323374061E+00  8.3998640932E+00
                       5.6248362237E+00  2.4233940470E+00  5.6248362237E+00
                       8.3998640932E+00  5.2323374061E+00  5.6248362237E+00
                       2.8498083542E+00  5.2323374061E+00  5.6248362238E+00
                      -2.3314030079E-19 -6.8454824398E-20 -7.2739896705E-20
            xcart      5.3147000026E+00  4.9438423662E+00  5.3147000026E+00
                       1.5944100008E+01  1.4831527099E+01  1.5944100008E+01
                       1.0629400005E+01  1.5195818404E+01  1.0629400005E+01
                       1.0629400005E+01  9.8876847325E+00  5.3853573207E+00
                       1.0629400005E+01  9.8876847325E+00  1.5873442690E+01
                       1.0629400005E+01  4.5795510609E+00  1.0629400005E+01
                       1.5873442690E+01  9.8876847325E+00  1.0629400005E+01
                       5.3853573207E+00  9.8876847325E+00  1.0629400005E+01
                      -4.4057131904E-19 -1.2936087059E-19 -1.3745848371E-19
             xred      2.5000000000E-01  2.5000000000E-01  2.5000000000E-01
                       7.5000000000E-01  7.5000000000E-01  7.5000000000E-01
                       7.6842146646E-01  2.3157853354E-01  7.6842146646E-01
                       2.5332367387E-01  2.5332367387E-01  7.4667632613E-01
                       7.4667632613E-01  7.4667632613E-01  2.5332367387E-01
                       2.3157853354E-01  7.6842146646E-01  2.3157853354E-01
                       2.5332367387E-01  7.4667632613E-01  7.4667632613E-01
                       7.4667632613E-01  2.5332367387E-01  2.5332367387E-01
                       7.7167141090E-21 -2.0648627824E-20 -2.0799743563E-20
            znucl       55.00000   53.00000   72.00000   17.00000

 chkinp: Checking input parameters for consistency.

== DATASET  1 ==================================================================
-   mpi_nproc: 6, omp_nthreads: -1 (-1 if OMP is not activated)

--- !DatasetInfo
iteration_state: {dtset: 1, }
[...]
...

 Integrated electronic density in atomic spheres:
 Atom  Sphere_radius  Integrated_density
    1        2.00000          4.43736776
    2        2.00000          4.43736776
    3        2.00000          5.03350309
    4        2.00000          2.86066633
    5        2.00000          2.86066633
    6        2.00000          5.03350309
    7        2.00000          2.86066633
    8        2.00000          2.86066633
    9        2.00000          8.29411927

 ----iterations are completed or convergence reached----

 Mean square residual over all n,k,spin=   18.222E-07; max=  95.962E-05
 reduced coordinates (array xred) for    9 atoms
       0.250000000000      0.250000000000      0.250000000000
       0.750000000000      0.750000000000      0.750000000000
       0.768421466460      0.231578533540      0.768421466460
       0.253323673870      0.253323673870      0.746676326130
       0.746676326130      0.746676326130      0.253323673870
       0.231578533540      0.768421466460      0.231578533540
       0.253323673870      0.746676326130      0.746676326130
       0.746676326130      0.253323673870      0.253323673870
       0.000000000000     -0.000000000000     -0.000000000000
 rms dE/dt=  1.8328E-02; max dE/dt=  4.0114E-02; dE/dt below (all hartree)
    1       0.000000000000      0.000000000000     -0.000000000000
    2      -0.000000000000     -0.000000000000      0.000000000000
    3      -0.040114254288      0.000000000000     -0.040114254288
    4       0.018141943210      0.018141943210      0.000000000000
    5      -0.018141943210     -0.018141943210      0.000000000000
    6       0.040114254288      0.000000000000      0.040114254288
    7       0.000000000000     -0.018141943210     -0.018141943210
    8      -0.000000000000      0.018141943210      0.018141943210
    9       0.000000000000      0.000000000000      0.000000000000

 cartesian coordinates (angstrom) at end:
    1      2.81241811186529     2.61616870307210     2.81241811186529
    2      8.43725433559586     7.84850610921629     8.43725433559586
    3      5.62483622376041     8.04128076528567     5.62483622376041
    4      5.62483622375799     5.23233740614419     2.84980835422497
    5      5.62483622370315     5.23233740614419     8.39986409323617
    6      5.62483622370074     2.42339404700272     5.62483622370074
    7      8.39986409323617     5.23233740614419     5.62483622370315
    8      2.84980835422497     5.23233740614419     5.62483622375799
    9     -0.00000000000000    -0.00000000000000    -0.00000000000000

 cartesian forces (hartree/bohr) at end:
    1      0.00000000000000    -0.00000000000000     0.00000000000000
    2      0.00000000000000    -0.00000000000000     0.00000000000000
    3      0.00000000000000     0.00405699163889    -0.00000000000000
    4     -0.00000000000002     0.00000000000002    -0.00170677020352
    5      0.00000000000002    -0.00000000000002     0.00170677020352
    6     -0.00000000000000    -0.00405699163889     0.00000000000000
    7      0.00170677020352    -0.00000000000002     0.00000000000002
    8     -0.00170677020352     0.00000000000002    -0.00000000000002
    9      0.00000000000000    -0.00000000000000     0.00000000000000
 frms,max,avg= 1.2848205E-03 4.0569916E-03   0.000E+00  0.000E+00  0.000E+00 h/b

 cartesian forces (eV/Angstrom) at end:
    1      0.00000000000000    -0.00000000000000     0.00000000000000
    2      0.00000000000000    -0.00000000000000     0.00000000000000
    3      0.00000000000000     0.20861888042540    -0.00000000000000
    4     -0.00000000000087     0.00000000000093    -0.08776564526009
    5      0.00000000000087    -0.00000000000093     0.08776564526009
    6     -0.00000000000000    -0.20861888042540     0.00000000000000
    7      0.08776564526009    -0.00000000000093     0.00000000000087
    8     -0.08776564526009     0.00000000000093    -0.00000000000087
    9      0.00000000000000    -0.00000000000000     0.00000000000000
 frms,max,avg= 6.6068121E-02 2.0861888E-01   0.000E+00  0.000E+00  0.000E+00 e/A
 length scales= 14.517246772000 15.032241647000 14.517246772000 bohr
              =  7.682196123219  7.954719673610  7.682196123219 angstroms
 prteigrs : about to open file Cs2TiI6o_EIG
 Fermi (or HOMO) energy (hartree) =   0.08060   Average Vxc (hartree)=  -0.32540
 Eigenvalues (hartree) for nkpt= 163  k points:
 kpt#   1, nband= 42, wtk=  0.00058, kpt=  0.0000  0.0000  0.0000 (reduced coord)
  -2.24194   -1.06628   -1.06500   -1.06500   -0.66456   -0.66409   -0.45431   -0.44232
  -0.35424   -0.33940   -0.33940   -0.33333   -0.19300   -0.18789   -0.18789   -0.18486
  -0.18486   -0.18470   -0.09536   -0.03648   -0.03648   -0.03202   -0.03079   -0.03079
  -0.02911   -0.00823    0.01328    0.02000    0.02000    0.04875    0.05047    0.05802
   0.05802    0.06905    0.06905    0.08060    0.15070    0.16694    0.16694    0.21247
   0.22746    0.23461
 prteigrs : prtvol=0 or 1, do not print more k-points.

--- !EnergyTerms
iteration_state     : {dtset: 1, }
comment             : Components of total free energy in Hartree
kinetic             :  4.82365920699692E+01
hartree             :  3.48207056096126E+01
xc                  : -5.34806707199769E+01
Ewald energy        : -1.24933841807275E+02
psp_core            :  5.23702029907702E+00
local_psp           : -1.20253255327046E+02
non_local_psp       :  2.16564458636894E+01
total_energy        : -1.88717004011950E+02
...

--- !EnergyTermsDC
iteration_state     : {dtset: 1, }
comment             : '"Double-counting" decomposition of free energy'
band_energy         : -2.01414328813837E+01
Ewald energy        : -1.24933841807275E+02
psp_core            :  5.23702029907702E+00
xc_dc               : -4.88787237304530E+01
total_energy_dc     : -1.88716978120035E+02
...

 Cartesian components of stress tensor (hartree/bohr^3)
  sigma(1 1)= -7.96236027E-04  sigma(3 2)= -1.64390215E-14
  sigma(2 2)= -7.85005776E-04  sigma(3 1)=  3.05833873E-14
  sigma(3 3)= -7.96236027E-04  sigma(2 1)= -1.64387180E-14

-Cartesian components of stress tensor (GPa)         [Pressure=  2.3316E+01 GPa]
- sigma(1 1)= -2.34260688E+01  sigma(3 2)= -4.83652628E-10
- sigma(2 2)= -2.30956634E+01  sigma(3 1)=  8.99794167E-10
- sigma(3 3)= -2.34260688E+01  sigma(2 1)= -4.83643701E-10

== END DATASET(S) ==============================================================

 -outvars: echo values of variables after computation  --------
            acell      1.4517246772E+01  1.5032241647E+01  1.4517246772E+01 Bohr
              amu      1.32905430E+02  1.26904470E+02  1.78490000E+02
                       3.54527000E+01
           diemac      1.20000000E+01
             ecut      2.00000000E+01 Hartree
           etotal     -1.8871697812E+02
            fcart      2.4093381744E-20 -1.2046690765E-20  5.8392461974E-21
                       2.4093381620E-20 -1.2046690816E-20  5.8392464729E-21
                       2.9680081570E-19  4.0569916389E-03 -2.6686818768E-19
                      -1.6863537130E-14  1.8128577043E-14 -1.7067702035E-03
                       1.6863422116E-14 -1.8128425693E-14  1.7067702035E-03
                      -2.4861405248E-19 -4.0569916389E-03  2.7854668049E-19
                       1.7067702035E-03 -1.8128317273E-14  1.6863295442E-14
                      -1.7067702035E-03  1.8128401600E-14 -1.6863392184E-14
                       2.4093381611E-20 -1.2046690805E-20  5.8392464064E-21
-          fftalg         112
             iscf          17
           istwfk        2    0    0    0    0    0    3    0    0    0
                         0    0    0    0    0    0    0    0    0    0
                         0    0    0    0    0    0    0    0    0    0
                         0    0    0    0    0    0    0    0    0    0
                         0    0    7    0    0    0    0    0    0    0
                       outvar_i_n : Printing only first  50 k-points.
              ixc          32
              kpt      0.00000000E+00  0.00000000E+00  0.00000000E+00
                       8.33333333E-02  0.00000000E+00  0.00000000E+00
                       1.66666667E-01  0.00000000E+00  0.00000000E+00
                       2.50000000E-01  0.00000000E+00  0.00000000E+00
                       3.33333333E-01  0.00000000E+00  0.00000000E+00
                       4.16666667E-01  0.00000000E+00  0.00000000E+00
                       5.00000000E-01  0.00000000E+00  0.00000000E+00
                       8.33333333E-02  8.33333333E-02  0.00000000E+00
                       1.66666667E-01  8.33333333E-02  0.00000000E+00
                       2.50000000E-01  8.33333333E-02  0.00000000E+00
                       3.33333333E-01  8.33333333E-02  0.00000000E+00
                       4.16666667E-01  8.33333333E-02  0.00000000E+00
                       5.00000000E-01  8.33333333E-02  0.00000000E+00
                      -4.16666667E-01  8.33333333E-02  0.00000000E+00
                      -3.33333333E-01  8.33333333E-02  0.00000000E+00
                      -2.50000000E-01  8.33333333E-02  0.00000000E+00
                      -1.66666667E-01  8.33333333E-02  0.00000000E+00
                      -8.33333333E-02  8.33333333E-02  0.00000000E+00
                       1.66666667E-01  1.66666667E-01  0.00000000E+00
                       2.50000000E-01  1.66666667E-01  0.00000000E+00
                       3.33333333E-01  1.66666667E-01  0.00000000E+00
                       4.16666667E-01  1.66666667E-01  0.00000000E+00
                       5.00000000E-01  1.66666667E-01  0.00000000E+00
                      -4.16666667E-01  1.66666667E-01  0.00000000E+00
                      -3.33333333E-01  1.66666667E-01  0.00000000E+00
                      -2.50000000E-01  1.66666667E-01  0.00000000E+00
                      -1.66666667E-01  1.66666667E-01  0.00000000E+00
                       2.50000000E-01  2.50000000E-01  0.00000000E+00
                       3.33333333E-01  2.50000000E-01  0.00000000E+00
                       4.16666667E-01  2.50000000E-01  0.00000000E+00
                       5.00000000E-01  2.50000000E-01  0.00000000E+00
                      -4.16666667E-01  2.50000000E-01  0.00000000E+00
                      -3.33333333E-01  2.50000000E-01  0.00000000E+00
                      -2.50000000E-01  2.50000000E-01  0.00000000E+00
                       3.33333333E-01  3.33333333E-01  0.00000000E+00
                       4.16666667E-01  3.33333333E-01  0.00000000E+00
                       5.00000000E-01  3.33333333E-01  0.00000000E+00
                      -4.16666667E-01  3.33333333E-01  0.00000000E+00
                      -3.33333333E-01  3.33333333E-01  0.00000000E+00
                       4.16666667E-01  4.16666667E-01  0.00000000E+00
                       5.00000000E-01  4.16666667E-01  0.00000000E+00
                      -4.16666667E-01  4.16666667E-01  0.00000000E+00
                       5.00000000E-01  5.00000000E-01  0.00000000E+00
                       8.33333333E-02  0.00000000E+00  8.33333333E-02
                       1.66666667E-01  0.00000000E+00  8.33333333E-02
                       2.50000000E-01  0.00000000E+00  8.33333333E-02
                       3.33333333E-01  0.00000000E+00  8.33333333E-02
                       4.16666667E-01  0.00000000E+00  8.33333333E-02
                       5.00000000E-01  0.00000000E+00  8.33333333E-02
                      -4.16666667E-01  0.00000000E+00  8.33333333E-02
                       outvar_i_n : Printing only first  50 k-points.
         kptrlatt       12    0    0      0   12    0      0    0   12
          kptrlen      1.74206961E+02
P           mkmem          28
            natom           9
            nband          42
            ngfft          64      64      64
             nkpt         163
            nstep        2500
             nsym          16
           ntypat           4
              occ      2.000000  2.000000  2.000000  2.000000  2.000000  2.000000
                       2.000000  2.000000  2.000000  2.000000  2.000000  2.000000
                       2.000000  2.000000  2.000000  2.000000  2.000000  2.000000
                       2.000000  2.000000  2.000000  2.000000  2.000000  2.000000
                       2.000000  2.000000  2.000000  2.000000  2.000000  2.000000
                       2.000000  2.000000  2.000000  2.000000  2.000000  2.000000
                       0.000000  0.000000  0.000000  0.000000  0.000000  0.000000
            rprim      0.0000000000E+00  6.8109917037E-01  7.3219117731E-01
                       7.0710678119E-01  0.0000000000E+00  7.0710678119E-01
                       7.3219117731E-01  6.8109917037E-01  0.0000000000E+00
          spgroup         139
           strten     -7.9623602744E-04 -7.8500577598E-04 -7.9623602744E-04
                      -1.6439021453E-14  3.0583387254E-14 -1.6438718050E-14
           symrel      1  0  0   0  1  0   0  0  1      -1  0  0   0 -1  0   0  0 -1
                       0  0 -1   0 -1  0  -1  0  0       0  0  1   0  1  0   1  0  0
                       0 -1  1   0 -1  0   1 -1  0       0  1 -1   0  1  0  -1  1  0
                      -1  1  0   0  1  0   0  1 -1       1 -1  0   0 -1  0   0 -1  1
                       0 -1  1  -1  0  1   0  0  1       0  1 -1   1  0 -1   0  0 -1
                       0  0 -1   1  0 -1   0  1 -1       0  0  1  -1  0  1   0 -1  1
                       1  0  0   1  0 -1   1 -1  0      -1  0  0  -1  0  1  -1  1  0
                      -1  1  0  -1  0  1  -1  0  0       1 -1  0   1  0 -1   1  0  0
           toldfe      1.00000000E-08 Hartree
            typat      1  1  4  2  2  4  2  2  3
              wtk        0.00058    0.00463    0.00463    0.00463    0.00463    0.00463
                         0.00231    0.00231    0.00926    0.00926    0.00926    0.00926
                         0.00926    0.00926    0.00926    0.00926    0.00926    0.00463
                         0.00231    0.00926    0.00926    0.00926    0.00926    0.00926
                         0.00926    0.00926    0.00463    0.00231    0.00926    0.00926
                         0.00926    0.00926    0.00926    0.00463    0.00231    0.00926
                         0.00926    0.00926    0.00463    0.00231    0.00926    0.00463
                         0.00116    0.00116    0.00463    0.00463    0.00463    0.00463
                         0.00463    0.00463
                       outvars : Printing only first  50 k-points.
           xangst      2.8124181119E+00  2.6161687031E+00  2.8124181119E+00
                       8.4372543356E+00  7.8485061092E+00  8.4372543356E+00
                       5.6248362238E+00  8.0412807653E+00  5.6248362238E+00
                       5.6248362238E+00  5.2323374061E+00  2.8498083542E+00
                       5.6248362237E+00  5.2323374061E+00  8.3998640932E+00
                       5.6248362237E+00  2.4233940470E+00  5.6248362237E+00
                       8.3998640932E+00  5.2323374061E+00  5.6248362237E+00
                       2.8498083542E+00  5.2323374061E+00  5.6248362238E+00
                      -2.3314030079E-19 -6.8454824398E-20 -7.2739896705E-20
            xcart      5.3147000026E+00  4.9438423662E+00  5.3147000026E+00
                       1.5944100008E+01  1.4831527099E+01  1.5944100008E+01
                       1.0629400005E+01  1.5195818404E+01  1.0629400005E+01
                       1.0629400005E+01  9.8876847325E+00  5.3853573207E+00
                       1.0629400005E+01  9.8876847325E+00  1.5873442690E+01
                       1.0629400005E+01  4.5795510609E+00  1.0629400005E+01
                       1.5873442690E+01  9.8876847325E+00  1.0629400005E+01
                       5.3853573207E+00  9.8876847325E+00  1.0629400005E+01
                      -4.4057131904E-19 -1.2936087059E-19 -1.3745848371E-19
             xred      2.5000000000E-01  2.5000000000E-01  2.5000000000E-01
                       7.5000000000E-01  7.5000000000E-01  7.5000000000E-01
                       7.6842146646E-01  2.3157853354E-01  7.6842146646E-01
                       2.5332367387E-01  2.5332367387E-01  7.4667632613E-01
                       7.4667632613E-01  7.4667632613E-01  2.5332367387E-01
                       2.3157853354E-01  7.6842146646E-01  2.3157853354E-01
                       2.5332367387E-01  7.4667632613E-01  7.4667632613E-01
                       7.4667632613E-01  2.5332367387E-01  2.5332367387E-01
                       7.7167141090E-21 -2.0648627824E-20 -2.0799743563E-20
            znucl       55.00000   53.00000   72.00000   17.00000

- Timing analysis has been suppressed with timopt=0

 Suggested references for the acknowledgment of ABINIT usage.

 Calculation completed.
.Delivered   0 WARNINGs and   0 COMMENTs to log file.