.Version 9.2.2 of ABINIT

 ABINIT is a project of the Universite Catholique de Louvain,
 Corning Inc. and other collaborators, see ~abinit/doc/developers/contributors.txt .
 acknowledgments of the ABINIT effort.

.Starting date : Tue 22 Nov 2022.
- ( at 09h50 )

- input  file    -> Cs2TiI6.in
- output file    -> Cs2TiI6.out
- root for input  files -> Cs2TiI6i
- root for output files -> Cs2TiI6o

- inpspheads : Reading pseudopotential header in XML form from
-   ../../../Psps_for_tests/ATOMICDATA/Cs.GGA_PBE-JTH.xml
- inpspheads : Reading pseudopotential header in XML form from
-   ../../../Psps_for_tests/ATOMICDATA/Cl.GGA_PBE-JTH.xml
- inpspheads : Reading pseudopotential header in XML form from
-   ../../../Psps_for_tests/ATOMICDATA/Hf.GGA_PBE-JTH.xml

 DATASET    1 : space group Fm -3 m (#225); Bravais cF (face-center cubic)
     intxc =       0    ionmov =       0      iscf =      17    lmnmax =      18
     lnmax =       6     mgfft =      60  mpssoang =       3    mqgrid =    3651
     natom =       9  nloc_mem =       2    nspden =       1   nspinor =       1
    nsppol =       1      nsym =      48    n1xccc =       1    ntypat =       3
    occopt =       1   xclevel =       2
-    mband =          42        mffmem =           1         mkmem =          18
       mpw =        8400          nfft =      216000          nkpt =          72
Pmy_natom=         3
 PAW method is used; the additional fine FFT grid is defined by:
   mgfftf=        90    nfftf =    729000
  Rough estimation (10% accuracy) of disk space for files :

[...]

 DATASET    9 : space group Fm -3 m (#225); Bravais cF (face-center cubic)
     intxc =       0    ionmov =       0      iscf =      17    lmnmax =      18
     lnmax =       6     mgfft =      60  mpssoang =       3    mqgrid =    3620
     natom =       9  nloc_mem =       2    nspden =       1   nspinor =       1
    nsppol =       1      nsym =      48    n1xccc =       1    ntypat =       3
    occopt =       1   xclevel =       2
-    mband =          42        mffmem =           1         mkmem =          18
       mpw =        8195          nfft =      216000          nkpt =          72
Pmy_natom=         3
 PAW method is used; the additional fine FFT grid is defined by:
   mgfftf=        90    nfftf =    729000
  Rough estimation (10% accuracy) of disk space for files :

------------- Echo of variables that govern the present computation ------------
-
- outvars: echo of selected default values
-   iomode0 =  0 , fftalg0 =112 , wfoptalg0 = 10
-
- outvars: echo of global parameters not present in the input file
-  max_nthreads =    0
-
 -outvars: echo values of preprocessed input variables --------
            acell1     1.3656313766E+01  1.3656313766E+01  1.3656313766E+01 Bohr
            acell2     1.3641923552E+01  1.3641923552E+01  1.3641923552E+01 Bohr
            acell3     1.3627533337E+01  1.3627533337E+01  1.3627533337E+01 Bohr
            acell4     1.3613143122E+01  1.3613143122E+01  1.3613143122E+01 Bohr
            acell5     1.3598752907E+01  1.3598752907E+01  1.3598752907E+01 Bohr
            acell6     1.3584362693E+01  1.3584362693E+01  1.3584362693E+01 Bohr
            acell7     1.3569972478E+01  1.3569972478E+01  1.3569972478E+01 Bohr
            acell8     1.3555582263E+01  1.3555582263E+01  1.3555582263E+01 Bohr
            acell9     1.3541192049E+01  1.3541192049E+01  1.3541192049E+01 Bohr
              amu      1.32905430E+02  3.54527000E+01  1.78490000E+02
           diemac      1.20000000E+01
          dilatmx      1.15000000E+00
             ecut      1.60000000E+01 Hartree
           ecutsm      5.00000000E-01 Hartree
-          fftalg         112
           istwfk        2    0    0    0    0    0    3    0    0    0
                         0    0    0    0    0    0    0    0    0    0
                         0    0    0    0    0    0    0    0    0    0
                         0    0    0    0    0    0    0    0    0    0
                         0    0    7    0    0    0    0    0    0    0
                       outvar_i_n : Printing only first  50 k-points.
              ixc     -101130
           jdtset        1    2    3    4    5    6    7    8    9
              kpt      0.00000000E+00  0.00000000E+00  0.00000000E+00
                       8.33333333E-02  0.00000000E+00  0.00000000E+00
                       1.66666667E-01  0.00000000E+00  0.00000000E+00
                       2.50000000E-01  0.00000000E+00  0.00000000E+00
                       3.33333333E-01  0.00000000E+00  0.00000000E+00
                       4.16666667E-01  0.00000000E+00  0.00000000E+00
                       5.00000000E-01  0.00000000E+00  0.00000000E+00
                       8.33333333E-02  8.33333333E-02  0.00000000E+00
                       1.66666667E-01  8.33333333E-02  0.00000000E+00
                       2.50000000E-01  8.33333333E-02  0.00000000E+00
                       3.33333333E-01  8.33333333E-02  0.00000000E+00
                       4.16666667E-01  8.33333333E-02  0.00000000E+00
                       5.00000000E-01  8.33333333E-02  0.00000000E+00
                      -4.16666667E-01  8.33333333E-02  0.00000000E+00
                      -3.33333333E-01  8.33333333E-02  0.00000000E+00
                      -2.50000000E-01  8.33333333E-02  0.00000000E+00
                      -1.66666667E-01  8.33333333E-02  0.00000000E+00
                      -8.33333333E-02  8.33333333E-02  0.00000000E+00
                       1.66666667E-01  1.66666667E-01  0.00000000E+00
                       2.50000000E-01  1.66666667E-01  0.00000000E+00
                       3.33333333E-01  1.66666667E-01  0.00000000E+00
                       4.16666667E-01  1.66666667E-01  0.00000000E+00
                       5.00000000E-01  1.66666667E-01  0.00000000E+00
                      -4.16666667E-01  1.66666667E-01  0.00000000E+00
                      -3.33333333E-01  1.66666667E-01  0.00000000E+00
                      -2.50000000E-01  1.66666667E-01  0.00000000E+00
                      -1.66666667E-01  1.66666667E-01  0.00000000E+00
                       2.50000000E-01  2.50000000E-01  0.00000000E+00
                       3.33333333E-01  2.50000000E-01  0.00000000E+00
                       4.16666667E-01  2.50000000E-01  0.00000000E+00
                       5.00000000E-01  2.50000000E-01  0.00000000E+00
                      -4.16666667E-01  2.50000000E-01  0.00000000E+00
                      -3.33333333E-01  2.50000000E-01  0.00000000E+00
                      -2.50000000E-01  2.50000000E-01  0.00000000E+00
                       3.33333333E-01  3.33333333E-01  0.00000000E+00
                       4.16666667E-01  3.33333333E-01  0.00000000E+00
                       5.00000000E-01  3.33333333E-01  0.00000000E+00
                      -4.16666667E-01  3.33333333E-01  0.00000000E+00
                      -3.33333333E-01  3.33333333E-01  0.00000000E+00
                       4.16666667E-01  4.16666667E-01  0.00000000E+00
                       5.00000000E-01  4.16666667E-01  0.00000000E+00
                      -4.16666667E-01  4.16666667E-01  0.00000000E+00
                       5.00000000E-01  5.00000000E-01  0.00000000E+00
                       2.50000000E-01  1.66666667E-01  8.33333333E-02
                       3.33333333E-01  1.66666667E-01  8.33333333E-02
                       4.16666667E-01  1.66666667E-01  8.33333333E-02
                       5.00000000E-01  1.66666667E-01  8.33333333E-02
                      -4.16666667E-01  1.66666667E-01  8.33333333E-02
                       3.33333333E-01  2.50000000E-01  8.33333333E-02
                       4.16666667E-01  2.50000000E-01  8.33333333E-02
                       outvar_i_n : Printing only first  50 k-points.
         kptrlatt       12    0    0      0   12    0      0    0   12
          kptrlen1     1.63875765E+02
          kptrlen2     1.63703083E+02
          kptrlen3     1.63530400E+02
          kptrlen4     1.63357717E+02
          kptrlen5     1.63185035E+02
          kptrlen6     1.63012352E+02
          kptrlen7     1.62839670E+02
          kptrlen8     1.62666987E+02
          kptrlen9     1.62494305E+02
P           mkmem          18
            natom           9
            nband          42
           ndtset           9
            ngfft          60      60      60
          ngfftdg          90      90      90
             nkpt          72
            nstep        2500
             nsym          48
           ntypat           3
              occ      2.000000  2.000000  2.000000  2.000000  2.000000  2.000000
                       2.000000  2.000000  2.000000  2.000000  2.000000  2.000000
                       2.000000  2.000000  2.000000  2.000000  2.000000  2.000000
                       2.000000  2.000000  2.000000  2.000000  2.000000  2.000000
                       2.000000  2.000000  2.000000  2.000000  2.000000  2.000000
                       2.000000  2.000000  2.000000  2.000000  2.000000  2.000000
                       0.000000  0.000000  0.000000  0.000000  0.000000  0.000000
        pawecutdg      4.00000000E+01 Hartree
            prtwf           0
            rprim      0.0000000000E+00  7.0710678119E-01  7.0710678119E-01
                       7.0710678119E-01  0.0000000000E+00  7.0710678119E-01
                       7.0710678119E-01  7.0710678119E-01  0.0000000000E+00
          spgroup         225
           symrel      1  0  0   0  1  0   0  0  1      -1  0  0   0 -1  0   0  0 -1
                       0 -1  1   0 -1  0   1 -1  0       0  1 -1   0  1  0  -1  1  0
                      -1  0  0  -1  0  1  -1  1  0       1  0  0   1  0 -1   1 -1  0
                       0  1 -1   1  0 -1   0  0 -1       0 -1  1  -1  0  1   0  0  1
                      -1  0  0  -1  1  0  -1  0  1       1  0  0   1 -1  0   1  0 -1
                       0 -1  1   1 -1  0   0 -1  0       0  1 -1  -1  1  0   0  1  0
                       1  0  0   0  0  1   0  1  0      -1  0  0   0  0 -1   0 -1  0
                       0  1 -1   0  0 -1   1  0 -1       0 -1  1   0  0  1  -1  0  1
                      -1  0  1  -1  1  0  -1  0  0       1  0 -1   1 -1  0   1  0  0
                       0 -1  0   1 -1  0   0 -1  1       0  1  0  -1  1  0   0  1 -1
                       1  0 -1   0  0 -1   0  1 -1      -1  0  1   0  0  1   0 -1  1
                       0  1  0   0  0  1   1  0  0       0 -1  0   0  0 -1  -1  0  0
                       1  0 -1   0  1 -1   0  0 -1      -1  0  1   0 -1  1   0  0  1
                       0 -1  0   0 -1  1   1 -1  0       0  1  0   0  1 -1  -1  1  0
                      -1  0  1  -1  0  0  -1  1  0       1  0 -1   1  0  0   1 -1  0
                       0  1  0   1  0  0   0  0  1       0 -1  0  -1  0  0   0  0 -1
                       0  0 -1   0  1 -1   1  0 -1       0  0  1   0 -1  1  -1  0  1
                       1 -1  0   0 -1  1   0 -1  0      -1  1  0   0  1 -1   0  1  0
                       0  0  1   1  0  0   0  1  0       0  0 -1  -1  0  0   0 -1  0
                      -1  1  0  -1  0  0  -1  0  1       1 -1  0   1  0  0   1  0 -1
[...]
                      -4.1180600428E-20 -2.2854756488E-19 -9.9913531113E-21
           xangst4     2.5469155682E+00  2.5469155682E+00  2.5469155682E+00
                       7.6407467045E+00  7.6407467045E+00  7.6407467045E+00
                       5.0938311364E+00  7.7341818146E+00  5.0938311364E+00
                       5.0938311364E+00  5.0938311364E+00  2.4534804581E+00
                       5.0938311364E+00  5.0938311364E+00  7.7341818146E+00
                       5.0938311364E+00  2.4534804581E+00  5.0938311364E+00
                       7.7341818146E+00  5.0938311364E+00  5.0938311364E+00
                       2.4534804581E+00  5.0938311364E+00  5.0938311364E+00
                       3.7124994022E-20  1.0140266861E-20 -3.2034722875E-20
           xangst5     2.5442232684E+00  2.5442232684E+00  2.5442232684E+00
                       7.6326698051E+00  7.6326698051E+00  7.6326698051E+00
                       5.0884465367E+00  7.7237691311E+00  5.0884465367E+00
                       5.0884465367E+00  5.0884465367E+00  2.4531239423E+00
                       5.0884465367E+00  5.0884465367E+00  7.7237691311E+00
                       5.0884465367E+00  2.4531239423E+00  5.0884465367E+00
                       7.7237691311E+00  5.0884465367E+00  5.0884465367E+00
                       2.4531239423E+00  5.0884465367E+00  5.0884465367E+00
                       1.0304796124E-19 -1.0165541638E-19 -1.1036796035E-20
           xangst6     2.5415309687E+00  2.5415309687E+00  2.5415309687E+00
                       7.6245929062E+00  7.6245929062E+00  7.6245929062E+00
                       5.0830619375E+00  7.7133648520E+00  5.0830619375E+00
                       5.0830619375E+00  5.0830619375E+00  2.4527590230E+00
                       5.0830619375E+00  5.0830619375E+00  7.7133648520E+00
                       5.0830619375E+00  2.4527590230E+00  5.0830619375E+00
                       7.7133648520E+00  5.0830619375E+00  5.0830619375E+00
                       2.4527590230E+00  5.0830619375E+00  5.0830619375E+00
                       3.7046505664E-20  1.0118828665E-20 -3.1966996189E-20
           xangst7     2.5388386689E+00  2.5388386689E+00  2.5388386689E+00
                       7.6165160068E+00  7.6165160068E+00  7.6165160068E+00
                       5.0776773379E+00  7.7029669833E+00  5.0776773379E+00
                       5.0776773379E+00  5.0776773379E+00  2.4523876924E+00
                       5.0776773379E+00  5.0776773379E+00  7.7029669833E+00
                       5.0776773379E+00  2.4523876924E+00  5.0776773379E+00
                       7.7029669833E+00  5.0776773379E+00  5.0776773379E+00
                       2.4523876924E+00  5.0776773379E+00  5.0776773379E+00
                       9.5601408072E-20 -4.3441207189E-21 -7.8548073660E-20
           xangst8     2.5361463691E+00  2.5361463691E+00  2.5361463691E+00
                       7.6084391074E+00  7.6084391074E+00  7.6084391074E+00
                       5.0722927383E+00  7.6925843530E+00  5.0722927383E+00
                       5.0722927383E+00  5.0722927383E+00  2.4520011235E+00
                       5.0722927383E+00  5.0722927383E+00  7.6925843530E+00
                       5.0722927383E+00  2.4520011235E+00  5.0722927383E+00
                       7.6925843530E+00  5.0722927383E+00  5.0722927383E+00
                       2.4520011235E+00  5.0722927383E+00  5.0722927383E+00
                       3.6968017303E-20  1.0097390468E-20 -3.1899269501E-20
           xangst9     2.5334540695E+00  2.5334540695E+00  2.5334540695E+00
                       7.6003622085E+00  7.6003622085E+00  7.6003622085E+00
                       5.0669081390E+00  7.6822001898E+00  5.0669081390E+00
                       5.0669081390E+00  5.0669081390E+00  2.4516160883E+00
                       5.0669081390E+00  5.0669081390E+00  7.6822001898E+00
                       5.0669081390E+00  2.4516160883E+00  5.0669081390E+00
                       7.6822001898E+00  5.0669081390E+00  5.0669081390E+00
                       2.4516160883E+00  5.0669081390E+00  5.0669081390E+00
                      -2.6954423950E-20  4.4202488470E-20 -6.5229250058E-20
            xcart1     4.8282360350E+00  4.8282360350E+00  4.8282360350E+00
                       1.4484708105E+01  1.4484708105E+01  1.4484708105E+01
                       9.6564720700E+00  1.4674401586E+01  9.6564720700E+00
                       9.6564720700E+00  9.6564720700E+00  4.6385425545E+00
                       9.6564720700E+00  9.6564720700E+00  1.4674401586E+01
                       9.6564720700E+00  4.6385425545E+00  9.6564720700E+00
                       1.4674401586E+01  9.6564720700E+00  9.6564720700E+00
                       4.6385425545E+00  9.6564720700E+00  9.6564720700E+00
                       8.2589603980E-20 -1.7972258084E-19 -5.0533622362E-20
            xcart2     4.8231483260E+00  4.8231483260E+00  4.8231483260E+00
                       1.4469444978E+01  1.4469444978E+01  1.4469444978E+01
                       9.6462966521E+00  1.4654750169E+01  9.6462966521E+00
                       9.6462966521E+00  9.6462966521E+00  4.6378431348E+00
                       9.6462966521E+00  9.6462966521E+00  1.4654750169E+01
                       9.6462966521E+00  4.6378431348E+00  9.6462966521E+00
                       1.4654750169E+01  9.6462966521E+00  9.6462966521E+00
                       4.6378431348E+00  9.6462966521E+00  9.6462966521E+00
                       5.3648482708E-20 -2.9266201102E-19 -3.4832106803E-20
            xcart3     4.8180606167E+00  4.8180606167E+00  4.8180606167E+00
                       1.4454181850E+01  1.4454181850E+01  1.4454181850E+01
                       9.6361212335E+00  1.4635135256E+01  9.6361212335E+00
                       9.6361212335E+00  9.6361212335E+00  4.6371072109E+00
                       9.6361212335E+00  9.6361212335E+00  1.4635135256E+01
                       9.6361212335E+00  4.6371072109E+00  9.6361212335E+00
                       1.4635135256E+01  9.6361212335E+00  9.6361212335E+00
                       4.6371072109E+00  9.6361212335E+00  9.6361212335E+00
                      -7.7820056797E-20 -4.3189230597E-19 -1.8880921077E-20
            xcart4     4.8129729074E+00  4.8129729074E+00  4.8129729074E+00
                       1.4438918722E+01  1.4438918722E+01  1.4438918722E+01
                       9.6259458149E+00  1.4615485492E+01  9.6259458149E+00
                       9.6259458149E+00  9.6259458149E+00  4.6364061382E+00
                       9.6259458149E+00  9.6259458149E+00  1.4615485492E+01
                       9.6259458149E+00  4.6364061382E+00  9.6259458149E+00
                       1.4615485492E+01  9.6259458149E+00  9.6259458149E+00
                       4.6364061382E+00  9.6259458149E+00  9.6259458149E+00
                       7.0156071387E-20  1.9162327282E-20 -6.0536852977E-20
            xcart5     4.8078851981E+00  4.8078851981E+00  4.8078851981E+00
                       1.4423655594E+01  1.4423655594E+01  1.4423655594E+01
                       9.6157703963E+00  1.4595808371E+01  9.6157703963E+00
                       9.6157703963E+00  9.6157703963E+00  4.6357324210E+00
                       9.6157703963E+00  9.6157703963E+00  1.4595808371E+01
                       9.6157703963E+00  4.6357324210E+00  9.6157703963E+00
                       1.4595808371E+01  9.6157703963E+00  9.6157703963E+00
                       4.6357324210E+00  9.6157703963E+00  9.6157703963E+00
                       1.9473242529E-19 -1.9210089689E-19 -2.0856521890E-20
            xcart6     4.8027974892E+00  4.8027974892E+00  4.8027974892E+00
                       1.4408392468E+01  1.4408392468E+01  1.4408392468E+01
                       9.6055949784E+00  1.4576147133E+01  9.6055949784E+00
                       9.6055949784E+00  9.6055949784E+00  4.6350428234E+00
                       9.6055949784E+00  9.6055949784E+00  1.4576147133E+01
                       9.6055949784E+00  4.6350428234E+00  9.6055949784E+00
                       1.4576147133E+01  9.6055949784E+00  9.6055949784E+00
                       4.6350428234E+00  9.6055949784E+00  9.6055949784E+00
                       7.0007749885E-20  1.9121814962E-20 -6.0408868089E-20
            xcart7     4.7977097799E+00  4.7977097799E+00  4.7977097799E+00
                       1.4393129340E+01  1.4393129340E+01  1.4393129340E+01
                       9.5954195598E+00  1.4556498009E+01  9.5954195598E+00
                       9.5954195598E+00  9.5954195598E+00  4.6343411103E+00
                       9.5954195598E+00  9.5954195598E+00  1.4556498009E+01
                       9.5954195598E+00  4.6343411103E+00  9.5954195598E+00
                       1.4556498009E+01  9.5954195598E+00  9.5954195598E+00
                       4.6343411103E+00  9.5954195598E+00  9.5954195598E+00
                       1.8066047917E-19 -8.2091984468E-21 -1.4843434748E-19
            xcart8     4.7926220706E+00  4.7926220706E+00  4.7926220706E+00
                       1.4377866212E+01  1.4377866212E+01  1.4377866212E+01
                       9.5852441411E+00  1.4536877681E+01  9.5852441411E+00
                       9.5852441411E+00  9.5852441411E+00  4.6336106010E+00
                       9.5852441411E+00  9.5852441411E+00  1.4536877681E+01
                       9.5852441411E+00  4.6336106010E+00  9.5852441411E+00
                       1.4536877681E+01  9.5852441411E+00  9.5852441411E+00
                       4.6336106010E+00  9.5852441411E+00  9.5852441411E+00
                       6.9859428378E-20  1.9081302642E-20 -6.0280883196E-20
            xcart9     4.7875343616E+00  4.7875343616E+00  4.7875343616E+00
                       1.4362603085E+01  1.4362603085E+01  1.4362603085E+01
                       9.5750687232E+00  1.4517254457E+01  9.5750687232E+00
                       9.5750687232E+00  9.5750687232E+00  4.6328829898E+00
                       9.5750687232E+00  9.5750687232E+00  1.4517254457E+01
                       9.5750687232E+00  4.6328829898E+00  9.5750687232E+00
                       1.4517254457E+01  9.5750687232E+00  9.5750687232E+00
                       4.6328829898E+00  9.5750687232E+00  9.5750687232E+00
                      -5.0936479334E-20  8.3530597601E-20 -1.2326541846E-19
             xred1     2.5000000000E-01  2.5000000000E-01  2.5000000000E-01
                       7.5000000000E-01  7.5000000000E-01  7.5000000000E-01
                       7.5982209026E-01  2.4017790974E-01  7.5982209026E-01
                       2.4017790974E-01  2.4017790974E-01  7.5982209026E-01
                       7.5982209026E-01  7.5982209026E-01  2.4017790974E-01
                       2.4017790974E-01  7.5982209026E-01  2.4017790974E-01
                       2.4017790974E-01  7.5982209026E-01  7.5982209026E-01
                       7.5982209026E-01  2.4017790974E-01  2.4017790974E-01
                      -1.6198763115E-20  1.0965628074E-20 -2.4128560698E-21
             xred2     2.5000000000E-01  2.5000000000E-01  2.5000000000E-01
                       7.5000000000E-01  7.5000000000E-01  7.5000000000E-01
                       7.5960499132E-01  2.4039500868E-01  7.5960499132E-01
                       2.4039500868E-01  2.4039500868E-01  7.5960499132E-01
                       7.5960499132E-01  7.5960499132E-01  2.4039500868E-01
                       2.4039500868E-01  7.5960499132E-01  2.4039500868E-01
                       2.4039500868E-01  7.5960499132E-01  7.5960499132E-01
                       7.5960499132E-01  2.4039500868E-01  2.4039500868E-01
                      -1.9755902927E-20  1.6144972426E-20 -1.0583409824E-20
             xred3     2.5000000000E-01  2.5000000000E-01  2.5000000000E-01
                       7.5000000000E-01  7.5000000000E-01  7.5000000000E-01
                       7.5938932800E-01  2.4061067200E-01  7.5938932800E-01
                       2.4061067200E-01  2.4061067200E-01  7.5938932800E-01
                       7.5938932800E-01  7.5938932800E-01  2.4061067200E-01
                       2.4061067200E-01  7.5938932800E-01  2.4061067200E-01
                       2.4061067200E-01  7.5938932800E-01  7.5938932800E-01
                       7.5938932800E-01  2.4061067200E-01  2.4061067200E-01
                      -1.9351830535E-20  1.7392440380E-20 -2.5468309800E-20
             xred4     2.5000000000E-01  2.5000000000E-01  2.5000000000E-01
                       7.5000000000E-01  7.5000000000E-01  7.5000000000E-01
                       7.5917139846E-01  2.4082860154E-01  7.5917139846E-01
                       2.4082860154E-01  2.4082860154E-01  7.5917139846E-01
                       7.5917139846E-01  7.5917139846E-01  2.4082860154E-01
                       2.4082860154E-01  7.5917139846E-01  2.4082860154E-01
                       2.4082860154E-01  7.5917139846E-01  7.5917139846E-01
                       7.5917139846E-01  2.4082860154E-01  2.4082860154E-01
                      -5.7932279709E-21 -4.9569720499E-22  7.7839234984E-21
             xred5     2.5000000000E-01  2.5000000000E-01  2.5000000000E-01
                       7.5000000000E-01  7.5000000000E-01  7.5000000000E-01
                       7.5895158526E-01  2.4104841474E-01  7.5895158526E-01
                       2.4104841474E-01  2.4104841474E-01  7.5895158526E-01
                       7.5895158526E-01  7.5895158526E-01  2.4104841474E-01
                       2.4104841474E-01  7.5895158526E-01  2.4104841474E-01
                       2.4104841474E-01  7.5895158526E-01  7.5895158526E-01
                       7.5895158526E-01  2.4104841474E-01  2.4104841474E-01
                      -2.1199021361E-20  1.9030030107E-20  1.2213296137E-21
             xred6     2.5000000000E-01  2.5000000000E-01  2.5000000000E-01
                       7.5000000000E-01  7.5000000000E-01  7.5000000000E-01
                       7.5873213300E-01  2.4126786700E-01  7.5873213300E-01
                       2.4126786700E-01  2.4126786700E-01  7.5873213300E-01
                       7.5873213300E-01  7.5873213300E-01  2.4126786700E-01
                       2.4126786700E-01  7.5873213300E-01  2.4126786700E-01
                       2.4126786700E-01  7.5873213300E-01  7.5873213300E-01
                       7.5873213300E-01  2.4126786700E-01  2.4126786700E-01
                      -5.7932279709E-21 -4.9569720499E-22  7.7839234984E-21
             xred7     2.5000000000E-01  2.5000000000E-01  2.5000000000E-01
                       7.5000000000E-01  7.5000000000E-01  7.5000000000E-01
                       7.5851284660E-01  2.4148715340E-01  7.5851284660E-01
                       2.4148715340E-01  2.4148715340E-01  7.5851284660E-01
                       7.5851284660E-01  7.5851284660E-01  2.4148715340E-01
                       2.4148715340E-01  7.5851284660E-01  2.4148715340E-01
                       2.4148715340E-01  7.5851284660E-01  7.5851284660E-01
                       7.5851284660E-01  2.4148715340E-01  2.4148715340E-01
                      -1.7576304142E-20  2.1070120950E-21  1.6720771104E-20
             xred8     2.5000000000E-01  2.5000000000E-01  2.5000000000E-01
                       7.5000000000E-01  7.5000000000E-01  7.5000000000E-01
                       7.5829459674E-01  2.4170540326E-01  7.5829459674E-01
                       2.4170540326E-01  2.4170540326E-01  7.5829459674E-01
                       7.5829459674E-01  7.5829459674E-01  2.4170540326E-01
                       2.4170540326E-01  7.5829459674E-01  2.4170540326E-01
                       2.4170540326E-01  7.5829459674E-01  7.5829459674E-01
                       7.5829459674E-01  2.4170540326E-01  2.4170540326E-01
                      -5.7932279709E-21 -4.9569720499E-22  7.7839234984E-21
             xred9     2.5000000000E-01  2.5000000000E-01  2.5000000000E-01
                       7.5000000000E-01  7.5000000000E-01  7.5000000000E-01
                       7.5807573169E-01  2.4192426831E-01  7.5807573169E-01
                       2.4192426831E-01  2.4192426831E-01  7.5807573169E-01
                       7.5807573169E-01  7.5807573169E-01  2.4192426831E-01
                       2.4192426831E-01  7.5807573169E-01  2.4192426831E-01
                       2.4192426831E-01  7.5807573169E-01  7.5807573169E-01
                       7.5807573169E-01  2.4192426831E-01  2.4192426831E-01
                       5.8493880290E-22 -1.3458519351E-20  8.1388207873E-21
            znucl       55.00000   17.00000   72.00000

- Timing analysis has been suppressed with timopt=0

 Suggested references for the acknowledgment of ABINIT usage.

 Calculation completed.
.Delivered   0 WARNINGs and   9 COMMENTs to log file.