.Version 9.2.2 of ABINIT

 ABINIT is a project of the Universite Catholique de Louvain,
 Corning Inc. and other collaborators, see ~abinit/doc/developers/contributors.txt .
 acknowledgments of the ABINIT effort.

.Starting date : Tue 22 Nov 2022.
- ( at 16h48 )

- input  file    -> Cs2TiI6.in
- output file    -> Cs2TiI6.out
- root for input  files -> Cs2TiI6i
- root for output files -> Cs2TiI6o

- inpspheads : Reading pseudopotential header in XML form from
-   ../../../Psps_for_tests/ATOMICDATA/Cs.GGA_PBE-JTH.xml
- inpspheads : Reading pseudopotential header in XML form from
-   ../../../Psps_for_tests/ATOMICDATA/I.GGA_PBE-JTH.xml
- inpspheads : Reading pseudopotential header in XML form from
-   ../../../Psps_for_tests/ATOMICDATA/Hf.GGA_PBE-JTH.xml
- inpspheads : Reading pseudopotential header in XML form from
-   ../../../Psps_for_tests/ATOMICDATA/Br.GGA_PBE-JTH.xml

 DATASET    1 : space group I4/m m m (#139); Bravais tI (body-center tetrag.)
     intxc =       0    ionmov =       0      iscf =      17    lmnmax =      18
     lnmax =       6     mgfft =      64  mpssoang =       3    mqgrid =    3909
     natom =       9  nloc_mem =       2    nspden =       1   nspinor =       1
    nsppol =       1      nsym =      16    n1xccc =       1    ntypat =       4
    occopt =       1   xclevel =       2
-    mband =          42        mffmem =           1         mkmem =          28
       mpw =       10316          nfft =      262144          nkpt =         163
Pmy_natom=         2
 PAW method is used; the additional fine FFT grid is defined by:
   mgfftf=        96    nfftf =    884736
  Rough estimation (10% accuracy) of disk space for files :

[...]

 DATASET   10 : space group I4/m m m (#139); Bravais tI (body-center tetrag.)
     intxc =       0    ionmov =       0      iscf =      17    lmnmax =      18
     lnmax =       6     mgfft =      64  mpssoang =       3    mqgrid =    3874
     natom =       9  nloc_mem =       2    nspden =       1   nspinor =       1
    nsppol =       1      nsym =      16    n1xccc =       1    ntypat =       4
    occopt =       1   xclevel =       2
-    mband =          42        mffmem =           1         mkmem =          28
       mpw =       10044          nfft =      262144          nkpt =         163
Pmy_natom=         2
 PAW method is used; the additional fine FFT grid is defined by:
   mgfftf=        96    nfftf =    884736
  Rough estimation (10% accuracy) of disk space for files :

------------- Echo of variables that govern the present computation ------------
-
- outvars: echo of selected default values
-   iomode0 =  0 , fftalg0 =112 , wfoptalg0 = 10
-
- outvars: echo of global parameters not present in the input file
-  max_nthreads =    0
-
 -outvars: echo values of preprocessed input variables --------
            acell1     1.4604925450E+01  1.4654488771E+01  1.4604925450E+01 Bohr
            acell2     1.4590281655E+01  1.4639869292E+01  1.4590281655E+01 Bohr
            acell3     1.4575645349E+01  1.4625234472E+01  1.4575645349E+01 Bohr
            acell4     1.4560989111E+01  1.4610640487E+01  1.4560989111E+01 Bohr
            acell5     1.4546353645E+01  1.4596003950E+01  1.4546353645E+01 Bohr
            acell6     1.4531755197E+01  1.4581291568E+01  1.4531755197E+01 Bohr
            acell7     1.4517161845E+01  1.4566568747E+01  1.4517161845E+01 Bohr
            acell8     1.4502578087E+01  1.4551826274E+01  1.4502578087E+01 Bohr
            acell9     1.4488920449E+01  1.4535187974E+01  1.4488920449E+01 Bohr
            acell10    1.4474878111E+01  1.4519338571E+01  1.4474878111E+01 Bohr
              amu      1.32905430E+02  1.26904470E+02  1.78490000E+02
                       7.99040000E+01
           diemac      1.20000000E+01
          dilatmx      1.15000000E+00
             ecut      1.60000000E+01 Hartree
           ecutsm      5.00000000E-01 Hartree
-          fftalg         112
           istwfk        2    0    0    0    0    0    3    0    0    0
                         0    0    0    0    0    0    0    0    0    0
                         0    0    0    0    0    0    0    0    0    0
                         0    0    0    0    0    0    0    0    0    0
                         0    0    7    0    0    0    0    0    0    0
                       outvar_i_n : Printing only first  50 k-points.
              ixc     -101130
           jdtset        1    2    3    4    5    6    7    8    9   10
              kpt      0.00000000E+00  0.00000000E+00  0.00000000E+00
                       8.33333333E-02  0.00000000E+00  0.00000000E+00
                       1.66666667E-01  0.00000000E+00  0.00000000E+00
                       2.50000000E-01  0.00000000E+00  0.00000000E+00
                       3.33333333E-01  0.00000000E+00  0.00000000E+00
                       4.16666667E-01  0.00000000E+00  0.00000000E+00
                       5.00000000E-01  0.00000000E+00  0.00000000E+00
                       8.33333333E-02  8.33333333E-02  0.00000000E+00
                       1.66666667E-01  8.33333333E-02  0.00000000E+00
                       2.50000000E-01  8.33333333E-02  0.00000000E+00
                       3.33333333E-01  8.33333333E-02  0.00000000E+00
                       4.16666667E-01  8.33333333E-02  0.00000000E+00
                       5.00000000E-01  8.33333333E-02  0.00000000E+00
                      -4.16666667E-01  8.33333333E-02  0.00000000E+00
                      -3.33333333E-01  8.33333333E-02  0.00000000E+00
                      -2.50000000E-01  8.33333333E-02  0.00000000E+00
                      -1.66666667E-01  8.33333333E-02  0.00000000E+00
                      -8.33333333E-02  8.33333333E-02  0.00000000E+00
                       1.66666667E-01  1.66666667E-01  0.00000000E+00
                       2.50000000E-01  1.66666667E-01  0.00000000E+00
                       3.33333333E-01  1.66666667E-01  0.00000000E+00
                       4.16666667E-01  1.66666667E-01  0.00000000E+00
                       5.00000000E-01  1.66666667E-01  0.00000000E+00
                      -4.16666667E-01  1.66666667E-01  0.00000000E+00
                      -3.33333333E-01  1.66666667E-01  0.00000000E+00
                      -2.50000000E-01  1.66666667E-01  0.00000000E+00
                      -1.66666667E-01  1.66666667E-01  0.00000000E+00
                       2.50000000E-01  2.50000000E-01  0.00000000E+00
                       3.33333333E-01  2.50000000E-01  0.00000000E+00
                       4.16666667E-01  2.50000000E-01  0.00000000E+00
                       5.00000000E-01  2.50000000E-01  0.00000000E+00
                      -4.16666667E-01  2.50000000E-01  0.00000000E+00
                      -3.33333333E-01  2.50000000E-01  0.00000000E+00
                      -2.50000000E-01  2.50000000E-01  0.00000000E+00
                       3.33333333E-01  3.33333333E-01  0.00000000E+00
                       4.16666667E-01  3.33333333E-01  0.00000000E+00
                       5.00000000E-01  3.33333333E-01  0.00000000E+00
                      -4.16666667E-01  3.33333333E-01  0.00000000E+00
                      -3.33333333E-01  3.33333333E-01  0.00000000E+00
                       4.16666667E-01  4.16666667E-01  0.00000000E+00
                       5.00000000E-01  4.16666667E-01  0.00000000E+00
                      -4.16666667E-01  4.16666667E-01  0.00000000E+00
                       5.00000000E-01  5.00000000E-01  0.00000000E+00
                       8.33333333E-02  0.00000000E+00  8.33333333E-02
                       1.66666667E-01  0.00000000E+00  8.33333333E-02
                       2.50000000E-01  0.00000000E+00  8.33333333E-02
                       3.33333333E-01  0.00000000E+00  8.33333333E-02
                       4.16666667E-01  0.00000000E+00  8.33333333E-02
                       5.00000000E-01  0.00000000E+00  8.33333333E-02
                      -4.16666667E-01  0.00000000E+00  8.33333333E-02
                       outvar_i_n : Printing only first  50 k-points.
         kptrlatt       12    0    0      0   12    0      0    0   12
          kptrlen1     1.75259105E+02
          kptrlen2     1.75083380E+02
          kptrlen3     1.74907744E+02
          kptrlen4     1.74731869E+02
          kptrlen5     1.74556244E+02
          kptrlen6     1.74381062E+02
          kptrlen7     1.74205942E+02
          kptrlen8     1.74030937E+02
          kptrlen9     1.73867045E+02
          kptrlen10    1.73698537E+02
P           mkmem          28
            natom           9
            nband          42
           ndtset          10
            ngfft          64      64      64
          ngfftdg          96      96      96
             nkpt         163
            nstep        2500
             nsym          16
           ntypat           4
              occ      2.000000  2.000000  2.000000  2.000000  2.000000  2.000000
                       2.000000  2.000000  2.000000  2.000000  2.000000  2.000000
                       2.000000  2.000000  2.000000  2.000000  2.000000  2.000000
                       2.000000  2.000000  2.000000  2.000000  2.000000  2.000000
                       2.000000  2.000000  2.000000  2.000000  2.000000  2.000000
                       2.000000  2.000000  2.000000  2.000000  2.000000  2.000000
                       0.000000  0.000000  0.000000  0.000000  0.000000  0.000000
        pawecutdg      4.00000000E+01 Hartree
            prtwf           0
            rprim1     0.0000000000E+00  7.0469897013E-01  7.0950642104E-01
                       7.0710678119E-01  0.0000000000E+00  7.0710678119E-01
                       7.0950642104E-01  7.0469897013E-01  0.0000000000E+00
            rprim2     0.0000000000E+00  7.0469535876E-01  7.0951000792E-01
                       7.0710678119E-01  0.0000000000E+00  7.0710678119E-01
                       7.0951000792E-01  7.0469535876E-01  0.0000000000E+00
            rprim3     0.0000000000E+00  7.0469285641E-01  7.0951249328E-01
                       7.0710678119E-01  0.0000000000E+00  7.0710678119E-01
                       7.0951249328E-01  7.0469285641E-01  0.0000000000E+00
            rprim4     0.0000000000E+00  7.0468737459E-01  7.0951793782E-01
                       7.0710678119E-01  0.0000000000E+00  7.0710678119E-01
                       7.0951793782E-01  7.0468737459E-01  0.0000000000E+00
            rprim5     0.0000000000E+00  7.0468498446E-01  7.0952031167E-01
                       7.0710678119E-01  0.0000000000E+00  7.0710678119E-01
                       7.0952031167E-01  7.0468498446E-01  0.0000000000E+00
            rprim6     0.0000000000E+00  7.0468812518E-01  7.0951719234E-01
                       7.0710678119E-01  0.0000000000E+00  7.0710678119E-01
                       7.0951719234E-01  7.0468812518E-01  0.0000000000E+00
            rprim7     0.0000000000E+00  7.0469203493E-01  7.0951330918E-01
                       7.0710678119E-01  0.0000000000E+00  7.0710678119E-01
                       7.0951330918E-01  7.0469203493E-01  0.0000000000E+00
            rprim8     0.0000000000E+00  7.0469738977E-01  7.0950799069E-01
[...]
                       3.9575375557E-21 -5.6656476279E-21  3.3905003541E-21
           xangst7     2.7252942532E+00  2.7067753745E+00  2.7252942532E+00
                       8.1758827596E+00  8.1203261234E+00  8.1758827596E+00
                       5.4505885065E+00  7.9846166513E+00  5.4505885065E+00
                       5.4505885065E+00  5.4135507489E+00  2.6028815237E+00
                       5.4505885063E+00  5.4135507489E+00  8.2982954891E+00
                       5.4505885063E+00  2.8424848466E+00  5.4505885063E+00
                       8.2982954891E+00  5.4135507489E+00  5.4505885063E+00
                       2.6028815237E+00  5.4135507489E+00  5.4505885065E+00
                       3.9535416053E-21 -5.6599893675E-21  3.3870769447E-21
           xangst8     2.7225360486E+00  2.7040767297E+00  2.7225360486E+00
                       8.1676081459E+00  8.1122301891E+00  8.1676081459E+00
                       5.4450720974E+00  7.9747978320E+00  5.4450720974E+00
                       5.4450720975E+00  5.4081534594E+00  2.6024237413E+00
                       5.4450720971E+00  5.4081534594E+00  8.2877204532E+00
                       5.4450720971E+00  2.8415090868E+00  5.4450720971E+00
                       8.2877204532E+00  5.4081534594E+00  5.4450720971E+00
                       2.6024237413E+00  5.4081534594E+00  5.4450720975E+00
                       3.9495403211E-21 -5.6543463796E-21  3.3836489657E-21
           xangst9     2.7194231491E+00  2.7020828137E+00  2.7194231491E+00
                       8.1582694474E+00  8.1062484412E+00  8.1582694474E+00
                       5.4388462984E+00  7.9677831736E+00  5.4388462984E+00
                       5.4388462984E+00  5.4041656275E+00  2.6019065566E+00
                       5.4388462982E+00  5.4041656275E+00  8.2757860400E+00
                       5.4388462982E+00  2.8405480813E+00  5.4388462982E+00
                       8.2757860400E+00  5.4041656275E+00  5.4388462982E+00
                       2.6019065566E+00  5.4041656275E+00  5.4388462984E+00
                       3.9450244869E-21 -5.6501770114E-21  3.3797801617E-21
           xangst10    2.7164578463E+00  2.6997957893E+00  2.7164578463E+00
                       8.1493735390E+00  8.0993873680E+00  8.1493735390E+00
                       5.4329156928E+00  7.9596342289E+00  5.4329156928E+00
                       5.4329156928E+00  5.3995915787E+00  2.6014171980E+00
                       5.4329156926E+00  5.3995915787E+00  8.2644141873E+00
                       5.4329156926E+00  2.8395489285E+00  5.4329156926E+00
                       8.2644141873E+00  5.3995915787E+00  5.4329156926E+00
                       2.6014171980E+00  5.3995915787E+00  5.4329156928E+00
                       3.7832463392E-21 -5.8024930616E-21  2.9449727216E-21
            xcart1     5.1811441926E+00  5.1460379617E+00  5.1811441926E+00
                       1.5543432578E+01  1.5438113885E+01  1.5543432578E+01
                       1.0362288385E+01  1.5201619564E+01  1.0362288385E+01
                       1.0362288385E+01  1.0292075923E+01  4.9235911690E+00
                       1.0362288385E+01  1.0292075923E+01  1.5800985601E+01
                       1.0362288385E+01  5.3825322824E+00  1.0362288385E+01
                       1.5800985601E+01  1.0292075923E+01  1.0362288385E+01
                       4.9235911690E+00  1.0292075923E+01  1.0362288385E+01
                       7.5162045731E-21 -1.0760597434E-20  6.4392804637E-21
            xcart2     5.1759754262E+00  5.1408518826E+00  5.1759754262E+00
                       1.5527926279E+01  1.5422555648E+01  1.5527926279E+01
                       1.0351950852E+01  1.5182540413E+01  1.0351950852E+01
                       1.0351950852E+01  1.0281703765E+01  4.9228273511E+00
                       1.0351950852E+01  1.0281703765E+01  1.5781074354E+01
                       1.0351950852E+01  5.3808671178E+00  1.0351950852E+01
                       1.5781074354E+01  1.0281703765E+01  1.0351950852E+01
                       4.9228273511E+00  1.0281703765E+01  1.0351950852E+01
                       7.5087063250E-21 -1.0749753108E-20  6.4328565670E-21
            xcart3     5.1708012361E+00  5.1356765775E+00  5.1708012361E+00
                       1.5512403708E+01  1.5407029733E+01  1.5512403708E+01
                       1.0341602472E+01  1.5163620504E+01  1.0341602472E+01
                       1.0341602472E+01  1.0271353155E+01  4.9220566216E+00
                       1.0341602472E+01  1.0271353155E+01  1.5761148323E+01
                       1.0341602472E+01  5.3790858063E+00  1.0341602472E+01
                       1.5761148323E+01  1.0271353155E+01  1.0341602472E+01
                       4.9220566216E+00  1.0271353155E+01  1.0341602472E+01
                       7.5012002082E-21 -1.0738931312E-20  6.4264259287E-21
            xcart4     5.1656414831E+00  5.1304725940E+00  5.1656414831E+00
                       1.5496924449E+01  1.5391417782E+01  1.5496924449E+01
                       1.0331282966E+01  1.5144625060E+01  1.0331282966E+01
                       1.0331282966E+01  1.0260945188E+01  4.9212460800E+00
                       1.0331282966E+01  1.0260945188E+01  1.5741319853E+01
                       1.0331282966E+01  5.3772653157E+00  1.0331282966E+01
                       1.5741319853E+01  1.0260945188E+01  1.0331282966E+01
                       4.9212460800E+00  1.0260945188E+01  1.0331282966E+01
                       7.4937150358E-21 -1.0728049548E-20  6.4200132342E-21
            xcart5     5.1604666858E+00  5.1252984961E+00  5.1604666858E+00
                       1.5481400057E+01  1.5375895488E+01  1.5481400057E+01
                       1.0320933372E+01  1.5125786820E+01  1.0320933372E+01
                       1.0320933372E+01  1.0250596992E+01  4.9204645017E+00
                       1.0320933371E+01  1.0250596992E+01  1.5721402242E+01
                       1.0320933371E+01  5.3754071650E+00  1.0320933371E+01
                       1.5721402242E+01  1.0250596992E+01  1.0320933371E+01
                       4.9204645017E+00  1.0250596992E+01  1.0320933372E+01
                       7.4862080387E-21 -1.0717230276E-20  6.4135818420E-21
            xcart6     5.1552650733E+00  5.1201776627E+00  5.1552650733E+00
                       1.5465795220E+01  1.5360532988E+01  1.5465795220E+01
                       1.0310530147E+01  1.5107208768E+01  1.0310530147E+01
                       1.0310530147E+01  1.0240355325E+01  4.9196858246E+00
                       1.0310530146E+01  1.0240355325E+01  1.5701374469E+01
                       1.0310530146E+01  5.3735018826E+00  1.0310530146E+01
                       1.5701374469E+01  1.0240355325E+01  1.0310530146E+01
                       4.9196858246E+00  1.0240355325E+01  1.0310530147E+01
                       7.4786621408E-21 -1.0706522382E-20  6.4071171227E-21
            xcart7     5.1500597701E+00  5.1150641610E+00  5.1500597701E+00
                       1.5450179310E+01  1.5345192483E+01  1.5450179310E+01
                       1.0300119540E+01  1.5088738747E+01  1.0300119540E+01
                       1.0300119540E+01  1.0230128322E+01  4.9187332361E+00
                       1.0300119540E+01  1.0230128322E+01  1.5681505844E+01
                       1.0300119540E+01  5.3715178969E+00  1.0300119540E+01
                       1.5681505844E+01  1.0230128322E+01  1.0300119540E+01
                       4.9187332361E+00  1.0230128322E+01  1.0300119540E+01
                       7.4711108890E-21 -1.0695829820E-20  6.4006478166E-21
            xcart8     5.1448475188E+00  5.1099644614E+00  5.1448475188E+00
                       1.5434542557E+01  1.5329893384E+01  1.5434542557E+01
                       1.0289695038E+01  1.5070183868E+01  1.0289695038E+01
                       1.0289695038E+01  1.0219928923E+01  4.9178681528E+00
                       1.0289695037E+01  1.0219928923E+01  1.5661521923E+01
                       1.0289695037E+01  5.3696739781E+00  1.0289695037E+01
                       1.5661521923E+01  1.0219928923E+01  1.0289695037E+01
                       4.9178681528E+00  1.0219928923E+01  1.0289695038E+01
                       7.4635495577E-21 -1.0685166118E-20  6.3941698750E-21
            xcart9     5.1389649913E+00  5.1061965063E+00  5.1389649913E+00
                       1.5416894974E+01  1.5318589519E+01  1.5416894974E+01
                       1.0277929983E+01  1.5056928084E+01  1.0277929983E+01
                       1.0277929983E+01  1.0212393013E+01  4.9168908154E+00
                       1.0277929982E+01  1.0212393013E+01  1.5638969150E+01
                       1.0277929982E+01  5.3678579409E+00  1.0277929982E+01
                       1.5638969150E+01  1.0212393013E+01  1.0277929982E+01
                       4.9168908154E+00  1.0212393013E+01  1.0277929983E+01
                       7.4550158678E-21 -1.0677287154E-20  6.3868588950E-21
            xcart10    5.1333613811E+00  5.1018746566E+00  5.1333613811E+00
                       1.5400084143E+01  1.5305623970E+01  1.5400084143E+01
                       1.0266722762E+01  1.5041528810E+01  1.0266722762E+01
                       1.0266722762E+01  1.0203749313E+01  4.9159660617E+00
                       1.0266722762E+01  1.0203749313E+01  1.5617479463E+01
                       1.0266722762E+01  5.3659698158E+00  1.0266722762E+01
                       1.5617479463E+01  1.0203749313E+01  1.0266722762E+01
                       4.9159660617E+00  1.0203749313E+01  1.0266722762E+01
                       7.1492994744E-21 -1.0965122774E-20  5.5651919127E-21
             xred1     2.5000000000E-01  2.5000000000E-01  2.5000000000E-01
                       7.5000000000E-01  7.5000000000E-01  7.5000000000E-01
                       7.3851085425E-01  2.6148914575E-01  7.3851085425E-01
                       2.3757257982E-01  2.3757257982E-01  7.6242742018E-01
                       7.6242742018E-01  7.6242742018E-01  2.3757257982E-01
                       2.6148914575E-01  7.3851085425E-01  2.6148914575E-01
                       2.3757257982E-01  7.6242742018E-01  7.6242742018E-01
                       7.6242742018E-01  2.3757257982E-01  2.3757257982E-01
                      -5.7472489725E-22  1.1961398034E-21 -4.7079764978E-22
             xred2     2.5000000000E-01  2.5000000000E-01  2.5000000000E-01
                       7.5000000000E-01  7.5000000000E-01  7.5000000000E-01
                       7.3832804170E-01  2.6167195830E-01  7.3832804170E-01
                       2.3777292905E-01  2.3777292905E-01  7.6222707095E-01
                       7.6222707095E-01  7.6222707095E-01  2.3777292905E-01
                       2.6167195830E-01  7.3832804170E-01  2.6167195830E-01
                       2.3777292905E-01  7.6222707095E-01  7.6222707095E-01
                       7.6222707095E-01  2.3777292905E-01  2.3777292905E-01
                      -5.7472489725E-22  1.1961398034E-21 -4.7079764978E-22
             xred3     2.5000000000E-01  2.5000000000E-01  2.5000000000E-01
                       7.5000000000E-01  7.5000000000E-01  7.5000000000E-01
                       7.3815106320E-01  2.6184893680E-01  7.3815106320E-01
                       2.3797359427E-01  2.3797359427E-01  7.6202640573E-01
                       7.6202640573E-01  7.6202640573E-01  2.3797359427E-01
                       2.6184893680E-01  7.3815106320E-01  2.6184893680E-01
                       2.3797359427E-01  7.6202640573E-01  7.6202640573E-01
                       7.6202640573E-01  2.3797359427E-01  2.3797359427E-01
                      -5.7472489725E-22  1.1961398034E-21 -4.7079764978E-22
             xred4     2.5000000000E-01  2.5000000000E-01  2.5000000000E-01
                       7.5000000000E-01  7.5000000000E-01  7.5000000000E-01
                       7.3797417211E-01  2.6202582789E-01  7.3797417211E-01
                       2.3817206905E-01  2.3817206905E-01  7.6182793095E-01
                       7.6182793095E-01  7.6182793095E-01  2.3817206905E-01
                       2.6202582789E-01  7.3797417211E-01  2.6202582789E-01
                       2.3817206905E-01  7.6182793095E-01  7.6182793095E-01
                       7.6182793095E-01  2.3817206905E-01  2.3817206905E-01
                      -5.7472489725E-22  1.1961398034E-21 -4.7079764978E-22
             xred5     2.5000000000E-01  2.5000000000E-01  2.5000000000E-01
                       7.5000000000E-01  7.5000000000E-01  7.5000000000E-01
                       7.3780028768E-01  2.6219971232E-01  7.3780028768E-01
                       2.3837303878E-01  2.3837303878E-01  7.6162696122E-01
                       7.6162696122E-01  7.6162696122E-01  2.3837303878E-01
                       2.6219971232E-01  7.3780028768E-01  2.6219971232E-01
                       2.3837303878E-01  7.6162696122E-01  7.6162696122E-01
                       7.6162696122E-01  2.3837303878E-01  2.3837303878E-01
                      -5.7472489725E-22  1.1961398034E-21 -4.7079764978E-22
             xred6     2.5000000000E-01  2.5000000000E-01  2.5000000000E-01
                       7.5000000000E-01  7.5000000000E-01  7.5000000000E-01
                       7.3763108252E-01  2.6236891748E-01  7.3763108252E-01
                       2.3857579361E-01  2.3857579361E-01  7.6142420639E-01
                       7.6142420639E-01  7.6142420639E-01  2.3857579361E-01
                       2.6236891748E-01  7.3763108252E-01  2.6236891748E-01
                       2.3857579361E-01  7.6142420639E-01  7.6142420639E-01
                       7.6142420639E-01  2.3857579361E-01  2.3857579361E-01
                      -5.7472489725E-22  1.1961398034E-21 -4.7079764978E-22
             xred7     2.5000000000E-01  2.5000000000E-01  2.5000000000E-01
                       7.5000000000E-01  7.5000000000E-01  7.5000000000E-01
                       7.3746576153E-01  2.6253423847E-01  7.3746576153E-01
                       2.3877068693E-01  2.3877068693E-01  7.6122931307E-01
                       7.6122931307E-01  7.6122931307E-01  2.3877068693E-01
                       2.6253423847E-01  7.3746576153E-01  2.6253423847E-01
                       2.3877068693E-01  7.6122931307E-01  7.6122931307E-01
                       7.6122931307E-01  2.3877068693E-01  2.3877068693E-01
                      -5.7472489725E-22  1.1961398034E-21 -4.7079764978E-22
             xred8     2.5000000000E-01  2.5000000000E-01  2.5000000000E-01
                       7.5000000000E-01  7.5000000000E-01  7.5000000000E-01
                       7.3729396659E-01  2.6270603341E-01  7.3729396659E-01
                       2.3897054941E-01  2.3897054941E-01  7.6102945059E-01
                       7.6102945059E-01  7.6102945059E-01  2.3897054941E-01
                       2.6270603341E-01  7.3729396659E-01  2.6270603341E-01
                       2.3897054941E-01  7.6102945059E-01  7.6102945059E-01
                       7.6102945059E-01  2.3897054941E-01  2.3897054941E-01
                      -5.7472489725E-22  1.1961398034E-21 -4.7079764978E-22
             xred9     2.5000000000E-01  2.5000000000E-01  2.5000000000E-01
                       7.5000000000E-01  7.5000000000E-01  7.5000000000E-01
                       7.3718902444E-01  2.6281097556E-01  7.3718902444E-01
                       2.3919655143E-01  2.3919655143E-01  7.6080344857E-01
                       7.6080344857E-01  7.6080344857E-01  2.3919655143E-01
                       2.6281097556E-01  7.3718902444E-01  2.6281097556E-01
                       2.3919655143E-01  7.6080344857E-01  7.6080344857E-01
                       7.6080344857E-01  2.3919655143E-01  2.3919655143E-01
                      -5.7472489725E-22  1.1961398034E-21 -4.7079764978E-22
             xred10    2.5000000000E-01  2.5000000000E-01  2.5000000000E-01
                       7.5000000000E-01  7.5000000000E-01  7.5000000000E-01
                       7.3705891574E-01  2.6294108426E-01  7.3705891574E-01
                       2.3941262346E-01  2.3941262346E-01  7.6058737654E-01
                       7.6058737654E-01  7.6058737654E-01  2.3941262346E-01
                       2.6294108426E-01  7.3705891574E-01  2.6294108426E-01
                       2.3941262346E-01  7.6058737654E-01  7.6058737654E-01
                       7.6058737654E-01  2.3941262346E-01  2.3941262346E-01
                      -6.1445618865E-22  1.1565173743E-21 -4.6016084063E-22
            znucl       55.00000   53.00000   72.00000   35.00000

- Timing analysis has been suppressed with timopt=0

 Suggested references for the acknowledgment of ABINIT usage.

 Calculation completed.
.Delivered   0 WARNINGs and  10 COMMENTs to log file.