.Version 9.2.2 of ABINIT

 ABINIT is a project of the Universite Catholique de Louvain,
 Corning Inc. and other collaborators, see ~abinit/doc/developers/contributors.txt .
 acknowledgments of the ABINIT effort.

.Starting date : Wed 14 Dec 2022.
- ( at 13h10 )

- The starting date is more than 2 years after the initial release
- of this version of ABINIT, namely Nov 2020.
- Note that the use beyond 3 years after the release will not be supported.
- Action: please, switch to a more recent version of ABINIT.

- input  file    -> Cs2TiI6.in
- output file    -> Cs2TiI6.out
- root for input  files -> Cs2TiI6i
- root for output files -> Cs2TiI6o

- inpspheads : Reading pseudopotential header in XML form from
-   ../../../Psps_for_tests/ATOMICDATA/Cs.GGA_PBE-JTH.xml
- inpspheads : Reading pseudopotential header in XML form from
-   ../../../Psps_for_tests/ATOMICDATA/I.GGA_PBE-JTH.xml
- inpspheads : Reading pseudopotential header in XML form from
-   ../../../Psps_for_tests/ATOMICDATA/Zr.GGA_PBE-JTH.xml
- inpspheads : Reading pseudopotential header in XML form from
-   ../../../Psps_for_tests/ATOMICDATA/Cl.GGA_PBE-JTH.xml

 DATASET    1 : space group Im m 2 (# 44); Bravais oI (body-center ortho.)
     intxc =       0    ionmov =       2      iscf =      17    lmnmax =      18
     lnmax =       6     mgfft =      64  mpssoang =       3    mqgrid =    3850
     natom =       9  nloc_mem =       2    nspden =       1   nspinor =       1
    nsppol =       1      nsym =       4    n1xccc =       1    ntypat =       4
    occopt =       1   xclevel =       2
-    mband =          42        mffmem =           1         mkmem =           7
       mpw =        9575          nfft =      262144          nkpt =          40
Pmy_natom=         2
 PAW method is used; the additional fine FFT grid is defined by:
   mgfftf=        96    nfftf =    884736
  Rough estimation (10% accuracy) of disk space for files :

[...]

 DATASET   10 : space group Im m 2 (# 44); Bravais oI (body-center ortho.)
     intxc =       0    ionmov =       2      iscf =      17    lmnmax =      18
     lnmax =       6     mgfft =      60  mpssoang =       3    mqgrid =    3815
     natom =       9  nloc_mem =       2    nspden =       1   nspinor =       1
    nsppol =       1      nsym =       4    n1xccc =       1    ntypat =       4
    occopt =       1   xclevel =       2
-    mband =          42        mffmem =           1         mkmem =           7
       mpw =        9290          nfft =      216000          nkpt =          40
Pmy_natom=         2
 PAW method is used; the additional fine FFT grid is defined by:
   mgfftf=        96    nfftf =    884736
  Rough estimation (10% accuracy) of disk space for files :

------------- Echo of variables that govern the present computation ------------
-
- outvars: echo of selected default values
-   iomode0 =  0 , fftalg0 =112 , wfoptalg0 = 10
-
- outvars: echo of global parameters not present in the input file
-  max_nthreads =    0
-
 -outvars: echo values of preprocessed input variables --------
            acell1     1.4227877532E+01  1.4532954246E+01  1.4227877532E+01 Bohr
            acell2     1.4213635413E+01  1.4518406745E+01  1.4213635413E+01 Bohr
            acell3     1.4199393293E+01  1.4503859243E+01  1.4199393293E+01 Bohr
            acell4     1.4185151173E+01  1.4489311741E+01  1.4185151173E+01 Bohr
            acell5     1.4170909054E+01  1.4474764239E+01  1.4170909054E+01 Bohr
            acell6     1.4156666934E+01  1.4460216738E+01  1.4156666934E+01 Bohr
            acell7     1.4142424814E+01  1.4445669236E+01  1.4142424814E+01 Bohr
            acell8     1.4128182695E+01  1.4431121734E+01  1.4128182695E+01 Bohr
            acell9     1.4113940575E+01  1.4416574232E+01  1.4113940575E+01 Bohr
            acell10    1.4099698455E+01  1.4402026731E+01  1.4099698455E+01 Bohr
              amu      1.32905430E+02  1.26904470E+02  9.12240000E+01
                       3.54527000E+01
           diemac      1.20000000E+01
          dilatmx      1.15000000E+00
             ecut      1.60000000E+01 Hartree
           ecutsm      5.00000000E-01 Hartree
-          fftalg         112
           ionmov           2
              ixc     -101130
           jdtset        1    2    3    4    5    6    7    8    9   10
              kpt      0.00000000E+00 -1.25000000E-01  0.00000000E+00
                       0.00000000E+00 -3.75000000E-01  0.00000000E+00
                       1.25000000E-01 -2.50000000E-01  0.00000000E+00
                       2.50000000E-01 -1.25000000E-01  0.00000000E+00
                       1.25000000E-01 -1.25000000E-01  1.25000000E-01
                       1.25000000E-01  5.00000000E-01  0.00000000E+00
                       2.50000000E-01 -3.75000000E-01  0.00000000E+00
                       3.75000000E-01 -2.50000000E-01  0.00000000E+00
                       5.00000000E-01 -1.25000000E-01  0.00000000E+00
                       1.25000000E-01 -3.75000000E-01  1.25000000E-01
                       2.50000000E-01 -2.50000000E-01  1.25000000E-01
                       3.75000000E-01 -1.25000000E-01  1.25000000E-01
                       2.50000000E-01 -1.25000000E-01  2.50000000E-01
                       1.25000000E-01  2.50000000E-01  0.00000000E+00
                       2.50000000E-01  3.75000000E-01  0.00000000E+00
                       3.75000000E-01  5.00000000E-01  0.00000000E+00
                       5.00000000E-01 -3.75000000E-01  0.00000000E+00
                      -3.75000000E-01 -2.50000000E-01  0.00000000E+00
                      -2.50000000E-01 -1.25000000E-01  0.00000000E+00
                       1.25000000E-01  3.75000000E-01  1.25000000E-01
                       2.50000000E-01  5.00000000E-01  1.25000000E-01
                       3.75000000E-01 -3.75000000E-01  1.25000000E-01
                       5.00000000E-01 -2.50000000E-01  1.25000000E-01
                      -3.75000000E-01 -1.25000000E-01  1.25000000E-01
                       2.50000000E-01 -3.75000000E-01  2.50000000E-01
                       3.75000000E-01 -2.50000000E-01  2.50000000E-01
                       5.00000000E-01 -1.25000000E-01  2.50000000E-01
                       3.75000000E-01 -1.25000000E-01  3.75000000E-01
                       1.25000000E-01  0.00000000E+00  0.00000000E+00
                       3.75000000E-01  0.00000000E+00  0.00000000E+00
                       2.50000000E-01  0.00000000E+00  1.25000000E-01
                       5.00000000E-01  2.50000000E-01  1.25000000E-01
                      -3.75000000E-01  3.75000000E-01  1.25000000E-01
                      -2.50000000E-01  5.00000000E-01  1.25000000E-01
                      -1.25000000E-01 -3.75000000E-01  1.25000000E-01
                       5.00000000E-01  0.00000000E+00  1.25000000E-01
                       3.75000000E-01  0.00000000E+00  2.50000000E-01
                      -2.50000000E-01  0.00000000E+00  1.25000000E-01
                      -3.75000000E-01  0.00000000E+00  2.50000000E-01
                       5.00000000E-01  0.00000000E+00  3.75000000E-01
         kptrlatt        4    4   -4     -4    4    4      4   -4    4
          kptrlen1     7.99902442E+01
          kptrlen2     7.99101739E+01
          kptrlen3     7.98301036E+01
          kptrlen4     7.97500333E+01
          kptrlen5     7.96699630E+01
          kptrlen6     7.95898927E+01
          kptrlen7     7.95098223E+01
          kptrlen8     7.94297520E+01
          kptrlen9     7.93496817E+01
          kptrlen10    7.92696114E+01
P           mkmem           7
            natom           9
            nband          42
           ndtset          10
            ngfft1         64      64      64
            ngfft2         64      64      64
            ngfft3         64      64      64
            ngfft4         64      64      64
            ngfft5         60      60      60
            ngfft6         60      60      60
            ngfft7         60      60      60
            ngfft8         60      60      60
            ngfft9         60      60      60
            ngfft10        60      60      60
          ngfftdg          96      96      96
             nkpt          40
            nstep        2500
             nsym           4
            ntime        1000
           ntypat           4
              occ      2.000000  2.000000  2.000000  2.000000  2.000000  2.000000
                       2.000000  2.000000  2.000000  2.000000  2.000000  2.000000
                       2.000000  2.000000  2.000000  2.000000  2.000000  2.000000
                       2.000000  2.000000  2.000000  2.000000  2.000000  2.000000
                       2.000000  2.000000  2.000000  2.000000  2.000000  2.000000
                       2.000000  2.000000  2.000000  2.000000  2.000000  2.000000
                       0.000000  0.000000  0.000000  0.000000  0.000000  0.000000
          optcell           3
        optforces           1
        pawecutdg      4.00000000E+01 Hartree
            prtwf           0
            rprim      1.0925397199E-02  7.0275981127E-01  7.1134329501E-01
                       7.0710678119E-01  0.0000000000E+00  7.0710678119E-01
                       7.1134329501E-01  7.0275981127E-01  1.0925397199E-02
           shiftk     -5.00000000E-01  5.00000000E-01  5.00000000E-01
          spgroup          44
           symrel      1  0  0   0  1  0   0  0  1       0  1 -1   0  1  0  -1  1  0
                       0  0 -1   0 -1  0  -1  0  0       1 -1  0   0 -1  0   0 -1  1
           toldff      1.00000000E-08
           tolmxf      1.00000000E-05
            typat      1  1  2  4  2  4  4  4  3
           useylm           1
              wtk        0.01563    0.01563    0.03125    0.03125    0.01563    0.03125
                         0.03125    0.03125    0.03125    0.01563    0.03125    0.03125
                         0.01563    0.03125    0.03125    0.03125    0.03125    0.03125
                         0.03125    0.01563    0.03125    0.03125    0.03125    0.03125
                         0.01563    0.03125    0.03125    0.01563    0.01563    0.01563
                         0.01563    0.03125    0.03125    0.03125    0.03125    0.01563
                         0.01563    0.01563    0.01563    0.01563
           xangst1     2.7742260108E+00  2.5640969459E+00  2.6637844603E+00
                       8.2122364820E+00  8.0181565938E+00  8.1017949314E+00
                       5.3478772215E+00  5.2911267699E+00  2.8678977488E+00
                       5.5121105641E+00  5.2911267699E+00  8.2539750002E+00
                       8.0081231935E+00  5.2911267699E+00  5.5281437208E+00
                       5.4698052303E+00  8.1239041815E+00  5.4062157119E+00
                       5.4698052303E+00  2.4583493582E+00  5.4062157120E+00
                       2.6220459421E+00  5.2911267699E+00  5.3639103782E+00
                       8.7853894549E-02 -4.3632114305E-18 -8.7853894549E-02
           xangst2     2.7714490078E+00  2.5615302823E+00  2.6611180094E+00
                       8.2040160250E+00  8.0101304111E+00  8.0936850266E+00
                       5.3425239910E+00  5.2858303467E+00  2.8650269802E+00
[...]
                       8.8692364759E-02  2.0486041798E-17 -8.8692364759E-02
           xangst7     2.7562594022E+00  2.5470120301E+00  2.6474845958E+00
                       8.1600034002E+00  7.9691608993E+00  8.0512285938E+00
                       5.3135159892E+00  5.2580864647E+00  2.8588146483E+00
                       5.4729790833E+00  5.2580864647E+00  8.1860452006E+00
                       7.9486733477E+00  5.2580864647E+00  5.4939720068E+00
                       5.4340926990E+00  8.0572485867E+00  5.3733952970E+00
                       5.4340926990E+00  2.4589243427E+00  5.3733952970E+00
                       2.6214427954E+00  5.2580864647E+00  5.3345089127E+00
                       8.8892568097E-02  2.1393945135E-17 -8.8892568097E-02
           xangst8     2.7530873378E+00  2.5441630966E+00  2.6447857810E+00
                       8.1509604566E+00  7.9611909258E+00  8.0426588998E+00
                       5.3074670553E+00  5.2526770112E+00  2.8568214578E+00
                       5.4660478086E+00  5.2526770112E+00  8.1749022385E+00
                       7.9389247798E+00  5.2526770112E+00  5.4882791823E+00
                       5.4282795595E+00  8.0467773508E+00  5.3674666781E+00
                       5.4282795595E+00  2.4585766717E+00  5.3674666781E+00
                       2.6208439990E+00  5.2526770112E+00  5.3296984289E+00
                       8.9094394249E-02  1.4269547120E-18 -8.9094394249E-02
           xangst9     2.7495950132E+00  2.5423079529E+00  2.6419791295E+00
                       8.1411691559E+00  7.9529647616E+00  8.0335532723E+00
                       5.3015483582E+00  5.2476363573E+00  2.8545070117E+00
                       5.4583963843E+00  5.2476363573E+00  8.1630634498E+00
                       7.9286412737E+00  5.2476363573E+00  5.4815999273E+00
                       5.4219043214E+00  8.0369770132E+00  5.3612439641E+00
                       5.4219043214E+00  2.4582957013E+00  5.3612439641E+00
                       2.6200848357E+00  5.2476363573E+00  5.3247519012E+00
                       8.9349478095E-02  4.4083222381E-18 -8.9349478095E-02
           xangst10    2.7463084626E+00  2.5398624037E+00  2.6393005116E+00
                       8.1319174369E+00  7.9445071094E+00  8.0249094858E+00
                       5.2957301393E+00  5.2421847565E+00  2.8523429507E+00
                       5.4511605483E+00  5.2421847565E+00  8.1517787828E+00
                       7.9188749978E+00  5.2421847565E+00  5.4754878092E+00
                       5.4159093905E+00  8.0264239274E+00  5.3553085579E+00
                       5.4159093905E+00  2.4579455857E+00  5.3553085580E+00
                       2.6194391657E+00  5.2421847565E+00  5.3200574001E+00
                       8.9622262306E-02  6.4829068505E-18 -8.9622262306E-02
            xcart1     5.2421244760E+00  4.8452785886E+00  5.0334496934E+00
                       1.5517698645E+01  1.5152576389E+01  1.5309023863E+01
                       1.0105114461E+01  9.9989274886E+00  5.4219349738E+00
                       1.0414728387E+01  9.9989274886E+00  1.5592344453E+01
                       1.5129213365E+01  9.9989274886E+00  1.0446033877E+01
                       1.0335351342E+01  1.5348083080E+01  1.0215796997E+01
                       1.0335351342E+01  4.6497718974E+00  1.0215796997E+01
                       4.9588038854E+00  9.9989274886E+00  1.0136419952E+01
                       1.6620745145E-01  4.4966467861E-18 -1.6620745145E-01
            xcart2     5.2365704235E+00  4.8390961165E+00  5.0283271801E+00
                       1.5501468027E+01  1.5138260633E+01  1.5293224784E+01
                       1.0094095518E+01  9.9886783749E+00  5.4185716269E+00
                       1.0402634748E+01  9.9886783749E+00  1.5571718823E+01
                       1.5111223580E+01  9.9886783749E+00  1.0435699689E+01
                       1.0324228384E+01  1.5327915940E+01  1.0205566823E+01
                       1.0324228384E+01  4.6494408099E+00  1.0205566823E+01
                       4.9580763841E+00  9.9886783749E+00  1.0127160459E+01
                       1.6665537988E-01  1.0540128585E-17 -1.6665537988E-01
            xcart3     5.2309644739E+00  4.8353864239E+00  5.0231709220E+00
                       1.5485099870E+01  1.5121510084E+01  1.5277306318E+01
                       1.0083628851E+01  9.9784482538E+00  5.4154641796E+00
                       1.0390779307E+01  9.9784482538E+00  1.5551130985E+01
                       1.5092806612E+01  9.9784482538E+00  1.0424641941E+01
                       1.0312929607E+01  1.5307945207E+01  1.0195341184E+01
                       1.0312929608E+01  4.6489513008E+00  1.0195341184E+01
                       4.9571398063E+00  9.9784482538E+00  1.0117491485E+01
                       1.6680503232E-01 -7.2699171779E-17 -1.6680503232E-01
            xcart4     5.2254197054E+00  4.8303043027E+00  5.0180319954E+00
                       1.5468871406E+01  1.5105523327E+01  1.5261483696E+01
                       1.0073109529E+01  9.9679138147E+00  5.4121578218E+00
                       1.0378742271E+01  9.9679138147E+00  1.5530774030E+01
                       1.5074745580E+01  9.9679138147E+00  1.0413793873E+01
                       1.0301736462E+01  1.5287546498E+01  1.0185166939E+01
                       1.0301736462E+01  4.6482811309E+00  1.0185166940E+01
                       4.9561293714E+00  9.9679138147E+00  1.0108161130E+01
                       1.6712281892E-01  4.9171861217E-18 -1.6712281892E-01
            xcart5     5.2199570444E+00  4.8242695440E+00  5.0130734453E+00
                       1.5452987534E+01  1.5089981928E+01  1.5246103935E+01
                       1.0062761722E+01  9.9571257359E+00  5.4090929429E+00
                       1.0366828446E+01  9.9571257359E+00  1.5510649163E+01
                       1.5056968037E+01  9.9571257359E+00  1.0403299257E+01
                       1.0290999685E+01  1.5266575165E+01  1.0175061294E+01
                       1.0290999685E+01  4.6476763063E+00  1.0175061294E+01
                       4.9554118169E+00  9.9571257359E+00  1.0099232534E+01
                       1.6732994714E-01 -3.8947793797E-17 -1.6732994714E-01
            xcart6     5.2145061926E+00  4.8179529903E+00  5.0080774248E+00
                       1.5437089810E+01  1.5075161062E+01  1.5230661042E+01
                       1.0051862089E+01  9.9465570261E+00  5.4059785992E+00
                       1.0355087513E+01  9.9465570261E+00  1.5490415600E+01
                       1.5039188636E+01  9.9465570261E+00  1.0393305146E+01
                       1.0280289392E+01  1.5245857763E+01  1.0164877842E+01
                       1.0280289392E+01  4.6472562895E+00  1.0164877842E+01
                       4.9547516349E+00  9.9465570261E+00  1.0090079722E+01
                       1.6760427947E-01  3.8713008545E-17 -1.6760427947E-01
            xcart7     5.2085754213E+00  4.8131551940E+00  5.0030208272E+00
                       1.5420171670E+01  1.5059531609E+01  1.5214617076E+01
                       1.0041090022E+01  9.9363434012E+00  5.4023767500E+00
                       1.0342431599E+01  9.9363434012E+00  1.5469383541E+01
                       1.5020815747E+01  9.9363434012E+00  1.0382102475E+01
                       1.0268946982E+01  1.5225993213E+01  1.0154245515E+01
                       1.0268946982E+01  4.6466935891E+00  1.0154245515E+01
                       4.9538089563E+00  9.9363434012E+00  1.0080760898E+01
                       1.6798260895E-01  4.0428697208E-17 -1.6798260895E-01
            xcart8     5.2025810883E+00  4.8077714900E+00  4.9979208063E+00
                       1.5403082983E+01  1.5044470541E+01  1.5198422701E+01
                       1.0029659194E+01  9.9261210157E+00  5.3986101658E+00
                       1.0329333388E+01  9.9261210157E+00  1.5448326394E+01
                       1.5002393623E+01  9.9261210157E+00  1.0371344595E+01
                       1.0257961740E+01  1.5206205445E+01  1.0143042049E+01
                       1.0257961740E+01  4.6460365861E+00  1.0143042049E+01
                       4.9526773952E+00  9.9261210157E+00  1.0071670402E+01
                       1.6836400511E-01  2.6965536097E-18 -1.6836400511E-01
            xcart9     5.1959815513E+00  4.8042657764E+00  4.9926170036E+00
                       1.5384580106E+01  1.5028925344E+01  1.5181215559E+01
                       1.0018474477E+01  9.9165955602E+00  5.3942364966E+00
                       1.0314874291E+01  9.9165955602E+00  1.5425954325E+01
                       1.4982960613E+01  9.9165955602E+00  1.0358722633E+01
                       1.0245914286E+01  1.5187685491E+01  1.0131282824E+01
                       1.0245914286E+01  4.6455056292E+00  1.0131282824E+01
                       4.9512427844E+00  9.9165955602E+00  1.0062322819E+01
                       1.6884604372E-01  8.3305217356E-18 -1.6884604372E-01
            xcart10    5.1897708708E+00  4.7996443582E+00  4.9875551493E+00
                       1.5367096891E+01  1.5012942698E+01  1.5164881169E+01
                       1.0007479637E+01  9.9062935279E+00  5.3901470138E+00
                       1.0301200543E+01  9.9062935279E+00  1.5404629395E+01
                       1.4964505026E+01  9.9062935279E+00  1.0347172403E+01
                       1.0234585509E+01  1.5167743049E+01  1.0120066532E+01
                       1.0234585509E+01  4.6448440065E+00  1.0120066532E+01
                       4.9500226449E+00  9.9062935279E+00  1.0053451497E+01
                       1.6936153117E-01  1.2250918493E-17 -1.6936153117E-01
             xred1     2.3182065028E-01  2.5771008470E-01  2.5275918032E-01
                       7.4724081968E-01  7.4228991530E-01  7.6817934972E-01
                       2.6504373661E-01  2.5553196246E-01  7.3495626339E-01
                       7.5976226780E-01  7.6548027447E-01  2.4023773220E-01
                       2.6504373661E-01  7.4446803754E-01  7.3495626339E-01
                       7.6148839699E-01  2.3251353221E-01  7.7348453859E-01
                       2.2651546141E-01  7.6748646779E-01  2.3851160301E-01
                       7.5976226780E-01  2.3451972553E-01  2.4023773220E-01
                      -1.6677337199E-02  6.1032778462E-19  1.6677337199E-02
             xred2     2.3177161482E-01  2.5777095153E-01  2.5268648212E-01
                       7.4731351788E-01  7.4222904847E-01  7.6822838518E-01
                       2.6520736002E-01  2.5561723772E-01  7.3479263998E-01
                       7.5957794773E-01  7.6520276060E-01  2.4042205227E-01
                       2.6520736002E-01  7.4438276228E-01  7.3479263998E-01
                       7.6130559034E-01  2.3273553494E-01  7.7322333977E-01
                       2.2677666023E-01  7.6726446506E-01  2.3869440966E-01
                       7.5957794773E-01  2.3479723940E-01  2.4042205227E-01
                      -1.6737998786E-02  6.5513903854E-19  1.6737998786E-02
             xred3     2.3184690150E-01  2.5770849831E-01  2.5273610188E-01
                       7.4726389812E-01  7.4229150169E-01  7.6815309850E-01
                       2.6535790853E-01  2.5574840942E-01  7.3464209147E-01
                       7.5938153339E-01  7.6494869096E-01  2.4061846661E-01
                       2.6535790853E-01  7.4425159058E-01  7.3464209147E-01
                       7.6113988652E-01  2.3294961213E-01  7.7296088921E-01
                       2.2703911079E-01  7.6705038787E-01  2.3886011348E-01
                       7.5938153339E-01  2.3505130904E-01  2.4061846661E-01
                      -1.6768680800E-02 -4.2413907294E-19  1.6768680800E-02
             xred4     2.3185892957E-01  2.5770736021E-01  2.5272635001E-01
                       7.4727364999E-01  7.4229263979E-01  7.6814107043E-01
                       2.6550674368E-01  2.5586178386E-01  7.3449325632E-01
                       7.5919957546E-01  7.6468679984E-01  2.4080042454E-01
                       2.6550674368E-01  7.4413821614E-01  7.3449325632E-01
                       7.6097318286E-01  2.3316218505E-01  7.7270244704E-01
                       2.2729755296E-01  7.6683781495E-01  2.3902681714E-01
                       7.5919957546E-01  2.3531320016E-01  2.4080042454E-01
                      -1.6815953683E-02  2.9143098877E-19  1.6815953683E-02
             xred5     2.3183426168E-01  2.5774788468E-01  2.5266996895E-01
                       7.4733003105E-01  7.4225211532E-01  7.6816573832E-01
                       2.6565933497E-01  2.5597618323E-01  7.3434066503E-01
                       7.5902281076E-01  7.6440928885E-01  2.4097718924E-01
                       2.6565933497E-01  7.4402381677E-01  7.3434066503E-01
                       7.6077735951E-01  2.3338443390E-01  7.7245377269E-01
                       2.2754622731E-01  7.6661556610E-01  2.3922264049E-01
                       7.5902281076E-01  2.3559071115E-01  2.4097718924E-01
                      -1.6852171030E-02 -1.2264684523E-19  1.6852171030E-02
             xred6     2.3178734050E-01  2.5780800444E-01  2.5259665062E-01
                       7.4740334938E-01  7.4219199556E-01  7.6821265950E-01
                       2.6583295210E-01  2.5606330387E-01  7.3416704790E-01
                       7.5883658530E-01  7.6413752532E-01  2.4116341470E-01
                       2.6583295210E-01  7.4393669613E-01  7.3416704790E-01
                       7.6057159442E-01  2.3361130275E-01  7.7220580009E-01
                       2.2779419991E-01  7.6638869725E-01  2.3942840558E-01
                       7.5883658530E-01  2.3586247468E-01  2.4116341470E-01
                      -1.6895559017E-02 -1.8833428201E-18  1.6895559017E-02
             xred7     2.3182942193E-01  2.5780048054E-01  2.5256961699E-01
                       7.4743038301E-01  7.4219951946E-01  7.6817057807E-01
                       2.6597988841E-01  2.5617300158E-01  7.3402011159E-01
                       7.5865143956E-01  7.6384820312E-01  2.4134856044E-01
                       2.6597988841E-01  7.4382699842E-01  7.3402011159E-01
                       7.6039026662E-01  2.3382311790E-01  7.7196349759E-01
                       2.2803650241E-01  7.6617688210E-01  2.3960973338E-01
                       7.5865143956E-01  2.3615179688E-01  2.4134856044E-01
                      -1.6949229919E-02 -1.1196199352E-18  1.6949229919E-02
             xred8     2.3184341719E-01  2.5782224081E-01  2.5251210118E-01
                       7.4748789882E-01  7.4217775919E-01  7.6815658281E-01
                       2.6615470289E-01  2.5625050213E-01  7.3384529711E-01
                       7.5848407849E-01  7.6354860025E-01  2.4151592151E-01
                       2.6615470289E-01  7.4374949787E-01  7.3384529711E-01
                       7.6016629309E-01  2.3403082527E-01  7.7177205636E-01
                       2.2822794364E-01  7.6596917473E-01  2.3983370691E-01
                       7.5848407849E-01  2.3645139975E-01  2.4151592151E-01
                      -1.7003115518E-02 -4.8959936323E-20  1.7003115518E-02
             xred9     2.3195548537E-01  2.5776637520E-01  2.5251176423E-01
                       7.4748823577E-01  7.4223362480E-01  7.6804451463E-01
                       2.6628884790E-01  2.5637051017E-01  7.3371115210E-01
                       7.5831637738E-01  7.6321733444E-01  2.4168362262E-01
                       2.6628884790E-01  7.4362948983E-01  7.3371115210E-01
                       7.5997761813E-01  2.3422885410E-01  7.7156467368E-01
                       2.2843532632E-01  7.6577114590E-01  2.4002238187E-01
                       7.5831637738E-01  2.3678266556E-01  2.4168362262E-01
                      -1.7067116169E-02  1.4538735708E-19  1.7067116169E-02
             xred10    2.3202317950E-01  2.5774772145E-01  2.5248137760E-01
                       7.4751862240E-01  7.4225227855E-01  7.6797682050E-01
                       2.6643184618E-01  2.5646720073E-01  7.3356815382E-01
                       7.5815737192E-01  7.6289704620E-01  2.4184262808E-01
                       2.6643184618E-01  7.4353279927E-01  7.3356815382E-01
                       7.5976800213E-01  2.3443904592E-01  7.7135390604E-01
                       2.2864609396E-01  7.6556095408E-01  2.4023199787E-01
                       7.5815737192E-01  2.3710295380E-01  2.4184262808E-01
                      -1.7134334211E-02 -7.6290908099E-19  1.7134334211E-02
            znucl       55.00000   53.00000   40.00000   17.00000

- Timing analysis has been suppressed with timopt=0

 Suggested references for the acknowledgment of ABINIT usage.

 Calculation completed.
.Delivered   0 WARNINGs and 208 COMMENTs to log file.