.Version 9.2.2 of ABINIT

 ABINIT is a project of the Universite Catholique de Louvain,
 Corning Inc. and other collaborators, see ~abinit/doc/developers/contributors.txt .
 acknowledgments of the ABINIT effort.

.Starting date : Thu 27 Oct 2022.
- ( at 16h44 )

- input  file    -> Cs2TiI6.in
- output file    -> Cs2TiI6.out
- root for input  files -> Cs2TiI6i
- root for output files -> Cs2TiI6o

- inpspheads : Reading pseudopotential header in XML form from
-   ../../../Psps_for_tests/ATOMICDATA/Cs.GGA_PBE-JTH.xml
- inpspheads : Reading pseudopotential header in XML form from
-   ../../../Psps_for_tests/ATOMICDATA/I.GGA_PBE-JTH.xml
- inpspheads : Reading pseudopotential header in XML form from
-   ../../../Psps_for_tests/ATOMICDATA/Hf.GGA_PBE-JTH.xml
- inpspheads : Reading pseudopotential header in XML form from
-   ../../../Psps_for_tests/ATOMICDATA/Cl.GGA_PBE-JTH.xml

 DATASET    1 : space group I4 m m (#107); Bravais tI (body-center tetrag.)
     intxc =       0    ionmov =       0      iscf =      17    lmnmax =      18
     lnmax =       6     mgfft =      60  mpssoang =       3    mqgrid =    3657
     natom =       9  nloc_mem =       2    nspden =       1   nspinor =       1
    nsppol =       1      nsym =       8    n1xccc =       1    ntypat =       4
    occopt =       1   xclevel =       2
-    mband =          42        mffmem =           1         mkmem =          28
       mpw =        8437          nfft =      216000          nkpt =         163
Pmy_natom=         2
 PAW method is used; the additional fine FFT grid is defined by:
   mgfftf=        96    nfftf =    884736
  Rough estimation (10% accuracy) of disk space for files :

[...]

 DATASET   10 : space group I4 m m (#107); Bravais tI (body-center tetrag.)
     intxc =       0    ionmov =       0      iscf =      17    lmnmax =      18
     lnmax =       6     mgfft =      54  mpssoang =       3    mqgrid =    3324
     natom =       9  nloc_mem =       2    nspden =       1   nspinor =       1
    nsppol =       1      nsym =       8    n1xccc =       1    ntypat =       4
    occopt =       1   xclevel =       2
-    mband =          42        mffmem =           1         mkmem =          28
       mpw =        6364          nfft =      157464          nkpt =         163
Pmy_natom=         2
 PAW method is used; the additional fine FFT grid is defined by:
   mgfftf=        90    nfftf =    729000
  Rough estimation (10% accuracy) of disk space for files :

------------- Echo of variables that govern the present computation ------------
-
- outvars: echo of selected default values
-   iomode0 =  0 , fftalg0 =112 , wfoptalg0 = 10
-
- outvars: echo of global parameters not present in the input file
-  max_nthreads =    0
-
 -outvars: echo values of preprocessed input variables --------
            acell1     1.5671682240E+01  1.5855459892E+01  1.5671682240E+01 Bohr
            acell2     1.5512180468E+01  1.5697923498E+01  1.5512180468E+01 Bohr
            acell3     1.5353137462E+01  1.5539389688E+01  1.5353137462E+01 Bohr
            acell4     1.5193105742E+01  1.5383021755E+01  1.5193105742E+01 Bohr
            acell5     1.5032113916E+01  1.5228775339E+01  1.5032113916E+01 Bohr
            acell6     1.4869087620E+01  1.5079059827E+01  1.4869087620E+01 Bohr
            acell7     1.4707047443E+01  1.4927227947E+01  1.4707047443E+01 Bohr
            acell8     1.4543229348E+01  1.4779454768E+01  1.4543229348E+01 Bohr
            acell9     1.4380173881E+01  1.4630075627E+01  1.4380173881E+01 Bohr
            acell10    1.4217816091E+01  1.4479199330E+01  1.4217816091E+01 Bohr
              amu      1.32905430E+02  1.26904470E+02  1.78490000E+02
                       3.54527000E+01
           diemac      1.20000000E+01
             ecut      1.60000000E+01 Hartree
-          fftalg         112
           istwfk        2    0    0    0    0    0    3    0    0    0
                         0    0    0    0    0    0    0    0    0    0
                         0    0    0    0    0    0    0    0    0    0
                         0    0    0    0    0    0    0    0    0    0
                         0    0    7    0    0    0    0    0    0    0
                       outvar_i_n : Printing only first  50 k-points.
              ixc     -101130
           jdtset        1    2    3    4    5    6    7    8    9   10
              kpt      0.00000000E+00  0.00000000E+00  0.00000000E+00
                       8.33333333E-02  0.00000000E+00  0.00000000E+00
                       1.66666667E-01  0.00000000E+00  0.00000000E+00
                       2.50000000E-01  0.00000000E+00  0.00000000E+00
                       3.33333333E-01  0.00000000E+00  0.00000000E+00
                       4.16666667E-01  0.00000000E+00  0.00000000E+00
                       5.00000000E-01  0.00000000E+00  0.00000000E+00
                       8.33333333E-02  8.33333333E-02  0.00000000E+00
                       1.66666667E-01  8.33333333E-02  0.00000000E+00
                       2.50000000E-01  8.33333333E-02  0.00000000E+00
                       3.33333333E-01  8.33333333E-02  0.00000000E+00
                       4.16666667E-01  8.33333333E-02  0.00000000E+00
                       5.00000000E-01  8.33333333E-02  0.00000000E+00
                      -4.16666667E-01  8.33333333E-02  0.00000000E+00
                      -3.33333333E-01  8.33333333E-02  0.00000000E+00
                      -2.50000000E-01  8.33333333E-02  0.00000000E+00
                      -1.66666667E-01  8.33333333E-02  0.00000000E+00
                      -8.33333333E-02  8.33333333E-02  0.00000000E+00
                       1.66666667E-01  1.66666667E-01  0.00000000E+00
                       2.50000000E-01  1.66666667E-01  0.00000000E+00
                       3.33333333E-01  1.66666667E-01  0.00000000E+00
                       4.16666667E-01  1.66666667E-01  0.00000000E+00
                       5.00000000E-01  1.66666667E-01  0.00000000E+00
                      -4.16666667E-01  1.66666667E-01  0.00000000E+00
                      -3.33333333E-01  1.66666667E-01  0.00000000E+00
                      -2.50000000E-01  1.66666667E-01  0.00000000E+00
                      -1.66666667E-01  1.66666667E-01  0.00000000E+00
                       2.50000000E-01  2.50000000E-01  0.00000000E+00
                       3.33333333E-01  2.50000000E-01  0.00000000E+00
                       4.16666667E-01  2.50000000E-01  0.00000000E+00
                       5.00000000E-01  2.50000000E-01  0.00000000E+00
                      -4.16666667E-01  2.50000000E-01  0.00000000E+00
                      -3.33333333E-01  2.50000000E-01  0.00000000E+00
                      -2.50000000E-01  2.50000000E-01  0.00000000E+00
                       3.33333333E-01  3.33333333E-01  0.00000000E+00
                       4.16666667E-01  3.33333333E-01  0.00000000E+00
                       5.00000000E-01  3.33333333E-01  0.00000000E+00
                      -4.16666667E-01  3.33333333E-01  0.00000000E+00
                      -3.33333333E-01  3.33333333E-01  0.00000000E+00
                       4.16666667E-01  4.16666667E-01  0.00000000E+00
                       5.00000000E-01  4.16666667E-01  0.00000000E+00
                      -4.16666667E-01  4.16666667E-01  0.00000000E+00
                       5.00000000E-01  5.00000000E-01  0.00000000E+00
                       8.33333333E-02  0.00000000E+00  8.33333333E-02
                       1.66666667E-01  0.00000000E+00  8.33333333E-02
                       2.50000000E-01  0.00000000E+00  8.33333333E-02
                       3.33333333E-01  0.00000000E+00  8.33333333E-02
                       4.16666667E-01  0.00000000E+00  8.33333333E-02
                       5.00000000E-01  0.00000000E+00  8.33333333E-02
                      -4.16666667E-01  0.00000000E+00  8.33333333E-02
                       outvar_i_n : Printing only first  50 k-points.
         kptrlatt       12    0    0      0   12    0      0    0   12
          kptrlen1     1.88060187E+02
          kptrlen2     1.86146166E+02
          kptrlen3     1.84237650E+02
          kptrlen4     1.82317269E+02
          kptrlen5     1.80385367E+02
          kptrlen6     1.78429051E+02
          kptrlen7     1.76484569E+02
          kptrlen8     1.74518752E+02
          kptrlen9     1.72562087E+02
          kptrlen10    1.70613793E+02
P           mkmem          28
            natom           9
            nband          42
           ndtset          10
            ngfft1         60      60      60
            ngfft2         60      60      60
            ngfft3         60      60      60
            ngfft4         60      60      60
            ngfft5         60      60      60
            ngfft6         60      60      60
            ngfft7         54      54      54
            ngfft8         54      54      54
            ngfft9         54      54      54
            ngfft10        54      54      54
          ngfftdg1         96      96      96
          ngfftdg2         90      90      90
          ngfftdg3         90      90      90
          ngfftdg4         90      90      90
          ngfftdg5         90      90      90
          ngfftdg6         90      90      90
          ngfftdg7         90      90      90
          ngfftdg8         90      90      90
          ngfftdg9         90      90      90
          ngfftdg10        90      90      90
             nkpt         163
            nstep        2500
             nsym           8
           ntypat           4
              occ      2.000000  2.000000  2.000000  2.000000  2.000000  2.000000
                       2.000000  2.000000  2.000000  2.000000  2.000000  2.000000
                       2.000000  2.000000  2.000000  2.000000  2.000000  2.000000
                       2.000000  2.000000  2.000000  2.000000  2.000000  2.000000
                       2.000000  2.000000  2.000000  2.000000  2.000000  2.000000
                       2.000000  2.000000  2.000000  2.000000  2.000000  2.000000
                       0.000000  0.000000  0.000000  0.000000  0.000000  0.000000
        pawecutdg      4.00000000E+01 Hartree
            prtwf           0
            rprim1     0.0000000000E+00  6.9871632850E-01  7.1539883442E-01
                       7.0710678119E-01  0.0000000000E+00  7.0710678119E-01
                       7.1539883442E-01  6.9871632850E-01  0.0000000000E+00
            rprim2     0.0000000000E+00  6.9853725732E-01  7.1557368603E-01
                       7.0710678119E-01  0.0000000000E+00  7.0710678119E-01
                       7.1557368603E-01  6.9853725732E-01  0.0000000000E+00
            rprim3     0.0000000000E+00  6.9842336796E-01  7.1568484621E-01
                       7.0710678119E-01  0.0000000000E+00  7.0710678119E-01
                       7.1568484621E-01  6.9842336796E-01  0.0000000000E+00
            rprim4     0.0000000000E+00  6.9815594891E-01  7.1594571791E-01
                       7.0710678119E-01  0.0000000000E+00  7.0710678119E-01
                       7.1594571791E-01  6.9815594891E-01  0.0000000000E+00
            rprim5     0.0000000000E+00  6.9773323591E-01  7.1635768405E-01
[...]
                      -1.7615672391E-12 -9.5518909170E-02 -1.7615672391E-12
           xangst7     2.7927708470E+00  2.6971340802E+00  2.7927708470E+00
                       8.3783125411E+00  8.1166470496E+00  8.3783125411E+00
                       5.5855416941E+00  8.3227624945E+00  5.5855416941E+00
                       5.5855416941E+00  5.4170630927E+00  2.8271523969E+00
                       5.5855416941E+00  5.4170630927E+00  8.3439309913E+00
                       5.5855416941E+00  2.7283215338E+00  5.5855416941E+00
                       8.3439309913E+00  5.4170630927E+00  5.5855416941E+00
                       2.8271523969E+00  5.4170630927E+00  5.5855416941E+00
                       5.2904078033E-13 -1.0087851536E-01  5.2904078033E-13
           xangst8     2.7651236089E+00  2.6675709906E+00  2.7651236089E+00
                       8.2953708267E+00  8.0195746347E+00  8.2953708267E+00
                       5.5302472178E+00  8.1820930138E+00  5.5302472178E+00
                       5.5302472178E+00  5.3549103008E+00  2.8161420106E+00
                       5.5302472178E+00  5.3549103008E+00  8.2443524250E+00
                       5.5302472178E+00  2.7103796997E+00  5.5302472178E+00
                       8.2443524250E+00  5.3549103008E+00  5.5302472178E+00
                       2.8161420106E+00  5.3549103008E+00  5.5302472178E+00
                      -5.7773610344E-13 -1.0804352632E-01 -5.7773610344E-13
           xangst9     2.7371759074E+00  2.6387146049E+00  2.7371759074E+00
                       8.2115277221E+00  7.9243935288E+00  8.2115277221E+00
                       5.4743518147E+00  8.0446200962E+00  5.4743518147E+00
                       5.4743518147E+00  5.2941360215E+00  2.8036910406E+00
                       5.4743518148E+00  5.2941360215E+00  8.1450125889E+00
                       5.4743518148E+00  2.6912575695E+00  5.4743518148E+00
                       8.1450125889E+00  5.2941360215E+00  5.4743518148E+00
                       2.8036910406E+00  5.2941360215E+00  5.4743518147E+00
                       2.9658513895E-12 -1.1584338438E-01  2.9658513895E-12
           xangst10    2.7089480994E+00  2.6106287495E+00  2.7089480994E+00
                       8.1268442982E+00  7.8310816071E+00  8.1268442982E+00
                       5.4178961987E+00  7.9097391019E+00  5.4178961987E+00
                       5.4178961987E+00  5.2347561727E+00  2.7898472552E+00
                       5.4178961989E+00  5.2347561727E+00  8.0459451424E+00
                       5.4178961989E+00  2.6708473066E+00  5.4178961989E+00
                       8.0459451424E+00  5.2347561727E+00  5.4178961989E+00
                       2.7898472552E+00  5.2347561727E+00  5.4178961987E+00
                       3.6383356189E-12 -1.2435980447E-01  3.6383356189E-12
            xcart1     5.6057516041E+00  5.4270727865E+00  5.6057516041E+00
                       1.6817254812E+01  1.6377133063E+01  1.6817254812E+01
                       1.1211503208E+01  1.7193821922E+01  1.1211503208E+01
                       1.1211503208E+01  1.0902187533E+01  5.4241781078E+00
                       1.1211503208E+01  1.0902187533E+01  1.6998828309E+01
                       1.1211503208E+01  5.2895718683E+00  1.1211503208E+01
                       1.6998828309E+01  1.0902187533E+01  1.1211503208E+01
                       5.4241781078E+00  1.0902187533E+01  1.1211503208E+01
                       4.0383172472E-12 -1.4203719491E-01  4.0383172472E-12
            xcart2     5.5500540780E+00  5.3725198740E+00  5.5500540780E+00
                       1.6650162234E+01  1.6208355873E+01  1.6650162234E+01
                       1.1100108156E+01  1.6958631917E+01  1.1100108156E+01
                       1.1100108156E+01  1.0793071499E+01  5.4152197758E+00
                       1.1100108156E+01  1.0793071499E+01  1.6784996536E+01
                       1.1100108156E+01  5.2744502447E+00  1.1100108156E+01
                       1.6784996536E+01  1.0793071499E+01  1.1100108156E+01
                       5.4152197758E+00  1.0793071499E+01  1.1100108156E+01
                       1.2802026811E-12 -1.4733020920E-01  1.2802026811E-12
            xcart3     5.4940039118E+00  5.3180172628E+00  5.4940039118E+00
                       1.6482011735E+01  1.6041007238E+01  1.6482011735E+01
                       1.0988007823E+01  1.6725929679E+01  1.0988007823E+01
                       1.0988007823E+01  1.0686415025E+01  5.4043708947E+00
                       1.0988007824E+01  1.0686415025E+01  1.6571644753E+01
                       1.0988007824E+01  5.2571146082E+00  1.0988007824E+01
                       1.6571644753E+01  1.0686415025E+01  1.0988007824E+01
                       5.4043708947E+00  1.0686415025E+01  1.0988007823E+01
                       4.3302387609E-12 -1.5316868560E-01  4.3302387609E-12
            xcart4     5.4387194990E+00  5.2646042960E+00  5.4387194990E+00
                       1.6316158497E+01  1.5871761452E+01  1.6316158497E+01
                       1.0877438998E+01  1.6485298951E+01  1.0877438998E+01
                       1.0877438998E+01  1.0577401336E+01  5.3919524370E+00
                       1.0877438998E+01  1.0577401336E+01  1.6362925559E+01
                       1.0877438998E+01  5.2362491105E+00  1.0877438998E+01
                       1.6362925559E+01  1.0577401336E+01  1.0877438998E+01
                       5.3919524370E+00  1.0577401336E+01  1.0877438998E+01
                       3.1548749537E-12 -1.6124876431E-01  3.1548749537E-12
            xcart5     5.3841851557E+00  5.2078380672E+00  5.3841851557E+00
                       1.6152555467E+01  1.5696243552E+01  1.6152555467E+01
                       1.0768370311E+01  1.6241579957E+01  1.0768370311E+01
                       1.0768370311E+01  1.0465789040E+01  5.3777207551E+00
                       1.0768370311E+01  1.0465789040E+01  1.6159019868E+01
                       1.0768370311E+01  5.2136575391E+00  1.0768370311E+01
                       1.6159019868E+01  1.0465789040E+01  1.0768370311E+01
                       5.3777207551E+00  1.0465789040E+01  1.0768370311E+01
                       1.4758760852E-12 -1.6788651902E-01  1.4758760852E-12
            xcart6     5.3312527289E+00  5.1536804908E+00  5.3312527289E+00
                       1.5993758187E+01  1.5517113513E+01  1.5993758187E+01
                       1.0662505458E+01  1.5979516955E+01  1.0662505458E+01
                       1.0662505458E+01  1.0349585959E+01  5.3613715076E+00
                       1.0662505458E+01  1.0349585959E+01  1.5963639408E+01
                       1.0662505458E+01  5.1849031804E+00  1.0662505458E+01
                       1.5963639408E+01  1.0349585959E+01  1.0662505458E+01
                       5.3613715076E+00  1.0349585959E+01  1.0662505458E+01
                      -3.3288796465E-12 -1.8050457884E-01 -3.3288796465E-12
            xcart7     5.2775720528E+00  5.0968447553E+00  5.2775720528E+00
                       1.5832716158E+01  1.5338240041E+01  1.5832716158E+01
                       1.0555144106E+01  1.5727741784E+01  1.0555144106E+01
                       1.0555144106E+01  1.0236765690E+01  5.3425437660E+00
                       1.0555144106E+01  1.0236765690E+01  1.5767744445E+01
                       1.0555144106E+01  5.1557805014E+00  1.0555144106E+01
                       1.5767744445E+01  1.0236765690E+01  1.0555144106E+01
                       5.3425437660E+00  1.0236765690E+01  1.0555144106E+01
                       9.9974218794E-13 -1.9063276673E-01  9.9974218794E-13
            xcart8     5.2253263444E+00  5.0409786123E+00  5.2253263444E+00
                       1.5675979033E+01  1.5154799762E+01  1.5675979033E+01
                       1.0450652689E+01  1.5461914990E+01  1.0450652689E+01
                       1.0450652689E+01  1.0119313935E+01  5.3217371514E+00
                       1.0450652689E+01  1.0119313935E+01  1.5579568226E+01
                       1.0450652689E+01  5.1218753486E+00  1.0450652689E+01
                       1.5579568226E+01  1.0119313935E+01  1.0450652689E+01
                       5.3217371514E+00  1.0119313935E+01  1.0450652689E+01
                      -1.0917630126E-12 -2.0417267517E-01 -1.0917630126E-12
            xcart9     5.1725128425E+00  4.9864479461E+00  5.1725128425E+00
                       1.5517538527E+01  1.4974933539E+01  1.5517538527E+01
                       1.0345025685E+01  1.5202128825E+01  1.0345025685E+01
                       1.0345025685E+01  1.0004467191E+01  5.2982082280E+00
                       1.0345025685E+01  1.0004467191E+01  1.5391843142E+01
                       1.0345025685E+01  5.0857397595E+00  1.0345025685E+01
                       1.5391843142E+01  1.0004467191E+01  1.0345025685E+01
                       5.2982082280E+00  1.0004467191E+01  1.0345025685E+01
                       5.6046468769E-12 -2.1891227078E-01  5.6046468769E-12
            xcart10    5.1191700161E+00  4.9333733711E+00  5.1191700161E+00
                       1.5357510048E+01  1.4798599562E+01  1.5357510048E+01
                       1.0238340032E+01  1.4947240685E+01  1.0238340032E+01
                       1.0238340032E+01  9.8922555388E+00  5.2720472650E+00
                       1.0238340032E+01  9.8922555388E+00  1.5204632799E+01
                       1.0238340032E+01  5.0471699523E+00  1.0238340032E+01
                       1.5204632799E+01  9.8922555388E+00  1.0238340032E+01
                       5.2720472650E+00  9.8922555388E+00  1.0238340032E+01
                       6.8754578993E-12 -2.3500597239E-01  6.8754578993E-12
             xred1     2.4781017865E-01  2.5218982135E-01  2.4781017865E-01
                       7.4781017865E-01  7.5218982135E-01  7.4781017865E-01
                       7.8510170213E-01  2.1489829787E-01  7.8510170213E-01
                       2.3971639922E-01  2.4408831519E-01  7.5591168481E-01
                       7.5591168481E-01  7.6028360078E-01  2.3971639922E-01
                       2.4153163247E-01  7.5846836753E-01  2.4153163247E-01
                       2.3971639922E-01  7.6028360078E-01  7.5591168481E-01
                       7.5591168481E-01  2.4408831519E-01  2.3971639922E-01
                      -6.4856809608E-03  6.4856809608E-03 -6.4856809608E-03
             xred2     2.4790518583E-01  2.5209481417E-01  2.4790518583E-01
                       7.4790518583E-01  7.5209481417E-01  7.4790518583E-01
                       7.8252531317E-01  2.1747468683E-01  7.8252531317E-01
                       2.4195315167E-01  2.4589973226E-01  7.5410026774E-01
                       7.5410026774E-01  7.5804684833E-01  2.4195315167E-01
                       2.4337994065E-01  7.5662005935E-01  2.4337994065E-01
                       2.4195315167E-01  7.5804684833E-01  7.5410026774E-01
                       7.5410026774E-01  2.4589973226E-01  2.4195315167E-01
                      -6.7982853012E-03  6.7982853012E-03 -6.7982853012E-03
             xred3     2.4797268650E-01  2.5202731350E-01  2.4797268650E-01
                       7.4797268650E-01  7.5202731350E-01  7.4797268650E-01
                       7.7990978814E-01  2.2009021186E-01  7.7990978814E-01
                       2.4421587988E-01  2.4762677089E-01  7.5237322911E-01
                       7.5237322911E-01  7.5578412012E-01  2.4421587988E-01
                       2.4513286968E-01  7.5486713032E-01  2.4513286968E-01
                       2.4421587988E-01  7.5578412012E-01  7.5237322911E-01
                       7.5237322911E-01  2.4762677089E-01  2.4421587988E-01
                      -7.1420697937E-03  7.1420697937E-03 -7.1420697937E-03
             xred4     2.4816283093E-01  2.5183716907E-01  2.4816283093E-01
                       7.4816283093E-01  7.5183716907E-01  7.4816283093E-01
                       7.7708375150E-01  2.2291624850E-01  7.7708375150E-01
                       2.4644764303E-01  2.4925290174E-01  7.5074709826E-01
                       7.5074709826E-01  7.5355235697E-01  2.4644764303E-01
                       2.4682622466E-01  7.5317377534E-01  2.4682622466E-01
                       2.4644764303E-01  7.5355235697E-01  7.5074709826E-01
                       7.5074709826E-01  2.4925290174E-01  2.4644764303E-01
                      -7.6009416066E-03  7.6009416066E-03 -7.6009416066E-03
             xred5     2.4826643452E-01  2.5173356548E-01  2.4826643452E-01
                       7.4826643452E-01  7.5173356548E-01  7.4826643452E-01
                       7.7426354176E-01  2.2573645824E-01  7.7426354176E-01
                       2.4862167900E-01  2.5077800727E-01  7.4922199273E-01
                       7.4922199273E-01  7.5137832100E-01  2.4862167900E-01
                       2.4854385857E-01  7.5145614143E-01  2.4854385857E-01
                       2.4862167900E-01  7.5137832100E-01  7.4922199273E-01
                       7.4922199273E-01  2.5077800727E-01  2.4862167900E-01
                      -8.0034338518E-03  8.0034338518E-03 -8.0034338518E-03
             xred6     2.4864735844E-01  2.5135264156E-01  2.4864735844E-01
                       7.4864735844E-01  7.5135264156E-01  7.4864735844E-01
                       7.7095673416E-01  2.2904326584E-01  7.7095673416E-01
                       2.5074429555E-01  2.5208044192E-01  7.4791955808E-01
                       7.4791955808E-01  7.4925570445E-01  2.5074429555E-01
                       2.5015374583E-01  7.4984625417E-01  2.5015374583E-01
                       2.5074429555E-01  7.4925570445E-01  7.4791955808E-01
                       7.4791955808E-01  2.5208044192E-01  2.5074429555E-01
                      -8.7087251132E-03  8.7087251132E-03 -8.7087251132E-03
             xred7     2.4883546690E-01  2.5116453310E-01  2.4883546690E-01
                       7.4883546690E-01  7.5116453310E-01  7.4883546690E-01
                       7.6785151558E-01  2.3214848442E-01  7.6785151558E-01
                       2.5285170374E-01  2.5330375113E-01  7.4669624887E-01
                       7.4669624887E-01  7.4714829626E-01  2.5285170374E-01
                       2.5171279682E-01  7.4828720318E-01  2.5171279682E-01
                       2.5285170374E-01  7.4714829626E-01  7.4669624887E-01
                       7.4669624887E-01  2.5330375113E-01  2.5285170374E-01
                      -9.3069724099E-03  9.3069724099E-03 -9.3069724099E-03
             xred8     2.4921236681E-01  2.5078763319E-01  2.4921236681E-01
                       7.4921236681E-01  7.5078763319E-01  7.4921236681E-01
                       7.6439531416E-01  2.3560468584E-01  7.6439531416E-01
                       2.5488421764E-01  2.5434112071E-01  7.4565887929E-01
                       7.4565887929E-01  7.4511578236E-01  2.5488421764E-01
                       2.5321168295E-01  7.4678831705E-01  2.5321168295E-01
                       2.5488421764E-01  7.4511578236E-01  7.4565887929E-01
                       7.4565887929E-01  2.5434112071E-01  2.5488421764E-01
                      -1.0093745586E-02  1.0093745586E-02 -1.0093745586E-02
             xred9     2.4960980821E-01  2.5039019179E-01  2.4960980821E-01
                       7.4960980821E-01  7.5039019179E-01  7.4960980821E-01
                       7.6098266770E-01  2.3901733230E-01  7.6098266770E-01
                       2.5687516170E-01  2.5527515956E-01  7.4472484044E-01
                       7.4472484044E-01  7.4312483830E-01  2.5687516170E-01
                       2.5458012190E-01  7.4541987810E-01  2.5458012190E-01
                       2.5687516170E-01  7.4312483830E-01  7.4472484044E-01
                       7.4472484044E-01  2.5527515956E-01  2.5687516170E-01
                      -1.0958231293E-02  1.0958231293E-02 -1.0958231293E-02
             xred10    2.5003853312E-01  2.4996146688E-01  2.5003853312E-01
                       7.5003853312E-01  7.4996146688E-01  7.5003853312E-01
                       7.5757212235E-01  2.4242787765E-01  7.5757212235E-01
                       2.5883585018E-01  2.5609598920E-01  7.4390401080E-01
                       7.4390401080E-01  7.4116414982E-01  2.5883585018E-01
                       2.5580609379E-01  7.4419390621E-01  2.5580609379E-01
                       2.5883585018E-01  7.4116414982E-01  7.4390401080E-01
                       7.4390401080E-01  2.5609598920E-01  2.5883585018E-01
                      -1.1910825350E-02  1.1910825350E-02 -1.1910825350E-02
            znucl       55.00000   53.00000   72.00000   17.00000

- Timing analysis has been suppressed with timopt=0

 Suggested references for the acknowledgment of ABINIT usage.

 Calculation completed.
.Delivered   0 WARNINGs and   1 COMMENTs to log file.