.Version 9.2.2 of ABINIT

 ABINIT is a project of the Universite Catholique de Louvain,
 Corning Inc. and other collaborators, see ~abinit/doc/developers/contributors.txt .
 acknowledgments of the ABINIT effort.

.Starting date : Mon  5 Sep 2022.
- ( at 14h06 )

- input  file    -> Cs2TiI6.in
- output file    -> Cs2TiI6.out
- root for input  files -> Cs2TiI6i
- root for output files -> Cs2TiI6o

- inpspheads : Reading pseudopotential header in XML form from
-   ../../../Psps_for_tests/ATOMICDATA/Cs.GGA_PBE-JTH.xml
- inpspheads : Reading pseudopotential header in XML form from
-   ../../../Psps_for_tests/ATOMICDATA/I.GGA_PBE-JTH.xml
- inpspheads : Reading pseudopotential header in XML form from
-   ../../../Psps_for_tests/ATOMICDATA/Hf.GGA_PBE-JTH.xml

 Symmetries : space group Fm -3 m (#225); Bravais cF (face-center cubic)
     intxc =       0    ionmov =       2      iscf =      17    lmnmax =      18
     lnmax =       6     mgfft =      72  mpssoang =       3    mqgrid =    4161
     natom =       9  nloc_mem =       2    nspden =       1   nspinor =       1
    nsppol =       1      nsym =      48    n1xccc =       1    ntypat =       3
    occopt =       1   xclevel =       2
-    mband =          42        mffmem =           1         mkmem =           3
       mpw =       12417          nfft =      373248          nkpt =          10
Pmy_natom=         3
 PAW method is used; the additional fine FFT grid is defined by:
   mgfftf=       108    nfftf =   1259712
  Rough estimation (10% accuracy) of disk space for files :

------------- Echo of variables that govern the present computation ------------
-
- outvars: echo of selected default values
-   iomode0 =  0 , fftalg0 =112 , wfoptalg0 = 10
-
- outvars: echo of global parameters not present in the input file
-  max_nthreads =    0
-
 -outvars: echo values of preprocessed input variables --------
            acell      1.6045663836E+01  1.6045663836E+01  1.6045663836E+01 Bohr
              amu      1.32905430E+02  1.26904470E+02  1.78490000E+02
           diemac      1.20000000E+01
          dilatmx      1.15000000E+00
             ecut      1.60000000E+01 Hartree
           ecutsm      5.00000000E-01 Hartree
-          fftalg         112
           ionmov           2
              ixc     -101130
              kpt     -1.25000000E-01 -2.50000000E-01  0.00000000E+00
                      -1.25000000E-01  5.00000000E-01  0.00000000E+00
                      -2.50000000E-01 -3.75000000E-01  0.00000000E+00
                      -1.25000000E-01 -3.75000000E-01  1.25000000E-01
                      -1.25000000E-01  2.50000000E-01  0.00000000E+00
                      -2.50000000E-01  3.75000000E-01  0.00000000E+00
                      -3.75000000E-01  5.00000000E-01  0.00000000E+00
                      -2.50000000E-01  5.00000000E-01  1.25000000E-01
                      -1.25000000E-01  0.00000000E+00  0.00000000E+00
                      -3.75000000E-01  0.00000000E+00  0.00000000E+00
         kptrlatt        4   -4    4     -4    4    4     -4   -4    4
          kptrlen      8.80449422E+01
P           mkmem           3
            natom           9
            nband          42
            ngfft          72      72      72
          ngfftdg         108     108     108
             nkpt          10
            nstep        2500
             nsym          48
            ntime        1000
           ntypat           3
              occ      2.000000  2.000000  2.000000  2.000000  2.000000  2.000000
                       2.000000  2.000000  2.000000  2.000000  2.000000  2.000000
                       2.000000  2.000000  2.000000  2.000000  2.000000  2.000000
                       2.000000  2.000000  2.000000  2.000000  2.000000  2.000000
                       2.000000  2.000000  2.000000  2.000000  2.000000  2.000000
                       2.000000  2.000000  2.000000  2.000000  2.000000  2.000000
                       0.000000  0.000000  0.000000  0.000000  0.000000  0.000000
        optforces           1
        pawecutdg      4.00000000E+01 Hartree
            prtwf           0
            rprim      0.0000000000E+00  6.8589357775E-01  6.8589357775E-01
                       6.8589357775E-01  0.0000000000E+00  6.8589357775E-01
                       6.8589357775E-01  6.8589357775E-01  0.0000000000E+00
           shiftk      5.00000000E-01  5.00000000E-01  5.00000000E-01
          spgroup         225
           symrel      1  0  0   0  1  0   0  0  1      -1  0  0   0 -1  0   0  0 -1
                       0 -1  1   0 -1  0   1 -1  0       0  1 -1   0  1  0  -1  1  0
                      -1  0  0  -1  0  1  -1  1  0       1  0  0   1  0 -1   1 -1  0
                       0  1 -1   1  0 -1   0  0 -1       0 -1  1  -1  0  1   0  0  1
                      -1  0  0  -1  1  0  -1  0  1       1  0  0   1 -1  0   1  0 -1
                       0 -1  1   1 -1  0   0 -1  0       0  1 -1  -1  1  0   0  1  0
                       1  0  0   0  0  1   0  1  0      -1  0  0   0  0 -1   0 -1  0
                       0  1 -1   0  0 -1   1  0 -1       0 -1  1   0  0  1  -1  0  1
                      -1  0  1  -1  1  0  -1  0  0       1  0 -1   1 -1  0   1  0  0
                       0 -1  0   1 -1  0   0 -1  1       0  1  0  -1  1  0   0  1 -1
                       1  0 -1   0  0 -1   0  1 -1      -1  0  1   0  0  1   0 -1  1
                       0  1  0   0  0  1   1  0  0       0 -1  0   0  0 -1  -1  0  0
                       1  0 -1   0  1 -1   0  0 -1      -1  0  1   0 -1  1   0  0  1
                       0 -1  0   0 -1  1   1 -1  0       0  1  0   0  1 -1  -1  1  0
                      -1  0  1  -1  0  0  -1  1  0       1  0 -1   1  0  0   1 -1  0
                       0  1  0   1  0  0   0  0  1       0 -1  0  -1  0  0   0  0 -1
                       0  0 -1   0  1 -1   1  0 -1       0  0  1   0 -1  1  -1  0  1
                       1 -1  0   0 -1  1   0 -1  0      -1  1  0   0  1 -1   0  1  0
                       0  0  1   1  0  0   0  1  0       0  0 -1  -1  0  0   0 -1  0
                      -1  1  0  -1  0  0  -1  0  1       1 -1  0   1  0  0   1  0 -1
                       0  0  1   0  1  0   1  0  0       0  0 -1   0 -1  0  -1  0  0
                       1 -1  0   0 -1  0   0 -1  1      -1  1  0   0  1  0   0  1 -1
                       0  0 -1   1  0 -1   0  1 -1       0  0  1  -1  0  1   0 -1  1
                      -1  1  0  -1  0  1  -1  0  0       1 -1  0   1  0 -1   1  0  0
           toldff      1.00000000E-08
           tolmxf      1.00000000E-05
            typat      1  1  2  2  2  2  2  2  3
           useylm           1
              wtk        0.09375    0.09375    0.09375    0.18750    0.09375    0.09375
                         0.09375    0.18750    0.03125    0.03125
           xangst      2.9119610467E+00  2.9119610467E+00  2.9119610467E+00
                       8.7358831402E+00  8.7358831402E+00  8.7358831402E+00
                       5.8239220935E+00  8.8698517255E+00  5.8239220935E+00
                       5.8239220935E+00  5.8239220935E+00  2.7779924614E+00
                       5.8239220935E+00  5.8239220935E+00  8.8698517255E+00
                       5.8239220935E+00  2.7779924614E+00  5.8239220935E+00
                       8.8698517255E+00  5.8239220935E+00  5.8239220935E+00
                       2.7779924614E+00  5.8239220935E+00  5.8239220935E+00
                       0.0000000000E+00  0.0000000000E+00  0.0000000000E+00
            xcart      5.5028088880E+00  5.5028088880E+00  5.5028088880E+00
                       1.6508426664E+01  1.6508426664E+01  1.6508426664E+01
                       1.1005617776E+01  1.6761590601E+01  1.1005617776E+01
                       1.1005617776E+01  1.1005617776E+01  5.2496449513E+00
                       1.1005617776E+01  1.1005617776E+01  1.6761590601E+01
                       1.1005617776E+01  5.2496449513E+00  1.1005617776E+01
                       1.6761590601E+01  1.1005617776E+01  1.1005617776E+01
                       5.2496449513E+00  1.1005617776E+01  1.1005617776E+01
                       0.0000000000E+00  0.0000000000E+00  0.0000000000E+00
             xred      2.5000000000E-01  2.5000000000E-01  2.5000000000E-01
                       7.5000000000E-01  7.5000000000E-01  7.5000000000E-01
                       7.6150157773E-01  2.3849842227E-01  7.6150157773E-01
                       2.3849842227E-01  2.3849842227E-01  7.6150157773E-01
                       7.6150157773E-01  7.6150157773E-01  2.3849842227E-01
                       2.3849842227E-01  7.6150157773E-01  2.3849842227E-01
                       2.3849842227E-01  7.6150157773E-01  7.6150157773E-01
                       7.6150157773E-01  2.3849842227E-01  2.3849842227E-01
                       0.0000000000E+00  0.0000000000E+00  0.0000000000E+00
            znucl       55.00000   53.00000   72.00000

 chkinp: Checking input parameters for consistency.

== DATASET  1 ==================================================================
-   mpi_nproc: 4, omp_nthreads: -1 (-1 if OMP is not activated)

--- !DatasetInfo
iteration_state: {dtset: 1, }
dimensions: {natom: 9, nkpt: 10, mband: 42, nsppol: 1, nspinor: 1, nspden: 1, mpw: 12417, }
cutoff_energies: {ecut:  16.0, pawecutdg:  40.0, }
electrons: {nelect:   7.20000000E+01, charge:   0.00000000E+00, occopt:   1.00000000E+00, tsmear:   1.00000000E-02, }
meta: {optdriver: 0, ionmov: 2, optcell: 0, iscf: 17, paral_kgb: 0, }
...

 Real(R)+Recip(G) space primitive vectors, cartesian coordinates (Bohr,Bohr^-1):
 R(1)=  0.0000000 11.0056178 11.0056178  G(1)= -0.0454313  0.0454313  0.0454313
 R(2)= 11.0056178  0.0000000 11.0056178  G(2)=  0.0454313 -0.0454313  0.0454313
 R(3)= 11.0056178 11.0056178  0.0000000  G(3)=  0.0454313  0.0454313 -0.0454313
 Unit cell volume ucvol=  2.6660806E+03 bohr^3
 Angles (23,13,12)=  6.00000000E+01  6.00000000E+01  6.00000000E+01 degrees

 Coarse grid specifications (used for wave-functions):

 getcut: wavevector=  0.0000  0.0000  0.0000  ngfft=  72  72  72
         ecut(hartree)=     21.160   => boxcut(ratio)=   2.23398

 getcut : COMMENT -
  Note that boxcut > 2.2 ; recall that boxcut=Gcut(box)/Gcut(sphere) = 2
  is sufficient for exact treatment of convolution.
  Such a large boxcut is a waste : you could raise ecut
  e.g. ecut=   26.400728 Hartrees makes boxcut=2

 Fine grid specifications (used for densities):

 getcut: wavevector=  0.0000  0.0000  0.0000  ngfft= 108 108 108
         ecut(hartree)=     52.900   => boxcut(ratio)=   2.11934

--- Pseudopotential description ------------------------------------------------
- pspini: atom type   1  psp file is ../../../Psps_for_tests/ATOMICDATA/Cs.GGA_PBE-JTH.xml
- pspatm: opening atomic psp file    ../../../Psps_for_tests/ATOMICDATA/Cs.GGA_PBE-JTH.xml
- pspatm : Reading pseudopotential header in XML form from ../../../Psps_for_tests/ATOMICDATA/Cs.GGA_PBE-JTH.xml
 Pseudopotential format is: paw10
 basis_size (lnmax)=  6 (lmn_size= 18), orbitals=   0   0   1   1   2   2
 Spheres core radius: rc_sph= 2.20660278
 1 radial meshes are used:
  - mesh 1: r(i)=AA*[exp(BB*(i-1))-1], size=1500 , AA= 0.15922E-03 BB= 0.87573E-02
[...]
  2.44723303845620E-01  7.55276696154380E-01  7.55276696154380E-01
  7.55276696154379E-01  2.44723303845620E-01  2.44723303845620E-01
 -1.40812382746982E-21  9.08508659215244E-22  6.00257237703999E-21
 Cartesian forces (fcart) [Ha/bohr]; max,rms= 1.35520E-06 6.38849E-07 (free atoms)
  2.43303980763448E-23  1.47767456697287E-23 -3.07254874858212E-23
  2.31278404307568E-23  1.47767456697287E-23 -3.03246349372919E-23
  7.72848128370312E-24 -1.35520348183270E-06 -1.45244232417089E-23
  3.50405001787386E-23  2.58544356306144E-25  1.35520348183270E-06
  4.09323148689865E-23  7.80370442527774E-25 -1.35520348183270E-06
 -1.14598473960400E-22  1.35520348183270E-06  1.07802532002395E-22
 -1.35520348183270E-06  8.95955819823420E-24 -2.43070211915327E-23
  1.35520348183270E-06  9.79584750073873E-23 -1.13305938000686E-22
  2.35286929792861E-23  1.49771719439934E-23 -3.03246349372919E-23
 Reduced forces (fred)
  1.75525756434696E-22  7.03819096835109E-23 -4.30398276377121E-22
  1.71114126501080E-22  7.92051695507432E-23 -4.17163386576273E-22
  1.49148515296423E-05  7.47935396171271E-23  1.49148515296423E-05
 -1.49148515296423E-05 -1.49148515296423E-05 -3.88487792007768E-22
  1.49148515296423E-05  1.49148515296423E-05 -4.59073870945626E-22
 -1.49148515296423E-05  7.47935396171269E-23 -1.49148515296423E-05
  1.68908311534272E-22  1.49148515296423E-05  1.49148515296423E-05
  1.68908311534272E-22 -1.49148515296423E-05 -1.49148515296423E-05
  1.68908311534272E-22  7.47935396171271E-23 -4.23780831476697E-22
 Total energy (etotal) [Ha]= -1.61344241404853E+02

 Difference of energy with previous step (new-old):
           Absolute (Ha)=-3.29720E-07
           Relative     =-2.04358E-09

 At Broyd/MD step   5, gradients are converged :
  max grad (force/stress) = 1.3552E-06 < tolmxf= 1.0000E-05 ha/bohr (free atoms)

 ----iterations are completed or convergence reached----

 Mean square residual over all n,k,spin=   91.367E-10; max=  19.679E-07
 reduced coordinates (array xred) for    9 atoms
       0.250000000000      0.250000000000      0.250000000000
       0.750000000000      0.750000000000      0.750000000000
       0.755276696154      0.244723303846      0.755276696154
       0.244723303846      0.244723303846      0.755276696154
       0.755276696154      0.755276696154      0.244723303846
       0.244723303846      0.755276696154      0.244723303846
       0.244723303846      0.755276696154      0.755276696154
       0.755276696154      0.244723303846      0.244723303846
      -0.000000000000      0.000000000000      0.000000000000
 rms dE/dt=  9.9432E-06; max dE/dt=  1.4915E-05; dE/dt below (all hartree)
    1       0.000000000000     -0.000000000000     -0.000000000000
    2       0.000000000000      0.000000000000      0.000000000000
    3       0.000014914852      0.000000000000      0.000014914852
    4      -0.000014914852     -0.000014914852      0.000000000000
    5       0.000014914852      0.000014914852     -0.000000000000
    6      -0.000014914852      0.000000000000     -0.000014914852
    7       0.000000000000      0.000014914852      0.000014914852
    8      -0.000000000000     -0.000014914852     -0.000014914852
    9       0.000000000000      0.000000000000      0.000000000000

 cartesian coordinates (angstrom) at end:
    1      2.91196104673407     2.91196104673407     2.91196104673407
    2      8.73588314020222     8.73588314020222     8.73588314020222
    3      5.82392209346814     8.79734527483024     5.82392209346814
    4      5.82392209346814     5.82392209346814     2.85049891210605
    5      5.82392209346814     5.82392209346814     8.79734527483024
    6      5.82392209346814     2.85049891210605     5.82392209346814
    7      8.79734527483024     5.82392209346814     5.82392209346814
    8      2.85049891210605     5.82392209346814     5.82392209346814
    9      0.00000000000000     0.00000000000000    -0.00000000000000

 cartesian forces (hartree/bohr) at end:
    1      0.00000000000000     0.00000000000000    -0.00000000000000
    2      0.00000000000000     0.00000000000000    -0.00000000000000
    3      0.00000000000000    -0.00000135520348    -0.00000000000000
    4      0.00000000000000     0.00000000000000     0.00000135520348
    5      0.00000000000000     0.00000000000000    -0.00000135520348
    6     -0.00000000000000     0.00000135520348     0.00000000000000
    7     -0.00000135520348     0.00000000000000    -0.00000000000000
    8      0.00000135520348     0.00000000000000    -0.00000000000000
    9      0.00000000000000     0.00000000000000    -0.00000000000000
 frms,max,avg= 6.3884905E-07 1.3552035E-06   0.000E+00  0.000E+00  0.000E+00 h/b

 cartesian forces (eV/Angstrom) at end:
    1      0.00000000000000     0.00000000000000    -0.00000000000000
    2      0.00000000000000     0.00000000000000    -0.00000000000000
    3      0.00000000000000    -0.00006968735908    -0.00000000000000
    4      0.00000000000000     0.00000000000000     0.00006968735908
    5      0.00000000000000     0.00000000000000    -0.00006968735908
    6     -0.00000000000000     0.00006968735908     0.00000000000000
    7     -0.00006968735908     0.00000000000000    -0.00000000000000
    8      0.00006968735908     0.00000000000000    -0.00000000000000
    9      0.00000000000000     0.00000000000000    -0.00000000000000
 frms,max,avg= 3.2850936E-05 6.9687359E-05   0.000E+00  0.000E+00  0.000E+00 e/A
 length scales= 16.045663836000 16.045663836000 16.045663836000 bohr
              =  8.490999598708  8.490999598708  8.490999598708 angstroms
 prteigrs : about to open file Cs2TiI6o_EIG
 Fermi (or HOMO) energy (hartree) =  -0.13395   Average Vxc (hartree)=  -0.29425
 Eigenvalues (hartree) for nkpt=  10  k points:
 kpt#   1, nband= 42, wtk=  0.09375, kpt= -0.1250 -0.2500  0.0000 (reduced coord)
  -2.43390   -1.27757   -1.27757   -1.27756   -0.88652   -0.88641   -0.56793   -0.54944
  -0.54739   -0.54702   -0.54439   -0.54345   -0.40391   -0.40376   -0.40317   -0.40240
  -0.40238   -0.40176   -0.27451   -0.22624   -0.22150   -0.21951   -0.21898   -0.21480
  -0.21418   -0.20187   -0.20027   -0.17217   -0.17007   -0.16331   -0.15830   -0.14507
  -0.14494   -0.14242   -0.14209   -0.13467   -0.05281   -0.04696   -0.04649    0.02615
   0.03271    0.04420
 prteigrs : prtvol=0 or 1, do not print more k-points.

--- !EnergyTerms
iteration_state     : {dtset: 1, itime: 5, icycle: 1, }
comment             : Components of total free energy in Hartree
kinetic             :  3.62720898297059E+01
hartree             :  3.26027565497425E+01
xc                  : -5.87533226995685E+01
Ewald energy        : -1.17802795517576E+02
psp_core            :  1.87905903291014E+01
local_psp           : -6.19616700458403E+01
spherical_terms     : -1.04918898510043E+01
total_energy        : -1.61344241405440E+02
total_energy_eV     : -4.39040008648393E+03
...

--- !EnergyTermsDC
iteration_state     : {dtset: 1, itime: 5, icycle: 1, }
comment             : '"Double-counting" decomposition of free energy'
band_energy         : -3.43292348802249E+01
Ewald energy        : -1.17802795517576E+02
psp_core            :  1.87905903291014E+01
xc_dc               : -5.46190214266110E+01
spherical_terms     :  2.66162200904579E+01
total_energy_dc     : -1.61344241404853E+02
total_energy_dc_eV  : -4.39040008646796E+03
...

 rms coord change=  5.0826E-03   atom, delta coord (reduced):
     1        0.000000000000      0.000000000000      0.000000000000
     2        0.000000000000      0.000000000000      0.000000000000
     3       -0.006224881576      0.006224881576     -0.006224881576
     4        0.006224881576      0.006224881576     -0.006224881576
     5       -0.006224881576     -0.006224881576      0.006224881576
     6        0.006224881576     -0.006224881576      0.006224881576
     7        0.006224881576     -0.006224881576     -0.006224881576
     8       -0.006224881576      0.006224881576      0.006224881576
     9       -0.000000000000      0.000000000000      0.000000000000

 Cartesian components of stress tensor (hartree/bohr^3)
  sigma(1 1)= -2.95024068E-05  sigma(3 2)=  0.00000000E+00
  sigma(2 2)= -2.95024068E-05  sigma(3 1)=  0.00000000E+00
  sigma(3 3)= -2.95024068E-05  sigma(2 1)=  0.00000000E+00

-Cartesian components of stress tensor (GPa)         [Pressure=  8.6799E-01 GPa]
- sigma(1 1)= -8.67990629E-01  sigma(3 2)=  0.00000000E+00
- sigma(2 2)= -8.67990629E-01  sigma(3 1)=  0.00000000E+00
- sigma(3 3)= -8.67990629E-01  sigma(2 1)=  0.00000000E+00

== END DATASET(S) ==============================================================

 -outvars: echo values of variables after computation  --------
            acell      1.6045663836E+01  1.6045663836E+01  1.6045663836E+01 Bohr
              amu      1.32905430E+02  1.26904470E+02  1.78490000E+02
           diemac      1.20000000E+01
          dilatmx      1.15000000E+00
             ecut      1.60000000E+01 Hartree
           ecutsm      5.00000000E-01 Hartree
           etotal     -1.6134424140E+02
            fcart      2.4330398076E-23  1.4776745670E-23 -3.0725487486E-23
                       2.3127840431E-23  1.4776745670E-23 -3.0324634937E-23
                       7.7284812837E-24 -1.3552034818E-06 -1.4524423242E-23
                       3.5040500179E-23  2.5854435631E-25  1.3552034818E-06
                       4.0932314869E-23  7.8037044253E-25 -1.3552034818E-06
                      -1.1459847396E-22  1.3552034818E-06  1.0780253200E-22
                      -1.3552034818E-06  8.9595581982E-24 -2.4307021192E-23
                       1.3552034818E-06  9.7958475007E-23 -1.1330593800E-22
                       2.3528692979E-23  1.4977171944E-23 -3.0324634937E-23
-          fftalg         112
           ionmov           2
              ixc     -101130
              kpt     -1.25000000E-01 -2.50000000E-01  0.00000000E+00
                      -1.25000000E-01  5.00000000E-01  0.00000000E+00
                      -2.50000000E-01 -3.75000000E-01  0.00000000E+00
                      -1.25000000E-01 -3.75000000E-01  1.25000000E-01
                      -1.25000000E-01  2.50000000E-01  0.00000000E+00
                      -2.50000000E-01  3.75000000E-01  0.00000000E+00
                      -3.75000000E-01  5.00000000E-01  0.00000000E+00
                      -2.50000000E-01  5.00000000E-01  1.25000000E-01
                      -1.25000000E-01  0.00000000E+00  0.00000000E+00
                      -3.75000000E-01  0.00000000E+00  0.00000000E+00
         kptrlatt        4   -4    4     -4    4    4     -4   -4    4
          kptrlen      8.80449422E+01
P           mkmem           3
            natom           9
            nband          42
            ngfft          72      72      72
          ngfftdg         108     108     108
             nkpt          10
            nstep        2500
             nsym          48
            ntime        1000
           ntypat           3
              occ      2.000000  2.000000  2.000000  2.000000  2.000000  2.000000
                       2.000000  2.000000  2.000000  2.000000  2.000000  2.000000
                       2.000000  2.000000  2.000000  2.000000  2.000000  2.000000
                       2.000000  2.000000  2.000000  2.000000  2.000000  2.000000
                       2.000000  2.000000  2.000000  2.000000  2.000000  2.000000
                       2.000000  2.000000  2.000000  2.000000  2.000000  2.000000
                       0.000000  0.000000  0.000000  0.000000  0.000000  0.000000
        optforces           1
        pawecutdg      4.00000000E+01 Hartree
            prtwf           0
            rprim      0.0000000000E+00  6.8589357775E-01  6.8589357775E-01
                       6.8589357775E-01  0.0000000000E+00  6.8589357775E-01
                       6.8589357775E-01  6.8589357775E-01  0.0000000000E+00
           shiftk      5.00000000E-01  5.00000000E-01  5.00000000E-01
          spgroup         225
           strten     -2.9502406789E-05 -2.9502406789E-05 -2.9502406789E-05
                       0.0000000000E+00  0.0000000000E+00  0.0000000000E+00
           symrel      1  0  0   0  1  0   0  0  1      -1  0  0   0 -1  0   0  0 -1
                       0 -1  1   0 -1  0   1 -1  0       0  1 -1   0  1  0  -1  1  0
                      -1  0  0  -1  0  1  -1  1  0       1  0  0   1  0 -1   1 -1  0
                       0  1 -1   1  0 -1   0  0 -1       0 -1  1  -1  0  1   0  0  1
                      -1  0  0  -1  1  0  -1  0  1       1  0  0   1 -1  0   1  0 -1
                       0 -1  1   1 -1  0   0 -1  0       0  1 -1  -1  1  0   0  1  0
                       1  0  0   0  0  1   0  1  0      -1  0  0   0  0 -1   0 -1  0
                       0  1 -1   0  0 -1   1  0 -1       0 -1  1   0  0  1  -1  0  1
                      -1  0  1  -1  1  0  -1  0  0       1  0 -1   1 -1  0   1  0  0
                       0 -1  0   1 -1  0   0 -1  1       0  1  0  -1  1  0   0  1 -1
                       1  0 -1   0  0 -1   0  1 -1      -1  0  1   0  0  1   0 -1  1
                       0  1  0   0  0  1   1  0  0       0 -1  0   0  0 -1  -1  0  0
                       1  0 -1   0  1 -1   0  0 -1      -1  0  1   0 -1  1   0  0  1
                       0 -1  0   0 -1  1   1 -1  0       0  1  0   0  1 -1  -1  1  0
                      -1  0  1  -1  0  0  -1  1  0       1  0 -1   1  0  0   1 -1  0
                       0  1  0   1  0  0   0  0  1       0 -1  0  -1  0  0   0  0 -1
                       0  0 -1   0  1 -1   1  0 -1       0  0  1   0 -1  1  -1  0  1
                       1 -1  0   0 -1  1   0 -1  0      -1  1  0   0  1 -1   0  1  0
                       0  0  1   1  0  0   0  1  0       0  0 -1  -1  0  0   0 -1  0
                      -1  1  0  -1  0  0  -1  0  1       1 -1  0   1  0  0   1  0 -1
                       0  0  1   0  1  0   1  0  0       0  0 -1   0 -1  0  -1  0  0
                       1 -1  0   0 -1  0   0 -1  1      -1  1  0   0  1  0   0  1 -1
                       0  0 -1   1  0 -1   0  1 -1       0  0  1  -1  0  1   0 -1  1
                      -1  1  0  -1  0  1  -1  0  0       1 -1  0   1  0 -1   1  0  0
           toldff      1.00000000E-08
           tolmxf      1.00000000E-05
            typat      1  1  2  2  2  2  2  2  3
           useylm           1
              wtk        0.09375    0.09375    0.09375    0.18750    0.09375    0.09375
                         0.09375    0.18750    0.03125    0.03125
           xangst      2.9119610467E+00  2.9119610467E+00  2.9119610467E+00
                       8.7358831402E+00  8.7358831402E+00  8.7358831402E+00
                       5.8239220935E+00  8.7973452748E+00  5.8239220935E+00
                       5.8239220935E+00  5.8239220935E+00  2.8504989121E+00
                       5.8239220935E+00  5.8239220935E+00  8.7973452748E+00
                       5.8239220935E+00  2.8504989121E+00  5.8239220935E+00
                       8.7973452748E+00  5.8239220935E+00  5.8239220935E+00
                       2.8504989121E+00  5.8239220935E+00  5.8239220935E+00
                       4.0249597537E-20  2.6757710415E-20 -2.9097198166E-21
            xcart      5.5028088880E+00  5.5028088880E+00  5.5028088880E+00
                       1.6508426664E+01  1.6508426664E+01  1.6508426664E+01
                       1.1005617776E+01  1.6624573266E+01  1.1005617776E+01
                       1.1005617776E+01  1.1005617776E+01  5.3866622860E+00
                       1.1005617776E+01  1.1005617776E+01  1.6624573266E+01
                       1.1005617776E+01  5.3866622860E+00  1.1005617776E+01
                       1.6624573266E+01  1.1005617776E+01  1.1005617776E+01
                       5.3866622860E+00  1.1005617776E+01  1.1005617776E+01
                       7.6060716303E-20  5.0564744628E-20 -5.4985735769E-21
             xred      2.5000000000E-01  2.5000000000E-01  2.5000000000E-01
                       7.5000000000E-01  7.5000000000E-01  7.5000000000E-01
                       7.5527669615E-01  2.4472330385E-01  7.5527669615E-01
                       2.4472330385E-01  2.4472330385E-01  7.5527669615E-01
                       7.5527669615E-01  7.5527669615E-01  2.4472330385E-01
                       2.4472330385E-01  7.5527669615E-01  2.4472330385E-01
                       2.4472330385E-01  7.5527669615E-01  7.5527669615E-01
                       7.5527669615E-01  2.4472330385E-01  2.4472330385E-01
                      -1.4081238275E-21  9.0850865922E-22  6.0025723770E-21
            znucl       55.00000   53.00000   72.00000

- Timing analysis has been suppressed with timopt=0

 Suggested references for the acknowledgment of ABINIT usage.

 Calculation completed.
.Delivered   0 WARNINGs and   6 COMMENTs to log file.