.Version 9.2.2 of ABINIT

 ABINIT is a project of the Universite Catholique de Louvain,
 Corning Inc. and other collaborators, see ~abinit/doc/developers/contributors.txt .
 acknowledgments of the ABINIT effort.

.Starting date : Wed  9 Nov 2022.
- ( at 07h41 )

- input  file    -> Cs2TiI6.in
- output file    -> Cs2TiI6.out
- root for input  files -> Cs2TiI6i
- root for output files -> Cs2TiI6o

- inpspheads : Reading pseudopotential header in XML form from
-   ../../../Psps_for_tests/ATOMICDATA/Cs.GGA_PBE-JTH.xml
- inpspheads : Reading pseudopotential header in XML form from
-   ../../../Psps_for_tests/ATOMICDATA/I.GGA_PBE-JTH.xml
- inpspheads : Reading pseudopotential header in XML form from
-   ../../../Psps_for_tests/ATOMICDATA/Hf.GGA_PBE-JTH.xml
- inpspheads : Reading pseudopotential header in XML form from
-   ../../../Psps_for_tests/ATOMICDATA/Br.GGA_PBE-JTH.xml

 DATASET    1 : space group I4/m m m (#139); Bravais tI (body-center tetrag.)
     intxc =       0    ionmov =       2      iscf =      17    lmnmax =      18
     lnmax =       6     mgfft =      64  mpssoang =       3    mqgrid =    3956
     natom =       9  nloc_mem =       2    nspden =       1   nspinor =       1
    nsppol =       1      nsym =      16    n1xccc =       1    ntypat =       4
    occopt =       1   xclevel =       2
-    mband =          42        mffmem =           1         mkmem =           4
       mpw =       10693          nfft =      262144          nkpt =          20
Pmy_natom=         2
 PAW method is used; the additional fine FFT grid is defined by:
   mgfftf=       100    nfftf =   1000000
  Rough estimation (10% accuracy) of disk space for files :

[...]

 DATASET   10 : space group I4/m m m (#139); Bravais tI (body-center tetrag.)
     intxc =       0    ionmov =       2      iscf =      17    lmnmax =      18
     lnmax =       6     mgfft =      64  mpssoang =       3    mqgrid =    3921
     natom =       9  nloc_mem =       2    nspden =       1   nspinor =       1
    nsppol =       1      nsym =      16    n1xccc =       1    ntypat =       4
    occopt =       1   xclevel =       2
-    mband =          42        mffmem =           1         mkmem =           4
       mpw =       10402          nfft =      262144          nkpt =          20
Pmy_natom=         2
 PAW method is used; the additional fine FFT grid is defined by:
   mgfftf=       100    nfftf =   1000000
  Rough estimation (10% accuracy) of disk space for files :

------------- Echo of variables that govern the present computation ------------
-
- outvars: echo of selected default values
-   iomode0 =  0 , fftalg0 =112 , wfoptalg0 = 10
-
- outvars: echo of global parameters not present in the input file
-  max_nthreads =    0
-
 -outvars: echo values of preprocessed input variables --------
            acell1     1.4700990452E+01  1.5026998163E+01  1.4700990452E+01 Bohr
            acell2     1.4686274746E+01  1.5011956123E+01  1.4686274746E+01 Bohr
            acell3     1.4671559040E+01  1.4996914082E+01  1.4671559040E+01 Bohr
            acell4     1.4656843333E+01  1.4981872042E+01  1.4656843333E+01 Bohr
            acell5     1.4642127627E+01  1.4966830002E+01  1.4642127627E+01 Bohr
            acell6     1.4627411921E+01  1.4951787962E+01  1.4627411921E+01 Bohr
            acell7     1.4612696215E+01  1.4936745922E+01  1.4612696215E+01 Bohr
            acell8     1.4597980509E+01  1.4921703881E+01  1.4597980509E+01 Bohr
            acell9     1.4583264803E+01  1.4906661841E+01  1.4583264803E+01 Bohr
            acell10    1.4568549096E+01  1.4891619801E+01  1.4568549096E+01 Bohr
              amu      1.32905430E+02  1.26904470E+02  1.78490000E+02
                       7.99040000E+01
           diemac      1.20000000E+01
          dilatmx      1.15000000E+00
             ecut      1.60000000E+01 Hartree
           ecutsm      5.00000000E-01 Hartree
-          fftalg         112
          getxred1          0
          getxred2         -1
          getxred3         -1
          getxred4         -1
          getxred5         -1
          getxred6         -1
          getxred7         -1
          getxred8         -1
          getxred9         -1
          getxred10        -1
           ionmov           2
              ixc     -101130
           jdtset        1    2    3    4    5    6    7    8    9   10
              kpt      0.00000000E+00 -1.25000000E-01  0.00000000E+00
                       0.00000000E+00 -3.75000000E-01  0.00000000E+00
                       1.25000000E-01 -2.50000000E-01  0.00000000E+00
                       1.25000000E-01 -1.25000000E-01  1.25000000E-01
                       1.25000000E-01  5.00000000E-01  0.00000000E+00
                       2.50000000E-01 -3.75000000E-01  0.00000000E+00
                       1.25000000E-01 -3.75000000E-01  1.25000000E-01
                       2.50000000E-01 -2.50000000E-01  1.25000000E-01
                       2.50000000E-01 -1.25000000E-01  2.50000000E-01
                       1.25000000E-01  2.50000000E-01  0.00000000E+00
                       2.50000000E-01  3.75000000E-01  0.00000000E+00
                       3.75000000E-01  5.00000000E-01  0.00000000E+00
                       1.25000000E-01  3.75000000E-01  1.25000000E-01
                       2.50000000E-01  5.00000000E-01  1.25000000E-01
                       3.75000000E-01 -3.75000000E-01  1.25000000E-01
                       2.50000000E-01 -3.75000000E-01  2.50000000E-01
                       3.75000000E-01 -2.50000000E-01  2.50000000E-01
                       3.75000000E-01 -1.25000000E-01  3.75000000E-01
                       5.00000000E-01  2.50000000E-01  1.25000000E-01
                      -3.75000000E-01  3.75000000E-01  1.25000000E-01
         kptrlatt        4    4   -4     -4    4    4      4   -4    4
          kptrlen1     8.12753477E+01
          kptrlen2     8.11939909E+01
          kptrlen3     8.11126342E+01
          kptrlen4     8.10312775E+01
          kptrlen5     8.09499208E+01
          kptrlen6     8.08685641E+01
          kptrlen7     8.07872074E+01
          kptrlen8     8.07058507E+01
          kptrlen9     8.06244940E+01
          kptrlen10    8.05431373E+01
P           mkmem           4
            natom           9
            nband          42
           ndtset          10
            ngfft          64      64      64
          ngfftdg         100     100     100
             nkpt          20
            nstep        2500
             nsym          16
            ntime        1000
           ntypat           4
              occ      2.000000  2.000000  2.000000  2.000000  2.000000  2.000000
                       2.000000  2.000000  2.000000  2.000000  2.000000  2.000000
                       2.000000  2.000000  2.000000  2.000000  2.000000  2.000000
                       2.000000  2.000000  2.000000  2.000000  2.000000  2.000000
                       2.000000  2.000000  2.000000  2.000000  2.000000  2.000000
                       2.000000  2.000000  2.000000  2.000000  2.000000  2.000000
                       0.000000  0.000000  0.000000  0.000000  0.000000  0.000000
          optcell           3
        optforces           1
        pawecutdg      4.00000000E+01 Hartree
            prtwf           0
            rprim      0.0000000000E+00  6.9107033908E-01  7.2278751126E-01
                       7.0710678119E-01  0.0000000000E+00  7.0710678119E-01
                       7.2278751126E-01  6.9107033908E-01  0.0000000000E+00
           shiftk     -5.00000000E-01  5.00000000E-01  5.00000000E-01
          spgroup         139
           symrel      1  0  0   0  1  0   0  0  1      -1  0  0   0 -1  0   0  0 -1
                       0  0 -1   0 -1  0  -1  0  0       0  0  1   0  1  0   1  0  0
                       0 -1  1   0 -1  0   1 -1  0       0  1 -1   0  1  0  -1  1  0
                      -1  1  0   0  1  0   0  1 -1       1 -1  0   0 -1  0   0 -1  1
                       0 -1  1  -1  0  1   0  0  1       0  1 -1   1  0 -1   0  0 -1
                       0  0 -1   1  0 -1   0  1 -1       0  0  1  -1  0  1   0 -1  1
                       1  0  0   1  0 -1   1 -1  0      -1  0  0  -1  0  1  -1  1  0
                      -1  1  0  -1  0  1  -1  0  0       1 -1  0   1  0 -1   1  0  0
           toldff      1.00000000E-08
           tolmxf      1.00000000E-05
            typat      1  1  4  2  2  4  2  2  3
           useylm           1
              wtk        0.03125    0.03125    0.06250    0.03125    0.06250    0.06250
                         0.03125    0.06250    0.03125    0.06250    0.06250    0.06250
                         0.03125    0.06250    0.06250    0.03125    0.06250    0.03125
                         0.06250    0.06250
           xangst1     2.8114370958E+00  2.6880663498E+00  2.8114370958E+00
                       8.4343112874E+00  8.0641990495E+00  8.4343112874E+00
                       5.6228741916E+00  8.1669644259E+00  5.6228741916E+00
                       5.6228741916E+00  5.3761326996E+00  2.8387422160E+00
                       5.6228741916E+00  5.3761326996E+00  8.4070061672E+00
                       5.6228741916E+00  2.5853009733E+00  5.6228741916E+00
                       8.4070061672E+00  5.3761326996E+00  5.6228741916E+00
                       2.8387422160E+00  5.3761326996E+00  5.6228741916E+00
                      -2.7882536979E-33  5.6922019068E-22 -2.7882536979E-33
           xangst2     2.8086228445E+00  2.6853755927E+00  2.8086228445E+00
                       8.4258685334E+00  8.0561267781E+00  8.4258685334E+00
                       5.6172456889E+00  8.1587892864E+00  5.6172456889E+00
                       5.6172456889E+00  5.3707511854E+00  2.8359006322E+00
                       5.6172456889E+00  5.3707511854E+00  8.3985907457E+00
                       5.6172456889E+00  2.5827130845E+00  5.6172456889E+00
                       8.3985907457E+00  5.3707511854E+00  5.6172456889E+00
                       2.8359006322E+00  5.3707511854E+00  5.6172456889E+00
                       0.0000000000E+00  0.0000000000E+00  0.0000000000E+00
           xangst3     2.8058085931E+00  2.6826848356E+00  2.8058085931E+00
                       8.4174257793E+00  8.0480545068E+00  8.4174257793E+00
                       5.6116171862E+00  8.1506141468E+00  5.6116171862E+00
                       5.6116171862E+00  5.3653696712E+00  2.8330590484E+00
                       5.6116171862E+00  5.3653696712E+00  8.3901753241E+00
                       5.6116171862E+00  2.5801251956E+00  5.6116171862E+00
                       8.3901753241E+00  5.3653696712E+00  5.6116171862E+00
                       2.8330590484E+00  5.3653696712E+00  5.6116171862E+00
                       0.0000000000E+00  2.8404030536E-22  2.9707654025E-22
           xangst4     2.8029943418E+00  2.6799940785E+00  2.8029943418E+00
                       8.4089830253E+00  8.0399822355E+00  8.4089830253E+00
                       5.6059886835E+00  8.1424390072E+00  5.6059886835E+00
                       5.6059886835E+00  5.3599881570E+00  2.8302174646E+00
                       5.6059886835E+00  5.3599881570E+00  8.3817599025E+00
[...]
                      -1.1391077843E-21 -8.2114376474E-22  8.6906609720E-22
           xangst7     2.7964489095E+00  2.6682973708E+00  2.7964489095E+00
                       8.3893467284E+00  8.0048921124E+00  8.3893467284E+00
                       5.5928978189E+00  8.0884242908E+00  5.5928978189E+00
                       5.5928978189E+00  5.3365947416E+00  2.8352120618E+00
                       5.5928978189E+00  5.3365947416E+00  8.3505835760E+00
                       5.5928978189E+00  2.5847651924E+00  5.5928978189E+00
                       8.3505835760E+00  5.3365947416E+00  5.5928978189E+00
                       2.8352120618E+00  5.3365947416E+00  5.5928978189E+00
                       1.2696293796E-21 -6.1172220671E-22 -2.2127777269E-22
           xangst8     2.7936381526E+00  2.6655999487E+00  2.7936381526E+00
                       8.3809144578E+00  7.9967998461E+00  8.3809144578E+00
                       5.5872763052E+00  8.0781149849E+00  5.5872763052E+00
                       5.5872763052E+00  5.3311998974E+00  2.8342029253E+00
                       5.5872763052E+00  5.3311998974E+00  8.3403496852E+00
                       5.5872763052E+00  2.5842848099E+00  5.5872763052E+00
                       8.3403496852E+00  5.3311998974E+00  5.5872763052E+00
                       2.8342029253E+00  5.3311998974E+00  5.5872763052E+00
                       6.2498684637E-21 -6.7195644507E-22 -6.1154386384E-21
           xangst9     2.7910897045E+00  2.6624020270E+00  2.7910897045E+00
                       8.3732691135E+00  7.9872060811E+00  8.3732691135E+00
                       5.5821794090E+00  8.0657839594E+00  5.5821794090E+00
                       5.5821794090E+00  5.3248040541E+00  2.8332472054E+00
                       5.5821794090E+00  5.3248040541E+00  8.3311116125E+00
                       5.5821794090E+00  2.5838241487E+00  5.5821794090E+00
                       8.3311116125E+00  5.3248040541E+00  5.5821794090E+00
                       2.8332472054E+00  5.3248040541E+00  5.5821794090E+00
                       7.5184642659E-22 -9.5597284340E-22 -2.4902752800E-21
           xangst10    2.7883157940E+00  2.6596343149E+00  2.7883157940E+00
                       8.3649473820E+00  7.9789029446E+00  8.3649473820E+00
                       5.5766315880E+00  8.0552152392E+00  5.5766315880E+00
                       5.5766315880E+00  5.3192686297E+00  2.8322358377E+00
                       5.5766315880E+00  5.3192686297E+00  8.3210273383E+00
                       5.5766315880E+00  2.5833220203E+00  5.5766315880E+00
                       8.3210273383E+00  5.3192686297E+00  5.5766315880E+00
                       2.8322358377E+00  5.3192686297E+00  5.5766315880E+00
                       1.8201961974E-21 -5.3343350844E-21 -1.2906164215E-21
            xcart1     5.3128688104E+00  5.0796658982E+00  5.3128688104E+00
                       1.5938606431E+01  1.5238997695E+01  1.5938606431E+01
                       1.0625737621E+01  1.5429029842E+01  1.0625737621E+01
                       1.0625737621E+01  1.0159331796E+01  5.3681208370E+00
                       1.0625737621E+01  1.0159331796E+01  1.5883354404E+01
                       1.0625737621E+01  4.8896337514E+00  1.0625737621E+01
                       1.5883354404E+01  1.0159331796E+01  1.0625737621E+01
                       5.3681208370E+00  1.0159331796E+01  1.0625737621E+01
                       0.0000000000E+00  0.0000000000E+00  0.0000000000E+00
            xcart2     5.3083295740E+00  5.0730919565E+00  5.3083295740E+00
                       1.5924988722E+01  1.5219275870E+01  1.5924988722E+01
                       1.0616659148E+01  1.5403694773E+01  1.0616659148E+01
                       1.0616659148E+01  1.0146183913E+01  5.3664632338E+00
                       1.0616659148E+01  1.0146183913E+01  1.5866855062E+01
                       1.0616659148E+01  4.8886730530E+00  1.0616659148E+01
                       1.5866855062E+01  1.0146183913E+01  1.0616659148E+01
                       5.3664632338E+00  1.0146183913E+01  1.0616659148E+01
                       2.7145782054E-21  1.2842565434E-21  3.5226352629E-23
            xcart3     5.3036612228E+00  5.0667653582E+00  5.3036612228E+00
                       1.5910983668E+01  1.5200296075E+01  1.5910983668E+01
                       1.0607322446E+01  1.5379267295E+01  1.0607322446E+01
                       1.0607322446E+01  1.0133530716E+01  5.3647945194E+00
                       1.0607322446E+01  1.0133530716E+01  1.5849850372E+01
                       1.0607322446E+01  4.8877941384E+00  1.0607322446E+01
                       1.5849850372E+01  1.0133530716E+01  1.0607322446E+01
                       5.3647945194E+00  1.0133530716E+01  1.0607322446E+01
                       0.0000000000E+00  0.0000000000E+00  0.0000000000E+00
            xcart4     5.2987954041E+00  5.0608163948E+00  5.2987954041E+00
                       1.5896386212E+01  1.5182449184E+01  1.5896386212E+01
                       1.0597590808E+01  1.5356316427E+01  1.0597590808E+01
                       1.0597590808E+01  1.0121632790E+01  5.3630180907E+00
                       1.0597590808E+01  1.0121632790E+01  1.5832163526E+01
                       1.0597590808E+01  4.8869491519E+00  1.0597590808E+01
                       1.5832163526E+01  1.0121632790E+01  1.0597590808E+01
                       5.3630180907E+00  1.0121632790E+01  1.0597590808E+01
                       4.0595864698E-22 -4.1769454633E-21  3.9787561415E-22
            xcart5     5.2942772343E+00  5.0542038203E+00  5.2942772343E+00
                       1.5882831703E+01  1.5162611461E+01  1.5882831703E+01
                       1.0588554469E+01  1.5330762782E+01  1.0588554469E+01
                       1.0588554469E+01  1.0108407641E+01  5.3613819058E+00
                       1.0588554469E+01  1.0108407641E+01  1.5815727032E+01
                       1.0588554469E+01  4.8860524994E+00  1.0588554469E+01
                       1.5815727032E+01  1.0108407641E+01  1.0588554469E+01
                       5.3613819058E+00  1.0108407641E+01  1.0588554469E+01
                      -2.0846126863E-21  4.6671129221E-21  3.3975297715E-22
            xcart6     5.2892036957E+00  5.0486519975E+00  5.2892036957E+00
                       1.5867611087E+01  1.5145955993E+01  1.5867611087E+01
                       1.0578407391E+01  1.5309288590E+01  1.0578407391E+01
                       1.0578407391E+01  1.0097303995E+01  5.3595408531E+00
                       1.0578407391E+01  1.0097303995E+01  1.5797273930E+01
                       1.0578407391E+01  4.8853194003E+00  1.0578407391E+01
                       1.5797273930E+01  1.0097303995E+01  1.0578407391E+01
                       5.3595408531E+00  1.0097303995E+01  1.0578407391E+01
                      -2.1526017482E-21 -1.5517368311E-21  1.6422969151E-21
            xcart7     5.2845225835E+00  5.0423512719E+00  5.2845225835E+00
                       1.5853567750E+01  1.5127053816E+01  1.5853567750E+01
                       1.0569045167E+01  1.5284906756E+01  1.0569045167E+01
                       1.0569045167E+01  1.0084702544E+01  5.3577743254E+00
                       1.0569045167E+01  1.0084702544E+01  1.5780316008E+01
                       1.0569045167E+01  4.8844983315E+00  1.0569045167E+01
                       1.5780316008E+01  1.0084702544E+01  1.0569045167E+01
                       5.3577743254E+00  1.0084702544E+01  1.0569045167E+01
                       2.3992518178E-21 -1.1559874401E-21 -4.1815438968E-22
            xcart8     5.2792110228E+00  5.0372538829E+00  5.2792110228E+00
                       1.5837633068E+01  1.5111761649E+01  1.5837633068E+01
                       1.0558422046E+01  1.5265424991E+01  1.0558422046E+01
                       1.0558422046E+01  1.0074507766E+01  5.3558673338E+00
                       1.0558422046E+01  1.0074507766E+01  1.5760976758E+01
                       1.0558422046E+01  4.8835905401E+00  1.0558422046E+01
                       1.5760976758E+01  1.0074507766E+01  1.0558422046E+01
                       5.3558673338E+00  1.0074507766E+01  1.0558422046E+01
                       1.1810539763E-20 -1.2698136544E-21 -1.1556504209E-20
            xcart9     5.2743951538E+00  5.0312106867E+00  5.2743951538E+00
                       1.5823185461E+01  1.5093632060E+01  1.5823185461E+01
                       1.0548790308E+01  1.5242122730E+01  1.0548790308E+01
                       1.0548790308E+01  1.0062421373E+01  5.3540612850E+00
                       1.0548790308E+01  1.0062421373E+01  1.5743519330E+01
                       1.0548790308E+01  4.8827200166E+00  1.0548790308E+01
                       1.5743519330E+01  1.0062421373E+01  1.0548790308E+01
                       5.3540612850E+00  1.0062421373E+01  1.0548790308E+01
                       1.4207838402E-21 -1.8065268645E-21 -4.7059382747E-21
            xcart10    5.2691532227E+00  5.0259804687E+00  5.2691532227E+00
                       1.5807459668E+01  1.5077941406E+01  1.5807459668E+01
                       1.0538306445E+01  1.5222150744E+01  1.0538306445E+01
                       1.0538306445E+01  1.0051960937E+01  5.3521500770E+00
                       1.0538306445E+01  1.0051960937E+01  1.5724462814E+01
                       1.0538306445E+01  4.8817711314E+00  1.0538306445E+01
                       1.5724462814E+01  1.0051960937E+01  1.0538306445E+01
                       5.3521500770E+00  1.0051960937E+01  1.0538306445E+01
                       3.4396723212E-21 -1.0080432411E-20 -2.4389115793E-21
             xred1     2.5000000000E-01  2.5000000000E-01  2.5000000000E-01
                       7.5000000000E-01  7.5000000000E-01  7.5000000000E-01
                       7.5935259083E-01  2.4064740917E-01  7.5935259083E-01
                       2.5259991488E-01  2.5259991488E-01  7.4740008512E-01
                       7.4740008512E-01  7.4740008512E-01  2.5259991488E-01
                       2.4064740917E-01  7.5935259083E-01  2.4064740917E-01
                       2.5259991488E-01  7.4740008512E-01  7.4740008512E-01
                       7.4740008512E-01  2.5259991488E-01  2.5259991488E-01
                       0.0000000000E+00  0.0000000000E+00  0.0000000000E+00
             xred2     2.5000000000E-01  2.5000000000E-01  2.5000000000E-01
                       7.5000000000E-01  7.5000000000E-01  7.5000000000E-01
                       7.5908809189E-01  2.4091190811E-01  7.5908809189E-01
                       2.5273785091E-01  2.5273785091E-01  7.4726214909E-01
                       7.4726214909E-01  7.4726214909E-01  2.5273785091E-01
                       2.4091190811E-01  7.5908809189E-01  2.4091190811E-01
                       2.5273785091E-01  7.4726214909E-01  7.4726214909E-01
                       7.4726214909E-01  2.5273785091E-01  2.5273785091E-01
                      -6.2898541537E-23  6.6216567682E-23  1.8947386823E-22
             xred3     2.5000000000E-01  2.5000000000E-01  2.5000000000E-01
                       7.5000000000E-01  7.5000000000E-01  7.5000000000E-01
                       7.5883064476E-01  2.4116935524E-01  7.5883064476E-01
                       2.5288165543E-01  2.5288165543E-01  7.4711834457E-01
                       7.4711834457E-01  7.4711834457E-01  2.5288165543E-01
                       2.4116935524E-01  7.5883064476E-01  2.4116935524E-01
                       2.5288165543E-01  7.4711834457E-01  7.4711834457E-01
                       7.4711834457E-01  2.5288165543E-01  2.5288165543E-01
                       0.0000000000E+00  0.0000000000E+00  0.0000000000E+00
             xred4     2.5000000000E-01  2.5000000000E-01  2.5000000000E-01
                       7.5000000000E-01  7.5000000000E-01  7.5000000000E-01
                       7.5858889304E-01  2.4141110696E-01  7.5858889304E-01
                       2.5303006069E-01  2.5303006069E-01  7.4696993931E-01
                       7.4696993931E-01  7.4696993931E-01  2.5303006069E-01
                       2.4141110696E-01  7.5858889304E-01  2.4141110696E-01
                       2.5303006069E-01  7.4696993931E-01  7.4696993931E-01
                       7.4696993931E-01  2.5303006069E-01  2.5303006069E-01
                      -2.0671889401E-22  2.4426286238E-22 -2.0595617039E-22
             xred5     2.5000000000E-01  2.5000000000E-01  2.5000000000E-01
                       7.5000000000E-01  7.5000000000E-01  7.5000000000E-01
                       7.5831739908E-01  2.4168260092E-01  7.5831739908E-01
                       2.5316873619E-01  2.5316873619E-01  7.4683126381E-01
                       7.4683126381E-01  7.4683126381E-01  2.5316873619E-01
                       2.4168260092E-01  7.5831739908E-01  2.4168260092E-01
                       2.5316873619E-01  7.4683126381E-01  7.4683126381E-01
                       7.4683126381E-01  2.5316873619E-01  2.5316873619E-01
                       3.4533350613E-22 -3.1324669219E-22  1.1637253978E-22
             xred6     2.5000000000E-01  2.5000000000E-01  2.5000000000E-01
                       7.5000000000E-01  7.5000000000E-01  7.5000000000E-01
                       7.5808793106E-01  2.4191206894E-01  7.5808793106E-01
                       2.5332456271E-01  2.5332456271E-01  7.4667543729E-01
                       7.4667543729E-01  7.4667543729E-01  2.5332456271E-01
                       2.4191206894E-01  7.5808793106E-01  2.4191206894E-01
                       2.5332456271E-01  7.4667543729E-01  7.4667543729E-01
                       7.4667543729E-01  2.5332456271E-01  2.5332456271E-01
                       1.0253087184E-22  5.2719049475E-23 -2.5620920338E-22
             xred7     2.5000000000E-01  2.5000000000E-01  2.5000000000E-01
                       7.5000000000E-01  7.5000000000E-01  7.5000000000E-01
                       7.5782635580E-01  2.4217364420E-01  7.5782635580E-01
                       2.5346539071E-01  2.5346539071E-01  7.4653460929E-01
                       7.4653460929E-01  7.4653460929E-01  2.5346539071E-01
                       2.4217364420E-01  7.5782635580E-01  2.4217364420E-01
                       2.5346539071E-01  7.4653460929E-01  7.4653460929E-01
                       7.4653460929E-01  2.5346539071E-01  2.5346539071E-01
                      -1.9059965785E-22  1.5103559288E-22  7.5971840612E-23
             xred8     2.5000000000E-01  2.5000000000E-01  2.5000000000E-01
                       7.5000000000E-01  7.5000000000E-01  7.5000000000E-01
                       7.5762634495E-01  2.4237365505E-01  7.5762634495E-01
                       2.5363010262E-01  2.5363010262E-01  7.4636989738E-01
                       7.4636989738E-01  7.4636989738E-01  2.5363010262E-01
                       2.4237365505E-01  7.5762634495E-01  2.4237365505E-01
                       2.5363010262E-01  7.4636989738E-01  7.4636989738E-01
                       7.4636989738E-01  2.5363010262E-01  2.5363010262E-01
                      -1.1695806043E-21  7.5051122569E-23  1.0435383515E-21
             xred9     2.5000000000E-01  2.5000000000E-01  2.5000000000E-01
                       7.5000000000E-01  7.5000000000E-01  7.5000000000E-01
                       7.5737847605E-01  2.4262152395E-01  7.5737847605E-01
                       2.5377607900E-01  2.5377607900E-01  7.4622392100E-01
                       7.4622392100E-01  7.4622392100E-01  2.5377607900E-01
                       2.4262152395E-01  7.5737847605E-01  2.4262152395E-01
                       2.5377607900E-01  7.4622392100E-01  7.4622392100E-01
                       7.4622392100E-01  2.5377607900E-01  2.5377607900E-01
                      -3.8016528645E-22 -6.5946365920E-23  2.0063326355E-22
             xred10    2.5000000000E-01  2.5000000000E-01  2.5000000000E-01
                       7.5000000000E-01  7.5000000000E-01  7.5000000000E-01
                       7.5717319428E-01  2.4282680572E-01  7.5717319428E-01
                       2.5393786491E-01  2.5393786491E-01  7.4606213509E-01
                       7.4606213509E-01  7.4606213509E-01  2.5393786491E-01
                       2.4282680572E-01  7.5717319428E-01  2.4282680572E-01
                       2.5393786491E-01  7.4606213509E-01  7.4606213509E-01
                       7.4606213509E-01  2.5393786491E-01  2.5393786491E-01
                      -7.8033123461E-22  5.4889826272E-22 -2.2250119512E-22
            znucl       55.00000   53.00000   72.00000   35.00000

- Timing analysis has been suppressed with timopt=0

 Suggested references for the acknowledgment of ABINIT usage.

 Calculation completed.
.Delivered   0 WARNINGs and 108 COMMENTs to log file.