.Version 9.2.2 of ABINIT

 ABINIT is a project of the Universite Catholique de Louvain,
 Corning Inc. and other collaborators, see ~abinit/doc/developers/contributors.txt .
 acknowledgments of the ABINIT effort.

.Starting date : Thu 20 Oct 2022.
- ( at 02h08 )

- input  file    -> Cs2TiI6.in
- output file    -> Cs2TiI6.out
- root for input  files -> Cs2TiI6i
- root for output files -> Cs2TiI6o

- inpspheads : Reading pseudopotential header in XML form from
-   ../../../Psps_for_tests/ATOMICDATA/Cs.GGA_PBE-JTH.xml
- inpspheads : Reading pseudopotential header in XML form from
-   ../../../Psps_for_tests/ATOMICDATA/I.GGA_PBE-JTH.xml
- inpspheads : Reading pseudopotential header in XML form from
-   ../../../Psps_for_tests/ATOMICDATA/Hf.GGA_PBE-JTH.xml
- inpspheads : Reading pseudopotential header in XML form from
-   ../../../Psps_for_tests/ATOMICDATA/Br.GGA_PBE-JTH.xml

 DATASET    1 : space group I4/m m m (#139); Bravais tI (body-center tetrag.)
     intxc =       0    ionmov =       2      iscf =      17    lmnmax =      18
     lnmax =       6     mgfft =      64  mpssoang =       3    mqgrid =    4078
     natom =       9  nloc_mem =       2    nspden =       1   nspinor =       1
    nsppol =       1      nsym =      16    n1xccc =       1    ntypat =       4
    occopt =       1   xclevel =       2
-    mband =          42        mffmem =           1         mkmem =           5
       mpw =       11709          nfft =      262144          nkpt =          20
Pmy_natom=         3
 PAW method is used; the additional fine FFT grid is defined by:
   mgfftf=       100    nfftf =   1000000
  Rough estimation (10% accuracy) of disk space for files :

[...]

 DATASET   10 : space group I4/m m m (#139); Bravais tI (body-center tetrag.)
     intxc =       0    ionmov =       2      iscf =      17    lmnmax =      18
     lnmax =       6     mgfft =      60  mpssoang =       3    mqgrid =    3707
     natom =       9  nloc_mem =       2    nspden =       1   nspinor =       1
    nsppol =       1      nsym =      16    n1xccc =       1    ntypat =       4
    occopt =       1   xclevel =       2
-    mband =          42        mffmem =           1         mkmem =           5
       mpw =        8790          nfft =      216000          nkpt =          20
Pmy_natom=         3
 PAW method is used; the additional fine FFT grid is defined by:
   mgfftf=        96    nfftf =    884736
  Rough estimation (10% accuracy) of disk space for files :

------------- Echo of variables that govern the present computation ------------
-
- outvars: echo of selected default values
-   iomode0 =  0 , fftalg0 =112 , wfoptalg0 = 10
-
- outvars: echo of global parameters not present in the input file
-  max_nthreads =    0
-
 -outvars: echo values of preprocessed input variables --------
            acell1     1.5252849934E+01  1.5250906080E+01  1.5252849934E+01 Bohr
            acell2     1.5098780743E+01  1.5096856523E+01  1.5098780743E+01 Bohr
            acell3     1.4944711551E+01  1.4942806967E+01  1.4944711551E+01 Bohr
            acell4     1.4790642360E+01  1.4788757411E+01  1.4790642360E+01 Bohr
            acell5     1.4636573169E+01  1.4634707854E+01  1.4636573169E+01 Bohr
            acell6     1.4482503978E+01  1.4480658298E+01  1.4482503978E+01 Bohr
            acell7     1.4328434786E+01  1.4326608741E+01  1.4328434786E+01 Bohr
            acell8     1.4174365595E+01  1.4172559185E+01  1.4174365595E+01 Bohr
            acell9     1.4020296404E+01  1.4018509629E+01  1.4020296404E+01 Bohr
            acell10    1.3866227213E+01  1.3864460072E+01  1.3866227213E+01 Bohr
              amu      1.32905430E+02  1.26904470E+02  1.78490000E+02
                       7.99040000E+01
           diemac      1.20000000E+01
          dilatmx      1.15000000E+00
             ecut      1.60000000E+01 Hartree
           ecutsm      5.00000000E-01 Hartree
-          fftalg         112
          getxred1          0
          getxred2         -1
          getxred3         -1
          getxred4         -1
          getxred5         -1
          getxred6         -1
          getxred7         -1
          getxred8         -1
          getxred9         -1
          getxred10        -1
           ionmov           2
              ixc     -101130
           jdtset        1    2    3    4    5    6    7    8    9   10
              kpt     -1.25000000E-01 -2.50000000E-01  0.00000000E+00
                      -1.25000000E-01  5.00000000E-01  0.00000000E+00
                      -2.50000000E-01 -3.75000000E-01  0.00000000E+00
                      -1.25000000E-01 -3.75000000E-01  1.25000000E-01
                      -3.75000000E-01 -1.25000000E-01  1.25000000E-01
                      -1.25000000E-01  2.50000000E-01  0.00000000E+00
                      -2.50000000E-01  3.75000000E-01  0.00000000E+00
                      -3.75000000E-01  5.00000000E-01  0.00000000E+00
                      -2.50000000E-01  5.00000000E-01  1.25000000E-01
                       5.00000000E-01 -2.50000000E-01  1.25000000E-01
                       3.75000000E-01 -1.25000000E-01  1.25000000E-01
                       5.00000000E-01 -1.25000000E-01  2.50000000E-01
                      -1.25000000E-01  0.00000000E+00  0.00000000E+00
                       1.25000000E-01 -1.25000000E-01  1.25000000E-01
                       2.50000000E-01 -1.25000000E-01  2.50000000E-01
                       3.75000000E-01 -1.25000000E-01  3.75000000E-01
                      -3.75000000E-01  0.00000000E+00  0.00000000E+00
                      -2.50000000E-01  0.00000000E+00  1.25000000E-01
                       1.25000000E-01 -3.75000000E-01  1.25000000E-01
                       2.50000000E-01 -3.75000000E-01  2.50000000E-01
         kptrlatt        4   -4    4     -4    4    4     -4   -4    4
          kptrlen1     8.62721529E+01
          kptrlen2     8.54007170E+01
          kptrlen3     8.45292811E+01
          kptrlen4     8.36578452E+01
          kptrlen5     8.27864093E+01
          kptrlen6     8.19149734E+01
          kptrlen7     8.10435375E+01
          kptrlen8     8.01721017E+01
          kptrlen9     7.93006658E+01
          kptrlen10    7.84292299E+01
P           mkmem           5
            natom           9
            nband          42
           ndtset          10
            ngfft1         64      64      64
            ngfft2         64      64      64
            ngfft3         64      64      64
            ngfft4         64      64      64
            ngfft5         64      64      64
            ngfft6         60      60      60
            ngfft7         60      60      60
            ngfft8         60      60      60
            ngfft9         60      60      60
            ngfft10        60      60      60
          ngfftdg1        100     100     100
          ngfftdg2        100     100     100
          ngfftdg3        100     100     100
          ngfftdg4        100     100     100
          ngfftdg5         96      96      96
          ngfftdg6         96      96      96
          ngfftdg7         96      96      96
          ngfftdg8         96      96      96
          ngfftdg9         96      96      96
          ngfftdg10        96      96      96
             nkpt          20
            nstep        2500
             nsym          16
            ntime        1000
           ntypat           4
              occ      2.000000  2.000000  2.000000  2.000000  2.000000  2.000000
                       2.000000  2.000000  2.000000  2.000000  2.000000  2.000000
                       2.000000  2.000000  2.000000  2.000000  2.000000  2.000000
                       2.000000  2.000000  2.000000  2.000000  2.000000  2.000000
                       2.000000  2.000000  2.000000  2.000000  2.000000  2.000000
                       2.000000  2.000000  2.000000  2.000000  2.000000  2.000000
                       0.000000  0.000000  0.000000  0.000000  0.000000  0.000000
          optcell           3
        optforces           1
        pawecutdg      4.00000000E+01 Hartree
            prtwf           0
            rprim      0.0000000000E+00  7.0719688479E-01  7.0701666610E-01
                       7.0710678119E-01  0.0000000000E+00  7.0710678119E-01
                       7.0701666610E-01  7.0719688479E-01  0.0000000000E+00
           shiftk      5.00000000E-01  5.00000000E-01  5.00000000E-01
          spgroup         139
           symrel      1  0  0   0  1  0   0  0  1      -1  0  0   0 -1  0   0  0 -1
                       0  0 -1   0 -1  0  -1  0  0       0  0  1   0  1  0   1  0  0
                       0 -1  1   0 -1  0   1 -1  0       0  1 -1   0  1  0  -1  1  0
                      -1  1  0   0  1  0   0  1 -1       1 -1  0   0 -1  0   0 -1  1
                       0 -1  1  -1  0  1   0  0  1       0  1 -1   1  0 -1   0  0 -1
                       0  0 -1   1  0 -1   0  1 -1       0  0  1  -1  0  1   0 -1  1
                       1  0  0   1  0 -1   1 -1  0      -1  0  0  -1  0  1  -1  1  0
                      -1  1  0  -1  0  1  -1  0  0       1 -1  0   1  0 -1   1  0  0
           toldff      1.00000000E-08
           tolmxf      1.00000000E-06
            typat      1  1  2  4  4  2  4  4  3
           useylm           1
              wtk        0.06250    0.06250    0.06250    0.06250    0.06250    0.06250
                         0.06250    0.06250    0.06250    0.06250    0.06250    0.06250
                         0.03125    0.03125    0.03125    0.03125    0.03125    0.03125
                         0.03125    0.03125
           xangst1     2.8533285646E+00  2.8540558787E+00  2.8533285646E+00
                       8.5599856938E+00  8.5621676360E+00  8.5599856938E+00
                       5.7066571293E+00  8.5589825859E+00  5.7066571293E+00
                       5.7066571293E+00  5.7081117574E+00  2.5923526265E+00
                       5.7066571291E+00  5.7081117574E+00  8.8209616319E+00
                       5.7066571291E+00  2.8572409288E+00  5.7066571291E+00
                       8.8209616319E+00  5.7081117574E+00  5.7066571291E+00
                       2.5923526265E+00  5.7081117574E+00  5.7066571293E+00
                       5.6489945350E-22  1.0035447783E-22 -7.8167144638E-23
           xangst2     2.8245070639E+00  2.8252270314E+00  2.8245070639E+00
                       8.4735211918E+00  8.4756810943E+00  8.4735211918E+00
                       5.6490141279E+00  8.4725282164E+00  5.6490141279E+00
                       5.6490141280E+00  5.6504540628E+00  2.5661672465E+00
                       5.6490141278E+00  5.6504540628E+00  8.7318610093E+00
                       5.6490141278E+00  2.8283799093E+00  5.6490141278E+00
                       8.7318610093E+00  5.6504540628E+00  5.6490141278E+00
                       2.5661672465E+00  5.6504540628E+00  5.6490141280E+00
                       5.5919339842E-22  9.9340796233E-23 -7.7377577521E-23
           xangst3     2.7956855633E+00  2.7963981842E+00  2.7956855633E+00
                       8.3870566899E+00  8.3891945525E+00  8.3870566899E+00
                       5.5913711266E+00  8.3860738468E+00  5.5913711266E+00
[...]
                       5.3749106922E-22  9.4888708714E-23 -7.4374549115E-23
           xangst7     2.6841189284E+00  2.6736576220E+00  2.6841189284E+00
                       8.0523567853E+00  8.0209728661E+00  8.0523567853E+00
                       5.3682378569E+00  7.8670847487E+00  5.3682378569E+00
                       5.3682378569E+00  5.3473152440E+00  2.5956442906E+00
                       5.3682378568E+00  5.3473152440E+00  8.1408314231E+00
                       5.3682378568E+00  2.8275457394E+00  5.3682378568E+00
                       8.1408314231E+00  5.3473152440E+00  5.3682378568E+00
                       2.5956442906E+00  5.3473152440E+00  5.3682378569E+00
                       3.1898252057E-22  2.0110230739E-22 -1.4649446507E-22
           xangst8     2.6530076512E+00  2.6493963479E+00  2.6530076512E+00
                       7.9590229536E+00  7.9481890438E+00  7.9590229536E+00
                       5.3060153025E+00  7.7826999695E+00  5.3060153025E+00
                       5.3060153025E+00  5.2987926958E+00  2.5891368283E+00
                       5.3060153023E+00  5.2987926958E+00  8.0228937765E+00
                       5.3060153023E+00  2.8148854222E+00  5.3060153023E+00
                       8.0228937765E+00  5.2987926958E+00  5.3060153023E+00
                       2.5891368283E+00  5.2987926958E+00  5.3060153025E+00
                      -1.6158933745E-22 -7.8337705286E-22 -2.3654770445E-21
           xangst9     2.6215391178E+00  2.6258623013E+00  2.6215391178E+00
                       7.8646173533E+00  7.8775869039E+00  7.8646173533E+00
                       5.2430782356E+00  7.7025177883E+00  5.2430782356E+00
                       5.2430782356E+00  5.2517246026E+00  2.5815276511E+00
                       5.2430782355E+00  5.2517246026E+00  7.9046288200E+00
                       5.2430782355E+00  2.8009314168E+00  5.2430782355E+00
                       7.9046288200E+00  5.2517246026E+00  5.2430782355E+00
                       2.5815276511E+00  5.2517246026E+00  5.2430782356E+00
                       7.8576162715E-22 -2.1868441629E-22  1.4584553883E-21
           xangst10    2.5898756424E+00  2.6027362587E+00  2.5898756424E+00
                       7.7696269272E+00  7.8082087762E+00  7.7696269272E+00
                       5.1797512848E+00  7.6253058957E+00  5.1797512848E+00
                       5.1797512848E+00  5.2054725175E+00  2.5728011018E+00
                       5.1797512847E+00  5.2054725175E+00  7.7867014677E+00
                       5.1797512847E+00  2.7856391393E+00  5.1797512847E+00
                       7.7867014677E+00  5.2054725175E+00  5.1797512847E+00
                       2.5728011018E+00  5.2054725175E+00  5.1797512848E+00
                      -5.2996565477E-21 -2.6932731232E-21  6.7521593802E-21
            xcart1     5.3985985710E+00  5.3802267082E+00  5.3985985710E+00
                       1.6195795713E+01  1.6140680125E+01  1.6195795713E+01
                       1.0797197142E+01  1.6077681732E+01  1.0797197142E+01
                       1.0797197142E+01  1.0760453416E+01  4.9454805443E+00
                       1.0797197142E+01  1.0760453416E+01  1.6648913740E+01
                       1.0797197142E+01  5.4432251011E+00  1.0797197142E+01
                       1.6648913740E+01  1.0760453416E+01  1.0797197142E+01
                       4.9454805443E+00  1.0760453416E+01  1.0797197142E+01
                       6.4887354876E-22  1.1742885882E-21 -3.1764218490E-21
            xcart2     5.3477271470E+00  5.3185936310E+00  5.3477271470E+00
                       1.6043181441E+01  1.5955780893E+01  1.6043181441E+01
                       1.0695454294E+01  1.5843630252E+01  1.0695454294E+01
                       1.0695454294E+01  1.0637187262E+01  4.9420457766E+00
                       1.0695454294E+01  1.0637187262E+01  1.6448862812E+01
                       1.0695454294E+01  5.4307442717E+00  1.0695454294E+01
                       1.6448862812E+01  1.0637187262E+01  1.0695454294E+01
                       4.9420457766E+00  1.0637187262E+01  1.0695454294E+01
                       1.9708899547E-21 -9.3046247914E-22  1.1401278948E-20
            xcart3     5.2951337089E+00  5.2603955743E+00  5.2951337089E+00
                       1.5885401127E+01  1.5781186723E+01  1.5885401127E+01
                       1.0590267418E+01  1.5624579664E+01  1.0590267418E+01
                       1.0590267418E+01  1.0520791149E+01  4.9375832597E+00
                       1.0590267418E+01  1.0520791149E+01  1.6242951576E+01
                       1.0590267418E+01  5.4170026332E+00  1.0590267418E+01
                       1.6242951576E+01  1.0520791149E+01  1.0590267418E+01
                       4.9375832597E+00  1.0520791149E+01  1.0590267418E+01
                       5.5064501526E-21 -3.4196001539E-21  1.0553271409E-21
            xcart4     5.2423870616E+00  5.2025060746E+00  5.2423870616E+00
                       1.5727161185E+01  1.5607518224E+01  1.5727161185E+01
                       1.0484774123E+01  1.5408368407E+01  1.0484774123E+01
                       1.0484774123E+01  1.0405012149E+01  4.9315025690E+00
                       1.0484774123E+01  1.0405012149E+01  1.6038045677E+01
                       1.0484774123E+01  5.4016558914E+00  1.0484774123E+01
                       1.6038045677E+01  1.0405012149E+01  1.0484774123E+01
                       4.9315025690E+00  1.0405012149E+01  1.0484774123E+01
                       6.1040628707E-21 -7.3557064785E-23  8.8618004588E-22
            xcart5     5.1862548490E+00  5.1513394769E+00  5.1862548490E+00
                       1.5558764547E+01  1.5454018431E+01  1.5558764547E+01
                       1.0372509698E+01  1.5220912782E+01  1.0372509698E+01
                       1.0372509698E+01  1.0302678954E+01  4.9243170205E+00
                       1.0372509698E+01  1.0302678954E+01  1.5820702375E+01
                       1.0372509698E+01  5.3844451254E+00  1.0372509698E+01
                       1.5820702375E+01  1.0302678954E+01  1.0372509698E+01
                       4.9243170205E+00  1.0302678954E+01  1.0372509698E+01
                       7.5236185228E-21 -1.0771683141E-20  6.4456321405E-21
            xcart6     5.1303943783E+00  5.0996353368E+00  5.1303943783E+00
                       1.5391183135E+01  1.5298906010E+01  1.5391183135E+01
                       1.0260788757E+01  1.5033603313E+01  1.0260788757E+01
                       1.0260788757E+01  1.0199270674E+01  4.9156512977E+00
                       1.0260788756E+01  1.0199270674E+01  1.5605926215E+01
                       1.0260788756E+01  5.3649380341E+00  1.0260788756E+01
                       1.5605926215E+01  1.0199270674E+01  1.0260788756E+01
                       4.9156512977E+00  1.0199270674E+01  1.0260788757E+01
                       1.0157109197E-21  1.7931367257E-22 -1.4054752908E-22
            xcart7     5.0722496828E+00  5.0524806787E+00  5.0722496828E+00
                       1.5216749048E+01  1.5157442036E+01  1.5216749048E+01
                       1.0144499366E+01  1.4866635639E+01  1.0144499366E+01
                       1.0144499366E+01  1.0104961357E+01  4.9050568476E+00
                       1.0144499365E+01  1.0104961357E+01  1.5383941884E+01
                       1.0144499366E+01  5.3432870757E+00  1.0144499366E+01
                       1.5383941884E+01  1.0104961357E+01  1.0144499365E+01
                       4.9050568476E+00  1.0104961357E+01  1.0144499366E+01
                       6.0278960505E-22  3.8002828566E-22 -2.7683441896E-22
            xcart8     5.0134578892E+00  5.0066335150E+00  5.0134578892E+00
                       1.5040373668E+01  1.5019900545E+01  1.5040373668E+01
                       1.0026915779E+01  1.4707171517E+01  1.0026915779E+01
                       1.0026915779E+01  1.0013267030E+01  4.8927595260E+00
                       1.0026915778E+01  1.0013267030E+01  1.5161072031E+01
                       1.0026915778E+01  5.3193625434E+00  1.0026915778E+01
                       1.5161072031E+01  1.0013267030E+01  1.0026915778E+01
                       4.8927595260E+00  1.0013267030E+01  1.0026915779E+01
                      -3.0535959377E-22 -1.4803680887E-21 -4.4701037878E-21
            xcart9     4.9539909792E+00  4.9621606121E+00  4.9539909792E+00
                       1.4861972938E+01  1.4886481836E+01  1.4861972938E+01
                       9.9079819586E+00  1.4555649154E+01  9.9079819586E+00
                       9.9079819586E+00  9.9243212242E+00  4.8783802650E+00
                       9.9079819584E+00  9.9243212242E+00  1.4937583652E+01
                       9.9079819584E+00  5.2929932948E+00  9.9079819584E+00
                       1.4937583652E+01  9.9243212242E+00  9.9079819584E+00
                       4.8783802650E+00  9.9243212242E+00  9.9079819586E+00
                       1.4848742810E-21 -4.1325365631E-22  2.7560812610E-21
            xcart10    4.8941556823E+00  4.9184587252E+00  4.8941556823E+00
                       1.4682467047E+01  1.4755376175E+01  1.4682467047E+01
                       9.7883113648E+00  1.4409739822E+01  9.7883113648E+00
                       9.7883113648E+00  9.8369174503E+00  4.8618894769E+00
                       9.7883113646E+00  9.8369174503E+00  1.4714733253E+01
                       9.7883113646E+00  5.2640950783E+00  9.7883113646E+00
                       1.4714733253E+01  9.8369174503E+00  9.7883113646E+00
                       4.8618894769E+00  9.8369174503E+00  9.7883113648E+00
                      -1.0014899474E-20 -5.0895486040E-21  1.2759732034E-20
             xred1     2.5000000000E-01  2.5000000000E-01  2.5000000000E-01
                       7.5000000000E-01  7.5000000000E-01  7.5000000000E-01
                       7.4707268874E-01  2.5292731126E-01  7.4707268874E-01
                       2.2901686795E-01  2.2901686795E-01  7.7098313205E-01
                       7.7098313205E-01  7.7098313205E-01  2.2901686795E-01
                       2.5292731126E-01  7.4707268874E-01  2.5292731126E-01
                       2.2901686795E-01  7.7098313205E-01  7.7098313205E-01
                       7.7098313205E-01  2.2901686795E-01  2.2901686795E-01
                      -1.2257796773E-22 -1.7161151564E-22  2.3170799625E-22
             xred2     2.5000000000E-01  2.5000000000E-01  2.5000000000E-01
                       7.5000000000E-01  7.5000000000E-01  7.5000000000E-01
                       7.4472836954E-01  2.5527163046E-01  7.4472836954E-01
                       2.3103486961E-01  2.3103486961E-01  7.6896513039E-01
                       7.6896513039E-01  7.6896513039E-01  2.3103486961E-01
                       2.5527163046E-01  7.4472836954E-01  2.5527163046E-01
                       2.3103486961E-01  7.6896513039E-01  7.6896513039E-01
                       7.6896513039E-01  2.3103486961E-01  2.3103486961E-01
                       3.9712337183E-22  6.6886958507E-22 -4.8459597678E-22
             xred3     2.5000000000E-01  2.5000000000E-01  2.5000000000E-01
                       7.5000000000E-01  7.5000000000E-01  7.5000000000E-01
                       7.4255725845E-01  2.5744274155E-01  7.4255725845E-01
                       2.3311891310E-01  2.3311891310E-01  7.6688108690E-01
                       7.6688108690E-01  7.6688108690E-01  2.3311891310E-01
                       2.5744274155E-01  7.4255725845E-01  2.5744274155E-01
                       2.3311891310E-01  7.6688108690E-01  7.6688108690E-01
                       7.6688108690E-01  2.3311891310E-01  2.3311891310E-01
                      -3.7266788963E-22  4.7231854994E-22  4.7635284605E-23
             xred4     2.5000000000E-01  2.5000000000E-01  2.5000000000E-01
                       7.5000000000E-01  7.5000000000E-01  7.5000000000E-01
                       7.4043010167E-01  2.5956989833E-01  7.4043010167E-01
                       2.3517447830E-01  2.3517447830E-01  7.6482552170E-01
                       7.6482552170E-01  7.6482552170E-01  2.3517447830E-01
                       2.5956989833E-01  7.4043010167E-01  2.5956989833E-01
                       2.3517447830E-01  7.6482552170E-01  7.6482552170E-01
                       7.6482552170E-01  2.3517447830E-01  2.3517447830E-01
                      -2.5236613091E-22  3.3688679254E-22  2.4529674322E-22
             xred5     2.5000000000E-01  2.5000000000E-01  2.5000000000E-01
                       7.5000000000E-01  7.5000000000E-01  7.5000000000E-01
                       7.3868713422E-01  2.6131286578E-01  7.3868713422E-01
                       2.3737345946E-01  2.3737345946E-01  7.6262654054E-01
                       7.6262654054E-01  7.6262654054E-01  2.3737345946E-01
                       2.6131286578E-01  7.3868713422E-01  2.6131286578E-01
                       2.3737345946E-01  7.6262654054E-01  7.6262654054E-01
                       7.6262654054E-01  2.3737345946E-01  2.3737345946E-01
                      -5.7472489725E-22  1.1961398034E-21 -4.7079764978E-22
             xred6     2.5000000000E-01  2.5000000000E-01  2.5000000000E-01
                       7.5000000000E-01  7.5000000000E-01  7.5000000000E-01
                       7.3699403586E-01  2.6300596414E-01  7.3699403586E-01
                       2.3953574205E-01  2.3953574205E-01  7.6046425795E-01
                       7.6046425795E-01  7.6046425795E-01  2.3953574205E-01
                       2.6300596414E-01  7.3699403586E-01  2.6300596414E-01
                       2.3953574205E-01  7.6046425795E-01  7.6046425795E-01
                       7.6046425795E-01  2.3953574205E-01  2.3953574205E-01
                      -4.7553031650E-23  3.3855495096E-23  6.5134060560E-23
             xred7     2.5000000000E-01  2.5000000000E-01  2.5000000000E-01
                       7.5000000000E-01  7.5000000000E-01  7.5000000000E-01
                       7.3561071207E-01  2.6438928793E-01  7.3561071207E-01
                       2.4175943390E-01  2.4175943390E-01  7.5824056610E-01
                       7.5824056610E-01  7.5824056610E-01  2.4175943390E-01
                       2.6438928793E-01  7.3561071207E-01  2.6438928793E-01
                       2.4175943390E-01  7.5824056610E-01  7.5824056610E-01
                       7.5824056610E-01  2.4175943390E-01  2.4175943390E-01
                      -2.4550683649E-23 -2.7384322530E-24  6.2158772608E-23
             xred8     2.5000000000E-01  2.5000000000E-01  2.5000000000E-01
                       7.5000000000E-01  7.5000000000E-01  7.5000000000E-01
                       7.3438426603E-01  2.6561573397E-01  7.3438426603E-01
                       2.4398128169E-01  2.4398128169E-01  7.5601871831E-01
                       7.5601871831E-01  7.5601871831E-01  2.4398128169E-01
                       2.6561573397E-01  7.3438426603E-01  2.6561573397E-01
                       2.4398128169E-01  7.5601871831E-01  7.5601871831E-01
                       7.5601871831E-01  2.4398128169E-01  2.4398128169E-01
                      -2.8159856169E-22 -1.6421188357E-22  1.3375789348E-22
             xred9     2.5000000000E-01  2.5000000000E-01  2.5000000000E-01
                       7.5000000000E-01  7.5000000000E-01  7.5000000000E-01
                       7.3333222619E-01  2.6666777381E-01  7.3333222619E-01
                       2.4618435346E-01  2.4618435346E-01  7.5381564654E-01
                       7.5381564654E-01  7.5381564654E-01  2.4618435346E-01
                       2.6666777381E-01  7.3333222619E-01  2.6666777381E-01
                       2.4618435346E-01  7.5381564654E-01  7.5381564654E-01
                       7.5381564654E-01  2.4618435346E-01  2.4618435346E-01
                       4.3330402817E-23  2.3483736864E-22 -8.4970898623E-23
             xred10    2.5000000000E-01  2.5000000000E-01  2.5000000000E-01
                       7.5000000000E-01  7.5000000000E-01  7.5000000000E-01
                       7.3243167360E-01  2.6756832640E-01  7.3243167360E-01
                       2.4835179919E-01  2.4835179919E-01  7.5164820081E-01
                       7.5164820081E-01  7.5164820081E-01  2.4835179919E-01
                       2.6756832640E-01  7.3243167360E-01  2.6756832640E-01
                       2.4835179919E-01  7.5164820081E-01  7.5164820081E-01
                       7.5164820081E-01  2.4835179919E-01  2.4835179919E-01
                       9.0466223815E-22  3.9890602390E-22 -1.4220548695E-21
            znucl       55.00000   53.00000   72.00000   35.00000

- Timing analysis has been suppressed with timopt=0

 Suggested references for the acknowledgment of ABINIT usage.

 Calculation completed.
.Delivered   0 WARNINGs and 161 COMMENTs to log file.