.Version 9.2.2 of ABINIT

 ABINIT is a project of the Universite Catholique de Louvain,
 Corning Inc. and other collaborators, see ~abinit/doc/developers/contributors.txt .
 acknowledgments of the ABINIT effort.

.Starting date : Wed 26 Oct 2022.
- ( at 10h50 )

- input  file    -> Cs2TiI6.in
- output file    -> Cs2TiI6.out
- root for input  files -> Cs2TiI6i
- root for output files -> Cs2TiI6o

- inpspheads : Reading pseudopotential header in XML form from
-   ../../../Psps_for_tests/ATOMICDATA/Cs.GGA_PBE-JTH.xml
- inpspheads : Reading pseudopotential header in XML form from
-   ../../../Psps_for_tests/ATOMICDATA/Cl.GGA_PBE-JTH.xml
- inpspheads : Reading pseudopotential header in XML form from
-   ../../../Psps_for_tests/ATOMICDATA/Hf.GGA_PBE-JTH.xml

 DATASET    1 : space group Fm -3 m (#225); Bravais cF (face-center cubic)
     intxc =       0    ionmov =       2      iscf =      17    lmnmax =      18
     lnmax =       6     mgfft =      60  mpssoang =       3    mqgrid =    3809
     natom =       9  nloc_mem =       2    nspden =       1   nspinor =       1
    nsppol =       1      nsym =      48    n1xccc =       1    ntypat =       3
    occopt =       1   xclevel =       2
-    mband =          42        mffmem =           1         mkmem =           3
       mpw =        9522          nfft =      216000          nkpt =          10
Pmy_natom=         3
 PAW method is used; the additional fine FFT grid is defined by:
   mgfftf=        96    nfftf =    884736
  Rough estimation (10% accuracy) of disk space for files :

[...]

 DATASET   10 : space group Fm -3 m (#225); Bravais cF (face-center cubic)
     intxc =       0    ionmov =       2      iscf =      17    lmnmax =      18
     lnmax =       6     mgfft =      54  mpssoang =       3    mqgrid =    3463
     natom =       9  nloc_mem =       2    nspden =       1   nspinor =       1
    nsppol =       1      nsym =      48    n1xccc =       1    ntypat =       3
    occopt =       1   xclevel =       2
-    mband =          42        mffmem =           1         mkmem =           3
       mpw =        7170          nfft =      157464          nkpt =          10
Pmy_natom=         3
 PAW method is used; the additional fine FFT grid is defined by:
   mgfftf=        90    nfftf =    729000
  Rough estimation (10% accuracy) of disk space for files :

------------- Echo of variables that govern the present computation ------------
-
- outvars: echo of selected default values
-   iomode0 =  0 , fftalg0 =112 , wfoptalg0 = 10
-
- outvars: echo of global parameters not present in the input file
-  max_nthreads =    0
-
 -outvars: echo values of preprocessed input variables --------
            acell1     1.4246312570E+01  1.4246312570E+01  1.4246312570E+01 Bohr
            acell2     1.4102410423E+01  1.4102410423E+01  1.4102410423E+01 Bohr
            acell3     1.3958508275E+01  1.3958508275E+01  1.3958508275E+01 Bohr
            acell4     1.3814606128E+01  1.3814606128E+01  1.3814606128E+01 Bohr
            acell5     1.3670703981E+01  1.3670703981E+01  1.3670703981E+01 Bohr
            acell6     1.3526801834E+01  1.3526801834E+01  1.3526801834E+01 Bohr
            acell7     1.3382899687E+01  1.3382899687E+01  1.3382899687E+01 Bohr
            acell8     1.3238997540E+01  1.3238997540E+01  1.3238997540E+01 Bohr
            acell9     1.3095095392E+01  1.3095095392E+01  1.3095095392E+01 Bohr
            acell10    1.2951193245E+01  1.2951193245E+01  1.2951193245E+01 Bohr
              amu      1.32905430E+02  3.54527000E+01  1.78490000E+02
           diemac      1.20000000E+01
          dilatmx      1.15000000E+00
             ecut      1.60000000E+01 Hartree
           ecutsm      5.00000000E-01 Hartree
-          fftalg         112
          getxred1          0
          getxred2         -1
          getxred3         -1
          getxred4         -1
          getxred5         -1
          getxred6         -1
          getxred7         -1
          getxred8         -1
          getxred9         -1
          getxred10        -1
           ionmov           2
              ixc     -101130
           jdtset        1    2    3    4    5    6    7    8    9   10
              kpt     -1.25000000E-01 -2.50000000E-01  0.00000000E+00
                      -1.25000000E-01  5.00000000E-01  0.00000000E+00
                      -2.50000000E-01 -3.75000000E-01  0.00000000E+00
                      -1.25000000E-01 -3.75000000E-01  1.25000000E-01
                      -1.25000000E-01  2.50000000E-01  0.00000000E+00
                      -2.50000000E-01  3.75000000E-01  0.00000000E+00
                      -3.75000000E-01  5.00000000E-01  0.00000000E+00
                      -2.50000000E-01  5.00000000E-01  1.25000000E-01
                      -1.25000000E-01  0.00000000E+00  0.00000000E+00
                      -3.75000000E-01  0.00000000E+00  0.00000000E+00
         kptrlatt        4   -4    4     -4    4    4     -4   -4    4
          kptrlen1     8.05893138E+01
          kptrlen2     7.97752803E+01
          kptrlen3     7.89612469E+01
          kptrlen4     7.81472134E+01
          kptrlen5     7.73331799E+01
          kptrlen6     7.65191464E+01
          kptrlen7     7.57051130E+01
          kptrlen8     7.48910795E+01
          kptrlen9     7.40770460E+01
          kptrlen10    7.32630125E+01
P           mkmem           3
            natom           9
            nband          42
           ndtset          10
            ngfft1         60      60      60
            ngfft2         60      60      60
            ngfft3         60      60      60
            ngfft4         60      60      60
            ngfft5         60      60      60
            ngfft6         60      60      60
            ngfft7         60      60      60
            ngfft8         60      60      60
            ngfft9         60      60      60
            ngfft10        54      54      54
          ngfftdg1         96      96      96
          ngfftdg2         96      96      96
          ngfftdg3         96      96      96
          ngfftdg4         96      96      96
          ngfftdg5         90      90      90
          ngfftdg6         90      90      90
          ngfftdg7         90      90      90
          ngfftdg8         90      90      90
          ngfftdg9         90      90      90
          ngfftdg10        90      90      90
             nkpt          10
            nstep        2500
             nsym          48
            ntime        1000
           ntypat           3
              occ      2.000000  2.000000  2.000000  2.000000  2.000000  2.000000
                       2.000000  2.000000  2.000000  2.000000  2.000000  2.000000
                       2.000000  2.000000  2.000000  2.000000  2.000000  2.000000
                       2.000000  2.000000  2.000000  2.000000  2.000000  2.000000
                       2.000000  2.000000  2.000000  2.000000  2.000000  2.000000
                       2.000000  2.000000  2.000000  2.000000  2.000000  2.000000
                       0.000000  0.000000  0.000000  0.000000  0.000000  0.000000
          optcell           3
        optforces           1
        pawecutdg      4.00000000E+01 Hartree
            prtwf           0
            rprim      0.0000000000E+00  7.0710678119E-01  7.0710678119E-01
                       7.0710678119E-01  0.0000000000E+00  7.0710678119E-01
                       7.0710678119E-01  7.0710678119E-01  0.0000000000E+00
           shiftk      5.00000000E-01  5.00000000E-01  5.00000000E-01
          spgroup         225
           symrel      1  0  0   0  1  0   0  0  1      -1  0  0   0 -1  0   0  0 -1
                       0 -1  1   0 -1  0   1 -1  0       0  1 -1   0  1  0  -1  1  0
                      -1  0  0  -1  0  1  -1  1  0       1  0  0   1  0 -1   1 -1  0
                       0  1 -1   1  0 -1   0  0 -1       0 -1  1  -1  0  1   0  0  1
                      -1  0  0  -1  1  0  -1  0  1       1  0  0   1 -1  0   1  0 -1
                       0 -1  1   1 -1  0   0 -1  0       0  1 -1  -1  1  0   0  1  0
                       1  0  0   0  0  1   0  1  0      -1  0  0   0  0 -1   0 -1  0
                       0  1 -1   0  0 -1   1  0 -1       0 -1  1   0  0  1  -1  0  1
                      -1  0  1  -1  1  0  -1  0  0       1  0 -1   1 -1  0   1  0  0
                       0 -1  0   1 -1  0   0 -1  1       0  1  0  -1  1  0   0  1 -1
                       1  0 -1   0  0 -1   0  1 -1      -1  0  1   0  0  1   0 -1  1
                       0  1  0   0  0  1   1  0  0       0 -1  0   0  0 -1  -1  0  0
                       1  0 -1   0  1 -1   0  0 -1      -1  0  1   0 -1  1   0  0  1
                       0 -1  0   0 -1  1   1 -1  0       0  1  0   0  1 -1  -1  1  0
                      -1  0  1  -1  0  0  -1  1  0       1  0 -1   1  0  0   1 -1  0
                       0  1  0   1  0  0   0  0  1       0 -1  0  -1  0  0   0  0 -1
                       0  0 -1   0  1 -1   1  0 -1       0  0  1   0 -1  1  -1  0  1
                       1 -1  0   0 -1  1   0 -1  0      -1  1  0   0  1 -1   0  1  0
                       0  0  1   1  0  0   0  1  0       0  0 -1  -1  0  0   0 -1  0
                      -1  1  0  -1  0  0  -1  0  1       1 -1  0   1  0  0   1  0 -1
                       0  0  1   0  1  0   1  0  0       0  0 -1   0 -1  0  -1  0  0
                       1 -1  0   0 -1  0   0 -1  1      -1  1  0   0  1  0   0  1 -1
                       0  0 -1   1  0 -1   0  1 -1       0  0  1  -1  0  1   0 -1  1
                      -1  1  0  -1  0  1  -1  0  0       1 -1  0   1  0 -1   1  0  0
           toldff      1.00000000E-08
           tolmxf      1.00000000E-05
            typat      1  1  2  2  2  2  2  2  3
           useylm           1
              wtk        0.09375    0.09375    0.09375    0.18750    0.09375    0.09375
                         0.09375    0.18750    0.03125    0.03125
           xangst1     2.6653767575E+00  2.6653767575E+00  2.6653767575E+00
                       7.9961302724E+00  7.9961302724E+00  7.9961302724E+00
                       5.3307535149E+00  8.2187609183E+00  5.3307535149E+00
                       5.3307535149E+00  5.3307535149E+00  2.4427461115E+00
                       5.3307535149E+00  5.3307535149E+00  8.2187609183E+00
                       5.3307535149E+00  2.4427461115E+00  5.3307535149E+00
                       8.2187609183E+00  5.3307535149E+00  5.3307535149E+00
                       2.4427461115E+00  5.3307535149E+00  5.3307535149E+00
                       2.6360355710E-20  1.2317437350E-20 -2.2744200317E-20
           xangst2     2.6384537599E+00  2.6384537599E+00  2.6384537599E+00
                       7.9153612797E+00  7.9153612797E+00  7.9153612797E+00
                       5.2769075198E+00  8.1357431312E+00  5.2769075198E+00
                       5.2769075198E+00  5.2769075198E+00  2.4180719084E+00
                       5.2769075198E+00  5.2769075198E+00  8.1357431312E+00
                       5.2769075198E+00  2.4180719084E+00  5.2769075198E+00
                       8.1357431312E+00  5.2769075198E+00  5.2769075198E+00
[...]
                       8.6640276340E-20 -6.9622077964E-19  1.6361976686E-19
           xangst7     2.5038387722E+00  2.5038387722E+00  2.5038387722E+00
                       7.5115163165E+00  7.5115163165E+00  7.5115163165E+00
                       5.0076775443E+00  7.5683775152E+00  5.0076775443E+00
                       5.0076775443E+00  5.0076775443E+00  2.4469775734E+00
                       5.0076775443E+00  5.0076775443E+00  7.5683775152E+00
                       5.0076775443E+00  2.4469775734E+00  5.0076775443E+00
                       7.5683775152E+00  5.0076775443E+00  5.0076775443E+00
                       2.4469775734E+00  5.0076775443E+00  5.0076775443E+00
                       1.9396543954E-20  2.2980579871E-20 -2.4680043053E-20
           xangst8     2.4769157746E+00  2.4769157746E+00  2.4769157746E+00
                       7.4307473238E+00  7.4307473238E+00  7.4307473238E+00
                       4.9538315492E+00  7.4659034515E+00  4.9538315492E+00
                       4.9538315492E+00  4.9538315492E+00  2.4417596469E+00
                       4.9538315492E+00  4.9538315492E+00  7.4659034515E+00
                       4.9538315492E+00  2.4417596469E+00  4.9538315492E+00
                       7.4659034515E+00  4.9538315492E+00  4.9538315492E+00
                       2.4417596469E+00  4.9538315492E+00  4.9538315492E+00
                       1.1929222808E-18  1.2810847570E-19 -7.9054333362E-19
           xangst9     2.4499927771E+00  2.4499927771E+00  2.4499927771E+00
                       7.3499783312E+00  7.3499783312E+00  7.3499783312E+00
                       4.8999855541E+00  7.3640446298E+00  4.8999855541E+00
                       4.8999855541E+00  4.8999855541E+00  2.4359264784E+00
                       4.8999855541E+00  4.8999855541E+00  7.3640446298E+00
                       4.8999855541E+00  2.4359264784E+00  4.8999855541E+00
                       7.3640446298E+00  4.8999855541E+00  4.8999855541E+00
                       2.4359264784E+00  4.8999855541E+00  4.8999855541E+00
                       6.8739861622E-19  1.0893532148E-19  2.0351209546E-19
           xangst10    2.4230697795E+00  2.4230697795E+00  2.4230697795E+00
                       7.2692093385E+00  7.2692093385E+00  7.2692093385E+00
                       4.8461395590E+00  7.2630664806E+00  4.8461395590E+00
                       4.8461395590E+00  4.8461395590E+00  2.4292126374E+00
                       4.8461395590E+00  4.8461395590E+00  7.2630664806E+00
                       4.8461395590E+00  2.4292126374E+00  4.8461395590E+00
                       7.2630664806E+00  4.8461395590E+00  4.8461395590E+00
                       2.4292126374E+00  4.8461395590E+00  4.8461395590E+00
                       4.2042951886E-19  7.9341722665E-19 -5.4959817071E-19
            xcart1     5.0368321125E+00  5.0368321125E+00  5.0368321125E+00
                       1.5110496338E+01  1.5110496338E+01  1.5110496338E+01
                       1.0073664225E+01  1.5488066221E+01  1.0073664225E+01
                       1.0073664225E+01  1.0073664225E+01  4.6592622294E+00
                       1.0073664225E+01  1.0073664225E+01  1.5488066221E+01
                       1.0073664225E+01  4.6592622294E+00  1.0073664225E+01
                       1.5488066221E+01  1.0073664225E+01  1.0073664225E+01
                       4.6592622294E+00  1.0073664225E+01  1.0073664225E+01
                      -1.2092632352E-18  5.0231716999E-19  1.3523774457E-18
            xcart2     4.9859550205E+00  4.9859550205E+00  4.9859550205E+00
                       1.4957865061E+01  1.4957865061E+01  1.4957865061E+01
                       9.9719100410E+00  1.5288678930E+01  9.9719100410E+00
                       9.9719100410E+00  9.9719100410E+00  4.6551411517E+00
                       9.9719100410E+00  9.9719100410E+00  1.5288678930E+01
                       9.9719100410E+00  4.6551411517E+00  9.9719100410E+00
                       1.5288678930E+01  9.9719100410E+00  9.9719100410E+00
                       4.6551411517E+00  9.9719100410E+00  9.9719100410E+00
                       4.9310682825E-20  2.3041466248E-20 -4.2546165169E-20
            xcart3     4.9350779284E+00  4.9350779284E+00  4.9350779284E+00
                       1.4805233785E+01  1.4805233785E+01  1.4805233785E+01
                       9.8701558569E+00  1.5089441784E+01  9.8701558569E+00
                       9.8701558569E+00  9.8701558569E+00  4.6508699293E+00
                       9.8701558569E+00  9.8701558569E+00  1.5089441784E+01
                       9.8701558569E+00  4.6508699293E+00  9.8701558569E+00
                       1.5089441784E+01  9.8701558569E+00  9.8701558569E+00
                       4.6508699293E+00  9.8701558569E+00  9.8701558569E+00
                       1.6038222240E-19  1.0525884961E-18  2.9867894603E-19
            xcart4     4.8842008364E+00  4.8842008364E+00  4.8842008364E+00
                       1.4652602509E+01  1.4652602509E+01  1.4652602509E+01
                       9.7684016728E+00  1.4891253914E+01  9.7684016728E+00
                       9.7684016728E+00  9.7684016728E+00  4.6455494313E+00
                       9.7684016728E+00  9.7684016728E+00  1.4891253914E+01
                       9.7684016728E+00  4.6455494313E+00  9.7684016728E+00
                       1.4891253914E+01  9.7684016728E+00  9.7684016728E+00
                       4.6455494313E+00  9.7684016728E+00  9.7684016728E+00
                       7.5591981380E-19  2.2712105283E-18  8.4050113098E-19
            xcart5     4.8333237444E+00  4.8333237444E+00  4.8333237444E+00
                       1.4499971233E+01  1.4499971233E+01  1.4499971233E+01
                       9.6666474887E+00  1.4694105072E+01  9.6666474887E+00
                       9.6666474887E+00  9.6666474887E+00  4.6391899057E+00
                       9.6666474887E+00  9.6666474887E+00  1.4694105072E+01
                       9.6666474887E+00  4.6391899057E+00  9.6666474887E+00
                       1.4694105072E+01  9.6666474887E+00  9.6666474887E+00
                       4.6391899057E+00  9.6666474887E+00  9.6666474887E+00
                       7.0452714396E-20  1.9243351922E-20 -6.0792822758E-20
            xcart6     4.7824466523E+00  4.7824466523E+00  4.7824466523E+00
                       1.4347339957E+01  1.4347339957E+01  1.4347339957E+01
                       9.5648933046E+00  1.4497708687E+01  9.5648933046E+00
                       9.5648933046E+00  9.5648933046E+00  4.6320779227E+00
                       9.5648933046E+00  9.5648933046E+00  1.4497708687E+01
                       9.5648933046E+00  4.6320779227E+00  9.5648933046E+00
                       1.4497708687E+01  9.5648933046E+00  9.5648933046E+00
                       4.6320779227E+00  9.5648933046E+00  9.5648933046E+00
                       1.6372639436E-19 -1.3156666015E-18  3.0919654929E-19
            xcart7     4.7315695603E+00  4.7315695603E+00  4.7315695603E+00
                       1.4194708681E+01  1.4194708681E+01  1.4194708681E+01
                       9.4631391205E+00  1.4302160774E+01  9.4631391205E+00
                       9.4631391205E+00  9.4631391205E+00  4.6241174670E+00
                       9.4631391205E+00  9.4631391205E+00  1.4302160774E+01
                       9.4631391205E+00  4.6241174670E+00  9.4631391205E+00
                       1.4302160774E+01  9.4631391205E+00  9.4631391205E+00
                       4.6241174670E+00  9.4631391205E+00  9.4631391205E+00
                       3.6654155998E-20  4.3427002330E-20 -4.6638522319E-20
            xcart8     4.6806924682E+00  4.6806924682E+00  4.6806924682E+00
                       1.4042077405E+01  1.4042077405E+01  1.4042077405E+01
                       9.3613849364E+00  1.4108512858E+01  9.3613849364E+00
                       9.3613849364E+00  9.3613849364E+00  4.6142570150E+00
                       9.3613849364E+00  9.3613849364E+00  1.4108512858E+01
                       9.3613849364E+00  4.6142570150E+00  9.3613849364E+00
                       1.4108512858E+01  9.3613849364E+00  9.3613849364E+00
                       4.6142570150E+00  9.3613849364E+00  9.3613849364E+00
                       2.2542964084E-18  2.4208993437E-19 -1.4939103967E-18
            xcart9     4.6298153762E+00  4.6298153762E+00  4.6298153762E+00
                       1.3889446129E+01  1.3889446129E+01  1.3889446129E+01
                       9.2596307523E+00  1.3916027581E+01  9.2596307523E+00
                       9.2596307523E+00  9.2596307523E+00  4.6032339241E+00
                       9.2596307523E+00  9.2596307523E+00  1.3916027581E+01
                       9.2596307523E+00  4.6032339241E+00  9.2596307523E+00
                       1.3916027581E+01  9.2596307523E+00  9.2596307523E+00
                       4.6032339241E+00  9.2596307523E+00  9.2596307523E+00
                       1.2989951288E-18  2.0585792379E-19  3.8458212514E-19
            xcart10    4.5789382841E+00  4.5789382841E+00  4.5789382841E+00
                       1.3736814852E+01  1.3736814852E+01  1.3736814852E+01
                       9.1578765683E+00  1.3725206533E+01  9.1578765683E+00
                       9.1578765683E+00  9.1578765683E+00  4.5905466033E+00
                       9.1578765683E+00  9.1578765683E+00  1.3725206533E+01
                       9.1578765683E+00  4.5905466033E+00  9.1578765683E+00
                       1.3725206533E+01  9.1578765683E+00  9.1578765683E+00
                       4.5905466033E+00  9.1578765683E+00  9.1578765683E+00
                       7.9449664883E-19  1.4993412675E-18 -1.0385900258E-18
             xred1     2.5000000000E-01  2.5000000000E-01  2.5000000000E-01
                       7.5000000000E-01  7.5000000000E-01  7.5000000000E-01
                       7.6874044413E-01  2.3125955587E-01  7.6874044413E-01
                       2.3125955587E-01  2.3125955587E-01  7.6874044413E-01
                       7.6874044413E-01  7.6874044413E-01  2.3125955587E-01
                       2.3125955587E-01  7.6874044413E-01  2.3125955587E-01
                       2.3125955587E-01  7.6874044413E-01  7.6874044413E-01
                       7.6874044413E-01  2.3125955587E-01  2.3125955587E-01
                       1.5207762451E-19 -1.7828813402E-20 -1.0221322971E-19
             xred2     2.5000000000E-01  2.5000000000E-01  2.5000000000E-01
                       7.5000000000E-01  7.5000000000E-01  7.5000000000E-01
                       7.6658728706E-01  2.3341271294E-01  7.6658728706E-01
                       2.3341271294E-01  2.3341271294E-01  7.6658728706E-01
                       7.6658728706E-01  7.6658728706E-01  2.3341271294E-01
                       2.3341271294E-01  7.6658728706E-01  2.3341271294E-01
                       2.3341271294E-01  7.6658728706E-01  7.6658728706E-01
                       7.6658728706E-01  2.3341271294E-01  2.3341271294E-01
                      -3.4504614193E-21 -8.1613996339E-22  5.7610986145E-21
             xred3     2.5000000000E-01  2.5000000000E-01  2.5000000000E-01
                       7.5000000000E-01  7.5000000000E-01  7.5000000000E-01
                       7.6439734100E-01  2.3560265900E-01  7.6439734100E-01
                       2.3560265900E-01  2.3560265900E-01  7.6439734100E-01
                       7.6439734100E-01  7.6439734100E-01  2.3560265900E-01
                       2.3560265900E-01  7.6439734100E-01  2.3560265900E-01
                       2.3560265900E-01  7.6439734100E-01  7.6439734100E-01
                       7.6439734100E-01  2.3560265900E-01  2.3560265900E-01
                       6.0327579268E-20 -3.0066765724E-20  4.6315974422E-20
             xred4     2.5000000000E-01  2.5000000000E-01  2.5000000000E-01
                       7.5000000000E-01  7.5000000000E-01  7.5000000000E-01
                       7.6221547870E-01  2.3778452130E-01  7.6221547870E-01
                       2.3778452130E-01  2.3778452130E-01  7.6221547870E-01
                       7.6221547870E-01  7.6221547870E-01  2.3778452130E-01
                       2.3778452130E-01  7.6221547870E-01  2.3778452130E-01
                       2.3778452130E-01  7.6221547870E-01  7.6221547870E-01
                       7.6221547870E-01  2.3778452130E-01  2.3778452130E-01
                       1.2058225718E-19 -3.4539406040E-20  1.1192359223E-19
             xred5     2.5000000000E-01  2.5000000000E-01  2.5000000000E-01
                       7.5000000000E-01  7.5000000000E-01  7.5000000000E-01
                       7.6004142537E-01  2.3995857463E-01  7.6004142537E-01
                       2.3995857463E-01  2.3995857463E-01  7.6004142537E-01
                       7.6004142537E-01  7.6004142537E-01  2.3995857463E-01
                       2.3995857463E-01  7.6004142537E-01  2.3995857463E-01
                       2.3995857463E-01  7.6004142537E-01  7.6004142537E-01
                       7.6004142537E-01  2.3995857463E-01  2.3995857463E-01
                      -5.7932279709E-21 -4.9569720499E-22  7.7839234984E-21
             xred6     2.5000000000E-01  2.5000000000E-01  2.5000000000E-01
                       7.5000000000E-01  7.5000000000E-01  7.5000000000E-01
                       7.5786044992E-01  2.4213955008E-01  7.5786044992E-01
                       2.4213955008E-01  2.4213955008E-01  7.5786044992E-01
                       7.5786044992E-01  7.5786044992E-01  2.4213955008E-01
                       2.4213955008E-01  7.5786044992E-01  2.4213955008E-01
                       2.4213955008E-01  7.5786044992E-01  7.5786044992E-01
                       7.5786044992E-01  2.4213955008E-01  2.4213955008E-01
                      -6.1171432307E-20  9.3497621366E-20 -7.6380191077E-20
             xred7     2.5000000000E-01  2.5000000000E-01  2.5000000000E-01
                       7.5000000000E-01  7.5000000000E-01  7.5000000000E-01
                       7.5567740218E-01  2.4432259782E-01  7.5567740218E-01
                       2.4432259782E-01  2.4432259782E-01  7.5567740218E-01
                       7.5567740218E-01  7.5567740218E-01  2.4432259782E-01
                       2.4432259782E-01  7.5567740218E-01  2.4432259782E-01
                       2.4432259782E-01  7.5567740218E-01  7.5567740218E-01
                       7.5567740218E-01  2.4432259782E-01  2.4432259782E-01
                      -2.1063663695E-21 -2.8220745765E-21  6.6954357869E-21
             xred8     2.5000000000E-01  2.5000000000E-01  2.5000000000E-01
                       7.5000000000E-01  7.5000000000E-01  7.5000000000E-01
                       7.5354837739E-01  2.4645162261E-01  7.5354837739E-01
                       2.4645162261E-01  2.4645162261E-01  7.5354837739E-01
                       7.5354837739E-01  7.5354837739E-01  2.4645162261E-01
                       2.4645162261E-01  7.5354837739E-01  2.4645162261E-01
                       2.4645162261E-01  7.5354837739E-01  7.5354837739E-01
                       7.5354837739E-01  2.4645162261E-01  2.4645162261E-01
                      -1.8726485956E-19  2.7682660251E-20  2.1312534238E-19
             xred9     2.5000000000E-01  2.5000000000E-01  2.5000000000E-01
                       7.5000000000E-01  7.5000000000E-01  7.5000000000E-01
                       7.5143534082E-01  2.4856465918E-01  7.5143534082E-01
                       2.4856465918E-01  2.4856465918E-01  7.5143534082E-01
                       7.5143534082E-01  7.5143534082E-01  2.4856465918E-01
                       2.4856465918E-01  7.5143534082E-01  2.4856465918E-01
                       2.4856465918E-01  7.5143534082E-01  7.5143534082E-01
                       7.5143534082E-01  2.4856465918E-01  2.4856465918E-01
                      -3.8260439254E-20  7.9793642405E-20  6.0492203058E-20
             xred10    2.5000000000E-01  2.5000000000E-01  2.5000000000E-01
                       7.5000000000E-01  7.5000000000E-01  7.5000000000E-01
                       7.4936621120E-01  2.5063378880E-01  7.4936621120E-01
                       2.5063378880E-01  2.5063378880E-01  7.4936621120E-01
                       7.4936621120E-01  7.4936621120E-01  2.5063378880E-01
                       2.5063378880E-01  7.4936621120E-01  2.5063378880E-01
                       2.5063378880E-01  7.4936621120E-01  7.4936621120E-01
                       7.4936621120E-01  2.5063378880E-01  2.5063378880E-01
                      -1.8221768149E-20 -9.5187712536E-20  1.8194326585E-19
            znucl       55.00000   17.00000   72.00000

- Timing analysis has been suppressed with timopt=0

 Suggested references for the acknowledgment of ABINIT usage.

 Calculation completed.
.Delivered   0 WARNINGs and  42 COMMENTs to log file.