.Version 9.2.2 of ABINIT

 ABINIT is a project of the Universite Catholique de Louvain,
 Corning Inc. and other collaborators, see ~abinit/doc/developers/contributors.txt .
 acknowledgments of the ABINIT effort.

.Starting date : Tue 13 Dec 2022.
- ( at 09h40 )

- The starting date is more than 2 years after the initial release
- of this version of ABINIT, namely Nov 2020.
- Note that the use beyond 3 years after the release will not be supported.
- Action: please, switch to a more recent version of ABINIT.

- input  file    -> Cs2TiI6.in
- output file    -> Cs2TiI6.out
- root for input  files -> Cs2TiI6i
- root for output files -> Cs2TiI6o

- inpspheads : Reading pseudopotential header in XML form from
-   ../../../Psps_for_tests/ATOMICDATA/Cs.GGA_PBE-JTH.xml
- inpspheads : Reading pseudopotential header in XML form from
-   ../../../Psps_for_tests/ATOMICDATA/Cl.GGA_PBE-JTH.xml
- inpspheads : Reading pseudopotential header in XML form from
-   ../../../Psps_for_tests/ATOMICDATA/Zr.GGA_PBE-JTH.xml

 DATASET    1 : space group Fm -3 m (#225); Bravais cF (face-center cubic)
     intxc =       0    ionmov =       2      iscf =      17    lmnmax =      18
     lnmax =       6     mgfft =      60  mpssoang =       3    mqgrid =    3581
     natom =       9  nloc_mem =       2    nspden =       1   nspinor =       1
    nsppol =       1      nsym =      48    n1xccc =       1    ntypat =       3
    occopt =       1   xclevel =       2
-    mband =          42        mffmem =           1         mkmem =           3
       mpw =        7920          nfft =      216000          nkpt =          10
Pmy_natom=         3
 PAW method is used; the additional fine FFT grid is defined by:
   mgfftf=        90    nfftf =    729000
  Rough estimation (10% accuracy) of disk space for files :

[...]

 DATASET   10 : space group Fm -3 m (#225); Bravais cF (face-center cubic)
     intxc =       0    ionmov =       2      iscf =      17    lmnmax =      18
     lnmax =       6     mgfft =      60  mpssoang =       3    mqgrid =    3549
     natom =       9  nloc_mem =       2    nspden =       1   nspinor =       1
    nsppol =       1      nsym =      48    n1xccc =       1    ntypat =       3
    occopt =       1   xclevel =       2
-    mband =          42        mffmem =           1         mkmem =           3
       mpw =        7703          nfft =      216000          nkpt =          10
Pmy_natom=         3
 PAW method is used; the additional fine FFT grid is defined by:
   mgfftf=        90    nfftf =    729000
  Rough estimation (10% accuracy) of disk space for files :

------------- Echo of variables that govern the present computation ------------
-
- outvars: echo of selected default values
-   iomode0 =  0 , fftalg0 =112 , wfoptalg0 = 10
-
- outvars: echo of global parameters not present in the input file
-  max_nthreads =    0
-
 -outvars: echo values of preprocessed input variables --------
            acell1     1.3393892289E+01  1.3393892289E+01  1.3393892289E+01 Bohr
            acell2     1.3380484990E+01  1.3380484990E+01  1.3380484990E+01 Bohr
            acell3     1.3367077690E+01  1.3367077690E+01  1.3367077690E+01 Bohr
            acell4     1.3353670391E+01  1.3353670391E+01  1.3353670391E+01 Bohr
            acell5     1.3340263091E+01  1.3340263091E+01  1.3340263091E+01 Bohr
            acell6     1.3326855791E+01  1.3326855791E+01  1.3326855791E+01 Bohr
            acell7     1.3313448492E+01  1.3313448492E+01  1.3313448492E+01 Bohr
            acell8     1.3300041192E+01  1.3300041192E+01  1.3300041192E+01 Bohr
            acell9     1.3286633893E+01  1.3286633893E+01  1.3286633893E+01 Bohr
            acell10    1.3273226593E+01  1.3273226593E+01  1.3273226593E+01 Bohr
              amu      1.32905430E+02  3.54527000E+01  9.12240000E+01
           diemac      1.20000000E+01
          dilatmx      1.15000000E+00
             ecut      1.60000000E+01 Hartree
           ecutsm      5.00000000E-01 Hartree
-          fftalg         112
           ionmov           2
              ixc     -101130
           jdtset        1    2    3    4    5    6    7    8    9   10
              kpt     -1.25000000E-01 -2.50000000E-01  0.00000000E+00
                      -1.25000000E-01  5.00000000E-01  0.00000000E+00
                      -2.50000000E-01 -3.75000000E-01  0.00000000E+00
                      -1.25000000E-01 -3.75000000E-01  1.25000000E-01
                      -1.25000000E-01  2.50000000E-01  0.00000000E+00
                      -2.50000000E-01  3.75000000E-01  0.00000000E+00
                      -3.75000000E-01  5.00000000E-01  0.00000000E+00
                      -2.50000000E-01  5.00000000E-01  1.25000000E-01
                      -1.25000000E-01  0.00000000E+00  0.00000000E+00
                      -3.75000000E-01  0.00000000E+00  0.00000000E+00
         kptrlatt        4   -4    4     -4    4    4     -4   -4    4
          kptrlen1     7.57672965E+01
          kptrlen2     7.56914534E+01
          kptrlen3     7.56156102E+01
          kptrlen4     7.55397671E+01
          kptrlen5     7.54639240E+01
          kptrlen6     7.53880808E+01
          kptrlen7     7.53122377E+01
          kptrlen8     7.52363945E+01
          kptrlen9     7.51605514E+01
          kptrlen10    7.50847083E+01
P           mkmem           3
            natom           9
            nband          42
           ndtset          10
            ngfft          60      60      60
          ngfftdg          90      90      90
             nkpt          10
            nstep        2500
             nsym          48
            ntime        1000
           ntypat           3
              occ      2.000000  2.000000  2.000000  2.000000  2.000000  2.000000
                       2.000000  2.000000  2.000000  2.000000  2.000000  2.000000
                       2.000000  2.000000  2.000000  2.000000  2.000000  2.000000
                       2.000000  2.000000  2.000000  2.000000  2.000000  2.000000
                       2.000000  2.000000  2.000000  2.000000  2.000000  2.000000
                       2.000000  2.000000  2.000000  2.000000  2.000000  2.000000
                       0.000000  0.000000  0.000000  0.000000  0.000000  0.000000
          optcell           3
        optforces           1
        pawecutdg      4.00000000E+01 Hartree
            prtwf           0
            rprim      0.0000000000E+00  7.0710678119E-01  7.0710678119E-01
                       7.0710678119E-01  0.0000000000E+00  7.0710678119E-01
                       7.0710678119E-01  7.0710678119E-01  0.0000000000E+00
           shiftk      5.00000000E-01  5.00000000E-01  5.00000000E-01
          spgroup         225
           symrel      1  0  0   0  1  0   0  0  1      -1  0  0   0 -1  0   0  0 -1
                       0 -1  1   0 -1  0   1 -1  0       0  1 -1   0  1  0  -1  1  0
                      -1  0  0  -1  0  1  -1  1  0       1  0  0   1  0 -1   1 -1  0
                       0  1 -1   1  0 -1   0  0 -1       0 -1  1  -1  0  1   0  0  1
                      -1  0  0  -1  1  0  -1  0  1       1  0  0   1 -1  0   1  0 -1
                       0 -1  1   1 -1  0   0 -1  0       0  1 -1  -1  1  0   0  1  0
                       1  0  0   0  0  1   0  1  0      -1  0  0   0  0 -1   0 -1  0
                       0  1 -1   0  0 -1   1  0 -1       0 -1  1   0  0  1  -1  0  1
                      -1  0  1  -1  1  0  -1  0  0       1  0 -1   1 -1  0   1  0  0
                       0 -1  0   1 -1  0   0 -1  1       0  1  0  -1  1  0   0  1 -1
                       1  0 -1   0  0 -1   0  1 -1      -1  0  1   0  0  1   0 -1  1
                       0  1  0   0  0  1   1  0  0       0 -1  0   0  0 -1  -1  0  0
                       1  0 -1   0  1 -1   0  0 -1      -1  0  1   0 -1  1   0  0  1
                       0 -1  0   0 -1  1   1 -1  0       0  1  0   0  1 -1  -1  1  0
                      -1  0  1  -1  0  0  -1  1  0       1  0 -1   1  0  0   1 -1  0
                       0  1  0   1  0  0   0  0  1       0 -1  0  -1  0  0   0  0 -1
                       0  0 -1   0  1 -1   1  0 -1       0  0  1   0 -1  1  -1  0  1
                       1 -1  0   0 -1  1   0 -1  0      -1  1  0   0  1 -1   0  1  0
                       0  0  1   1  0  0   0  1  0       0  0 -1  -1  0  0   0 -1  0
                      -1  1  0  -1  0  0  -1  0  1       1 -1  0   1  0  0   1  0 -1
                       0  0  1   0  1  0   1  0  0       0  0 -1   0 -1  0  -1  0  0
                       1 -1  0   0 -1  0   0 -1  1      -1  1  0   0  1  0   0  1 -1
                       0  0 -1   1  0 -1   0  1 -1       0  0  1  -1  0  1   0 -1  1
                      -1  1  0  -1  0  1  -1  0  0       1 -1  0   1  0 -1   1  0  0
           toldff      1.00000000E-08
           tolmxf      1.00000000E-05
            typat      1  1  2  2  2  2  2  2  3
           useylm           1
              wtk        0.09375    0.09375    0.09375    0.18750    0.09375    0.09375
                         0.09375    0.18750    0.03125    0.03125
           xangst1     2.5058954045E+00  2.5058954045E+00  2.5058954045E+00
                       7.5176862135E+00  7.5176862135E+00  7.5176862135E+00
                       5.0117908090E+00  5.0117908090E+00  2.4622646458E+00
                       5.0117908090E+00  5.0117908090E+00  7.5613169723E+00
                       7.5613169723E+00  5.0117908090E+00  5.0117908090E+00
                       5.0117908090E+00  7.5613169723E+00  5.0117908090E+00
                       5.0117908090E+00  2.4622646458E+00  5.0117908090E+00
                       2.4622646458E+00  5.0117908090E+00  5.0117908090E+00
                      -1.2569673205E-18  4.3537084621E-18  7.4255131369E-19
           xangst2     2.5033870007E+00  2.5033870007E+00  2.5033870007E+00
                       7.5101610021E+00  7.5101610021E+00  7.5101610021E+00
                       5.0067740014E+00  5.0067740014E+00  2.4597999164E+00
                       5.0067740014E+00  5.0067740014E+00  7.5537480864E+00
                       7.5537480864E+00  5.0067740014E+00  5.0067740014E+00
                       5.0067740014E+00  7.5537480864E+00  5.0067740014E+00
                       5.0067740014E+00  2.4597999164E+00  5.0067740014E+00
                       2.4597999164E+00  5.0067740014E+00  5.0067740014E+00
                      -1.2557090949E-18  4.3493503956E-18  7.4180801908E-19
           xangst3     2.5008785969E+00  2.5008785969E+00  2.5008785969E+00
                       7.5026357907E+00  7.5026357907E+00  7.5026357907E+00
                       5.0017571938E+00  5.0017571938E+00  2.4573351870E+00
                       5.0017571938E+00  5.0017571938E+00  7.5461792006E+00
                       7.5461792006E+00  5.0017571938E+00  5.0017571938E+00
                       5.0017571938E+00  7.5461792006E+00  5.0017571938E+00
                       5.0017571938E+00  2.4573351870E+00  5.0017571938E+00
                       2.4573351870E+00  5.0017571938E+00  5.0017571938E+00
                      -1.2544508694E-18  4.3449923291E-18  7.4106472447E-19
           xangst4     2.4983701931E+00  2.4983701931E+00  2.4983701931E+00
[...]
                      -1.3265391418E-18  4.1950502873E-18  8.1654151462E-19
           xangst7     2.4908449817E+00  2.4908449817E+00  2.4908449817E+00
                       7.4725349450E+00  7.4725349450E+00  7.4725349450E+00
                       4.9816899633E+00  4.9816899633E+00  2.4614162702E+00
                       4.9816899633E+00  4.9816899633E+00  7.5019636565E+00
                       7.5019636565E+00  4.9816899633E+00  4.9816899633E+00
                       4.9816899633E+00  7.5019636565E+00  4.9816899633E+00
                       4.9816899633E+00  2.4614162702E+00  4.9816899633E+00
                       2.4614162702E+00  4.9816899633E+00  4.9816899633E+00
                      -1.3884306235E-18  3.8751379019E-18  8.7704962540E-19
           xangst8     2.4883365779E+00  2.4883365779E+00  2.4883365779E+00
                       7.4650097336E+00  7.4650097336E+00  7.4650097336E+00
                       4.9766731557E+00  4.9766731557E+00  2.4608946349E+00
                       4.9766731557E+00  4.9766731557E+00  7.4924516765E+00
                       7.4924516765E+00  4.9766731557E+00  4.9766731557E+00
                       4.9766731557E+00  7.4924516765E+00  4.9766731557E+00
                       4.9766731557E+00  2.4608946349E+00  4.9766731557E+00
                       2.4608946349E+00  4.9766731557E+00  4.9766731557E+00
                      -1.2483771532E-18  4.3239600436E-18  7.3815920419E-19
           xangst9     2.4858281740E+00  2.4858281740E+00  2.4858281740E+00
                       7.4574845221E+00  7.4574845221E+00  7.4574845221E+00
                       4.9716563481E+00  4.9716563481E+00  2.4603636479E+00
                       4.9716563481E+00  4.9716563481E+00  7.4829490483E+00
                       7.4829490483E+00  4.9716563481E+00  4.9716563481E+00
                       4.9716563481E+00  7.4829490483E+00  4.9716563481E+00
                       4.9716563481E+00  2.4603636479E+00  4.9716563481E+00
                       2.4603636479E+00  4.9716563481E+00  4.9716563481E+00
                      -9.2986335015E-19  4.6631707349E-18  2.6706109952E-19
           xangst10    2.4833197702E+00  2.4833197702E+00  2.4833197702E+00
                       7.4499593107E+00  7.4499593107E+00  7.4499593107E+00
                       4.9666395405E+00  4.9666395405E+00  2.4598248457E+00
                       4.9666395405E+00  4.9666395405E+00  7.4734542352E+00
                       7.4734542352E+00  4.9666395405E+00  4.9666395405E+00
                       4.9666395405E+00  7.4734542352E+00  4.9666395405E+00
                       4.9666395405E+00  2.4598248457E+00  4.9666395405E+00
                       2.4598248457E+00  4.9666395405E+00  4.9666395405E+00
                      -9.5056500435E-19  4.3122941061E-18  9.5680792951E-19
            xcart1     4.7354560322E+00  4.7354560322E+00  4.7354560322E+00
                       1.4206368097E+01  1.4206368097E+01  1.4206368097E+01
                       9.4709120644E+00  9.4709120644E+00  4.6568343654E+00
                       9.4709120644E+00  9.4709120644E+00  1.4284989763E+01
                       1.4284989763E+01  9.4709120644E+00  9.4709120644E+00
                       9.4709120644E+00  1.4284989763E+01  9.4709120644E+00
                       9.4709120644E+00  4.6568343654E+00  9.4709120644E+00
                       4.6568343654E+00  9.4709120644E+00  9.4709120644E+00
                      -2.3753239937E-18  8.2273166558E-18  1.4032186225E-18
            xcart2     4.7307158360E+00  4.7307158360E+00  4.7307158360E+00
                       1.4192147508E+01  1.4192147508E+01  1.4192147508E+01
                       9.4614316719E+00  9.4614316719E+00  4.6559147567E+00
                       9.4614316719E+00  9.4614316719E+00  1.4266948587E+01
                       1.4266948587E+01  9.4614316719E+00  9.4614316719E+00
                       9.4614316719E+00  1.4266948587E+01  9.4614316719E+00
                       9.4614316719E+00  4.6559147567E+00  9.4614316719E+00
                       4.6559147567E+00  9.4614316719E+00  9.4614316719E+00
                      -2.2857127157E-18  8.4444313595E-18  1.3624052626E-18
            xcart3     4.7259756397E+00  4.7259756397E+00  4.7259756397E+00
                       1.4177926919E+01  1.4177926919E+01  1.4177926919E+01
                       9.4519512795E+00  9.4519512795E+00  4.6550834960E+00
                       9.4519512795E+00  9.4519512795E+00  1.4248819063E+01
                       1.4248819063E+01  9.4519512795E+00  9.4519512795E+00
                       9.4519512795E+00  1.4248819063E+01  9.4519512795E+00
                       9.4519512795E+00  4.6550834960E+00  9.4519512795E+00
                       4.6550834960E+00  9.4519512795E+00  9.4519512795E+00
                      -2.4744352244E-18  8.1946974465E-18  1.3909179919E-18
            xcart4     4.7212354435E+00  4.7212354435E+00  4.7212354435E+00
                       1.4163706331E+01  1.4163706331E+01  1.4163706331E+01
                       9.4424708870E+00  9.4424708870E+00  4.6542184333E+00
                       9.4424708870E+00  9.4424708870E+00  1.4230723341E+01
                       1.4230723341E+01  9.4424708870E+00  9.4424708870E+00
                       9.4424708870E+00  1.4230723341E+01  9.4424708870E+00
                       9.4424708870E+00  4.6542184333E+00  9.4424708870E+00
                       4.6542184333E+00  9.4424708870E+00  9.4424708870E+00
                      -2.3704977674E-18  8.2053451477E-18  1.3940588107E-18
            xcart5     4.7164952473E+00  4.7164952473E+00  4.7164952473E+00
                       1.4149485742E+01  1.4149485742E+01  1.4149485742E+01
                       9.4329904945E+00  9.4329904945E+00  4.6533207479E+00
                       9.4329904945E+00  9.4329904945E+00  1.4212660241E+01
                       1.4212660241E+01  9.4329904945E+00  9.4329904945E+00
                       9.4329904945E+00  1.4212660241E+01  9.4329904945E+00
                       9.4329904945E+00  4.6533207479E+00  9.4329904945E+00
                       4.6533207479E+00  9.4329904945E+00  9.4329904945E+00
                      -2.3332360709E-18  8.6003535840E-18  2.8376050964E-19
            xcart6     4.7117550510E+00  4.7117550510E+00  4.7117550510E+00
                       1.4135265153E+01  1.4135265153E+01  1.4135265153E+01
                       9.4235101021E+00  9.4235101021E+00  4.6523962580E+00
                       9.4235101021E+00  9.4235101021E+00  1.4194623946E+01
                       1.4194623946E+01  9.4235101021E+00  9.4235101021E+00
                       9.4235101021E+00  1.4194623946E+01  9.4235101021E+00
                       9.4235101021E+00  4.6523962580E+00  9.4235101021E+00
                       4.6523962580E+00  9.4235101021E+00  9.4235101021E+00
                      -2.5067956826E-18  7.9274961568E-18  1.5430398388E-18
            xcart7     4.7070148548E+00  4.7070148548E+00  4.7070148548E+00
                       1.4121044564E+01  1.4121044564E+01  1.4121044564E+01
                       9.4140297096E+00  9.4140297096E+00  4.6514026497E+00
                       9.4140297096E+00  9.4140297096E+00  1.4176656770E+01
                       1.4176656770E+01  9.4140297096E+00  9.4140297096E+00
                       9.4140297096E+00  1.4176656770E+01  9.4140297096E+00
                       9.4140297096E+00  4.6514026497E+00  9.4140297096E+00
                       4.6514026497E+00  9.4140297096E+00  9.4140297096E+00
                      -2.6237536330E-18  7.3229493617E-18  1.6573835970E-18
            xcart8     4.7022746586E+00  4.7022746586E+00  4.7022746586E+00
                       1.4106823976E+01  1.4106823976E+01  1.4106823976E+01
                       9.4045493172E+00  9.4045493172E+00  4.6504169019E+00
                       9.4045493172E+00  9.4045493172E+00  1.4158681732E+01
                       1.4158681732E+01  9.4045493172E+00  9.4045493172E+00
                       9.4045493172E+00  1.4158681732E+01  9.4045493172E+00
                       9.4045493172E+00  4.6504169019E+00  9.4045493172E+00
                       4.6504169019E+00  9.4045493172E+00  9.4045493172E+00
                      -2.3590909301E-18  8.1711002920E-18  1.3949187384E-18
            xcart9     4.6975344624E+00  4.6975344624E+00  4.6975344624E+00
                       1.4092603387E+01  1.4092603387E+01  1.4092603387E+01
                       9.3950689247E+00  9.3950689247E+00  4.6494134818E+00
                       9.3950689247E+00  9.3950689247E+00  1.4140724368E+01
                       1.4140724368E+01  9.3950689247E+00  9.3950689247E+00
                       9.3950689247E+00  1.4140724368E+01  9.3950689247E+00
                       9.3950689247E+00  4.6494134818E+00  9.3950689247E+00
                       4.6494134818E+00  9.3950689247E+00  9.3950689247E+00
                      -1.7571870728E-18  8.8121155998E-18  5.0467233885E-19
            xcart10    4.6927942661E+00  4.6927942661E+00  4.6927942661E+00
                       1.4078382798E+01  1.4078382798E+01  1.4078382798E+01
                       9.3855885323E+00  9.3855885323E+00  4.6483952933E+00
                       9.3855885323E+00  9.3855885323E+00  1.4122781771E+01
                       1.4122781771E+01  9.3855885323E+00  9.3855885323E+00
                       9.3855885323E+00  1.4122781771E+01  9.3855885323E+00
                       9.3855885323E+00  4.6483952933E+00  9.3855885323E+00
                       4.6483952933E+00  9.3855885323E+00  9.3855885323E+00
                      -1.7963075297E-18  8.1490548650E-18  1.8081049486E-18
             xred1     2.5000000000E-01  2.5000000000E-01  2.5000000000E-01
                       7.5000000000E-01  7.5000000000E-01  7.5000000000E-01
                       2.4584930858E-01  2.4584930858E-01  7.5415069142E-01
                       7.5415069142E-01  7.5415069142E-01  2.4584930858E-01
                       2.4584930858E-01  7.5415069142E-01  7.5415069142E-01
                       7.5415069142E-01  2.4584930858E-01  7.5415069142E-01
                       2.4584930858E-01  7.5415069142E-01  2.4584930858E-01
                       7.5415069142E-01  2.4584930858E-01  2.4584930858E-01
                       6.3382804055E-19 -4.8566716513E-19  2.3486513281E-19
             xred2     2.5000000000E-01  2.5000000000E-01  2.5000000000E-01
                       7.5000000000E-01  7.5000000000E-01  7.5000000000E-01
                       2.4604705282E-01  2.4604705282E-01  7.5395294718E-01
                       7.5395294718E-01  7.5395294718E-01  2.4604705282E-01
                       2.4604705282E-01  7.5395294718E-01  7.5395294718E-01
                       7.5395294718E-01  2.4604705282E-01  7.5395294718E-01
                       2.4604705282E-01  7.5395294718E-01  2.4604705282E-01
                       7.5395294718E-01  2.4604705282E-01  2.4604705282E-01
                       6.3904437283E-19 -4.9504869545E-19  2.5346657607E-19
             xred3     2.5000000000E-01  2.5000000000E-01  2.5000000000E-01
                       7.5000000000E-01  7.5000000000E-01  7.5000000000E-01
                       2.4624986727E-01  2.4624986727E-01  7.5375013273E-01
                       7.5375013273E-01  7.5375013273E-01  2.4624986727E-01
                       2.4624986727E-01  7.5375013273E-01  7.5375013273E-01
                       7.5375013273E-01  2.4624986727E-01  7.5375013273E-01
                       2.4624986727E-01  7.5375013273E-01  2.4624986727E-01
                       7.5375013273E-01  2.4624986727E-01  2.4624986727E-01
                       6.3796618848E-19 -4.9080948498E-19  2.2901854349E-19
             xred4     2.5000000000E-01  2.5000000000E-01  2.5000000000E-01
                       7.5000000000E-01  7.5000000000E-01  7.5000000000E-01
                       2.4645129908E-01  2.4645129908E-01  7.5354870092E-01
                       7.5354870092E-01  7.5354870092E-01  2.4645129908E-01
                       2.4645129908E-01  7.5354870092E-01  7.5354870092E-01
                       7.5354870092E-01  2.4645129908E-01  7.5354870092E-01
                       2.4645129908E-01  7.5354870092E-01  2.4645129908E-01
                       7.5354870092E-01  2.4645129908E-01  2.4645129908E-01
                       6.3383312849E-19 -4.8619605050E-19  2.3514970937E-19
             xred5     2.5000000000E-01  2.5000000000E-01  2.5000000000E-01
                       7.5000000000E-01  7.5000000000E-01  7.5000000000E-01
                       2.4665140660E-01  2.4665140660E-01  7.5334859340E-01
                       7.5334859340E-01  7.5334859340E-01  2.4665140660E-01
                       2.4665140660E-01  7.5334859340E-01  7.5334859340E-01
                       7.5334859340E-01  2.4665140660E-01  7.5334859340E-01
                       2.4665140660E-01  7.5334859340E-01  2.4665140660E-01
                       7.5334859340E-01  2.4665140660E-01  2.4665140660E-01
                       5.9458080505E-19 -5.6449909238E-19  3.1715059010E-19
             xred6     2.5000000000E-01  2.5000000000E-01  2.5000000000E-01
                       7.5000000000E-01  7.5000000000E-01  7.5000000000E-01
                       2.4685049454E-01  2.4685049454E-01  7.5314950546E-01
                       7.5314950546E-01  7.5314950546E-01  2.4685049454E-01
                       2.4685049454E-01  7.5314950546E-01  7.5314950546E-01
                       7.5314950546E-01  2.4685049454E-01  7.5314950546E-01
                       2.4685049454E-01  7.5314950546E-01  2.4685049454E-01
                       7.5314950546E-01  2.4685049454E-01  2.4685049454E-01
                       6.3550267089E-19 -4.7175903163E-19  2.0574396342E-19
             xred7     2.5000000000E-01  2.5000000000E-01  2.5000000000E-01
                       7.5000000000E-01  7.5000000000E-01  7.5000000000E-01
                       2.4704631243E-01  2.4704631243E-01  7.5295368757E-01
                       7.5295368757E-01  7.5295368757E-01  2.4704631243E-01
                       2.4704631243E-01  7.5295368757E-01  7.5295368757E-01
                       7.5295368757E-01  2.4704631243E-01  7.5295368757E-01
                       2.4704631243E-01  7.5295368757E-01  2.4704631243E-01
                       7.5295368757E-01  2.4704631243E-01  2.4704631243E-01
                       6.1631877897E-19 -4.4026414051E-19  1.6155738964E-19
             xred8     2.5000000000E-01  2.5000000000E-01  2.5000000000E-01
                       7.5000000000E-01  7.5000000000E-01  7.5000000000E-01
                       2.4724294302E-01  2.4724294302E-01  7.5275705698E-01
                       7.5275705698E-01  7.5275705698E-01  2.4724294302E-01
                       2.4724294302E-01  7.5275705698E-01  7.5275705698E-01
                       7.5275705698E-01  2.4724294302E-01  7.5275705698E-01
                       2.4724294302E-01  7.5275705698E-01  2.4724294302E-01
                       7.5275705698E-01  2.4724294302E-01  2.4724294302E-01
                       6.3400751904E-19 -4.8568369284E-19  2.3483797440E-19
             xred9     2.5000000000E-01  2.5000000000E-01  2.5000000000E-01
                       7.5000000000E-01  7.5000000000E-01  7.5000000000E-01
                       2.4743902993E-01  2.4743902993E-01  7.5256097007E-01
                       7.5256097007E-01  7.5256097007E-01  2.4743902993E-01
                       2.4743902993E-01  7.5256097007E-01  7.5256097007E-01
                       7.5256097007E-01  2.4743902993E-01  7.5256097007E-01
                       2.4743902993E-01  7.5256097007E-01  2.4743902993E-01
                       7.5256097007E-01  2.4743902993E-01  2.4743902993E-01
                       5.8935038690E-19 -5.3563366136E-19  3.4860075220E-19
             xred10    2.5000000000E-01  2.5000000000E-01  2.5000000000E-01
                       7.5000000000E-01  7.5000000000E-01  7.5000000000E-01
                       2.4763472622E-01  2.4763472622E-01  7.5236527378E-01
                       7.5236527378E-01  7.5236527378E-01  2.4763472622E-01
                       2.4763472622E-01  7.5236527378E-01  7.5236527378E-01
                       7.5236527378E-01  2.4763472622E-01  7.5236527378E-01
                       2.4763472622E-01  7.5236527378E-01  2.4763472622E-01
                       7.5236527378E-01  2.4763472622E-01  2.4763472622E-01
                       6.2614439696E-19 -4.3349745294E-19  2.4210748059E-19
            znucl       55.00000   17.00000   40.00000

- Timing analysis has been suppressed with timopt=0

 Suggested references for the acknowledgment of ABINIT usage.

 Calculation completed.
.Delivered   0 WARNINGs and  38 COMMENTs to log file.