.Version 9.2.2 of ABINIT

 ABINIT is a project of the Universite Catholique de Louvain,
 Corning Inc. and other collaborators, see ~abinit/doc/developers/contributors.txt .
 acknowledgments of the ABINIT effort.

.Starting date : Thu 27 Oct 2022.
- ( at 04h52 )

- input  file    -> Cs2TiI6.in
- output file    -> Cs2TiI6.out
- root for input  files -> Cs2TiI6i
- root for output files -> Cs2TiI6o

- inpspheads : Reading pseudopotential header in XML form from
-   ../../../Psps_for_tests/ATOMICDATA/Cs.GGA_PBE-JTH.xml
- inpspheads : Reading pseudopotential header in XML form from
-   ../../../Psps_for_tests/ATOMICDATA/I.GGA_PBE-JTH.xml
- inpspheads : Reading pseudopotential header in XML form from
-   ../../../Psps_for_tests/ATOMICDATA/Hf.GGA_PBE-JTH.xml
- inpspheads : Reading pseudopotential header in XML form from
-   ../../../Psps_for_tests/ATOMICDATA/Br.GGA_PBE-JTH.xml

 DATASET    1 : space group I4 m m (#107); Bravais tI (body-center tetrag.)
     intxc =       0    ionmov =       0      iscf =      17    lmnmax =      18
     lnmax =       6     mgfft =      60  mpssoang =       3    mqgrid =    3504
     natom =       9  nloc_mem =       2    nspden =       1   nspinor =       1
    nsppol =       1      nsym =       8    n1xccc =       1    ntypat =       4
    occopt =       1   xclevel =       2
-    mband =          42        mffmem =           1         mkmem =          28
       mpw =        7451          nfft =      216000          nkpt =         163
Pmy_natom=         2
 PAW method is used; the additional fine FFT grid is defined by:
   mgfftf=        90    nfftf =    729000
  Rough estimation (10% accuracy) of disk space for files :

[...]

 DATASET   10 : space group I4 m m (#107); Bravais tI (body-center tetrag.)
     intxc =       0    ionmov =       0      iscf =      17    lmnmax =      18
     lnmax =       6     mgfft =      50  mpssoang =       3    mqgrid =    3186
     natom =       9  nloc_mem =       2    nspden =       1   nspinor =       1
    nsppol =       1      nsym =       8    n1xccc =       1    ntypat =       4
    occopt =       1   xclevel =       2
-    mband =          42        mffmem =           1         mkmem =          28
       mpw =        5625          nfft =      125000          nkpt =         163
Pmy_natom=         2
 PAW method is used; the additional fine FFT grid is defined by:
   mgfftf=        80    nfftf =    512000
  Rough estimation (10% accuracy) of disk space for files :

------------- Echo of variables that govern the present computation ------------
-
- outvars: echo of selected default values
-   iomode0 =  0 , fftalg0 =112 , wfoptalg0 = 10
-
- outvars: echo of global parameters not present in the input file
-  max_nthreads =    0
-
 -outvars: echo values of preprocessed input variables --------
            acell1     1.5065807154E+01  1.5084574113E+01  1.5065807154E+01 Bohr
            acell2     1.4913184942E+01  1.4933097419E+01  1.4913184942E+01 Bohr
            acell3     1.4759532465E+01  1.4783704151E+01  1.4759532465E+01 Bohr
            acell4     1.4607868197E+01  1.4630291984E+01  1.4607868197E+01 Bohr
            acell5     1.4455911524E+01  1.4477471405E+01  1.4455911524E+01 Bohr
            acell6     1.4306589766E+01  1.4319337678E+01  1.4306589766E+01 Bohr
            acell7     1.4158057062E+01  1.4159648350E+01  1.4158057062E+01 Bohr
            acell8     1.4008476247E+01  1.4002087732E+01  1.4008476247E+01 Bohr
            acell9     1.3859594843E+01  1.3843160535E+01  1.3859594843E+01 Bohr
            acell10    1.3710955913E+01  1.3683789687E+01  1.3710955913E+01 Bohr
              amu      1.32905430E+02  1.26904470E+02  1.78490000E+02
                       7.99040000E+01
           diemac      1.20000000E+01
             ecut      1.60000000E+01 Hartree
-          fftalg         112
           istwfk        2    0    0    0    0    0    3    0    0    0
                         0    0    0    0    0    0    0    0    0    0
                         0    0    0    0    0    0    0    0    0    0
                         0    0    0    0    0    0    0    0    0    0
                         0    0    7    0    0    0    0    0    0    0
                       outvar_i_n : Printing only first  50 k-points.
              ixc     -101130
           jdtset        1    2    3    4    5    6    7    8    9   10
              kpt      0.00000000E+00  0.00000000E+00  0.00000000E+00
                       8.33333333E-02  0.00000000E+00  0.00000000E+00
                       1.66666667E-01  0.00000000E+00  0.00000000E+00
                       2.50000000E-01  0.00000000E+00  0.00000000E+00
                       3.33333333E-01  0.00000000E+00  0.00000000E+00
                       4.16666667E-01  0.00000000E+00  0.00000000E+00
                       5.00000000E-01  0.00000000E+00  0.00000000E+00
                       8.33333333E-02  8.33333333E-02  0.00000000E+00
                       1.66666667E-01  8.33333333E-02  0.00000000E+00
                       2.50000000E-01  8.33333333E-02  0.00000000E+00
                       3.33333333E-01  8.33333333E-02  0.00000000E+00
                       4.16666667E-01  8.33333333E-02  0.00000000E+00
                       5.00000000E-01  8.33333333E-02  0.00000000E+00
                      -4.16666667E-01  8.33333333E-02  0.00000000E+00
                      -3.33333333E-01  8.33333333E-02  0.00000000E+00
                      -2.50000000E-01  8.33333333E-02  0.00000000E+00
                      -1.66666667E-01  8.33333333E-02  0.00000000E+00
                      -8.33333333E-02  8.33333333E-02  0.00000000E+00
                       1.66666667E-01  1.66666667E-01  0.00000000E+00
                       2.50000000E-01  1.66666667E-01  0.00000000E+00
                       3.33333333E-01  1.66666667E-01  0.00000000E+00
                       4.16666667E-01  1.66666667E-01  0.00000000E+00
                       5.00000000E-01  1.66666667E-01  0.00000000E+00
                      -4.16666667E-01  1.66666667E-01  0.00000000E+00
                      -3.33333333E-01  1.66666667E-01  0.00000000E+00
                      -2.50000000E-01  1.66666667E-01  0.00000000E+00
                      -1.66666667E-01  1.66666667E-01  0.00000000E+00
                       2.50000000E-01  2.50000000E-01  0.00000000E+00
                       3.33333333E-01  2.50000000E-01  0.00000000E+00
                       4.16666667E-01  2.50000000E-01  0.00000000E+00
                       5.00000000E-01  2.50000000E-01  0.00000000E+00
                      -4.16666667E-01  2.50000000E-01  0.00000000E+00
                      -3.33333333E-01  2.50000000E-01  0.00000000E+00
                      -2.50000000E-01  2.50000000E-01  0.00000000E+00
                       3.33333333E-01  3.33333333E-01  0.00000000E+00
                       4.16666667E-01  3.33333333E-01  0.00000000E+00
                       5.00000000E-01  3.33333333E-01  0.00000000E+00
                      -4.16666667E-01  3.33333333E-01  0.00000000E+00
                      -3.33333333E-01  3.33333333E-01  0.00000000E+00
                       4.16666667E-01  4.16666667E-01  0.00000000E+00
                       5.00000000E-01  4.16666667E-01  0.00000000E+00
                      -4.16666667E-01  4.16666667E-01  0.00000000E+00
                       5.00000000E-01  5.00000000E-01  0.00000000E+00
                       8.33333333E-02  0.00000000E+00  8.33333333E-02
                       1.66666667E-01  0.00000000E+00  8.33333333E-02
                       2.50000000E-01  0.00000000E+00  8.33333333E-02
                       3.33333333E-01  0.00000000E+00  8.33333333E-02
                       4.16666667E-01  0.00000000E+00  8.33333333E-02
                       5.00000000E-01  0.00000000E+00  8.33333333E-02
                      -4.16666667E-01  0.00000000E+00  8.33333333E-02
                       outvar_i_n : Printing only first  50 k-points.
         kptrlatt       12    0    0      0   12    0      0    0   12
          kptrlen1     1.80789686E+02
          kptrlen2     1.78958219E+02
          kptrlen3     1.77114390E+02
          kptrlen4     1.75294418E+02
          kptrlen5     1.73470938E+02
          kptrlen6     1.71679077E+02
          kptrlen7     1.69896685E+02
          kptrlen8     1.68025053E+02
          kptrlen9     1.66117926E+02
          kptrlen10    1.64205476E+02
P           mkmem          28
            natom           9
            nband          42
           ndtset          10
            ngfft1         60      60      60
            ngfft2         54      54      54
            ngfft3         54      54      54
            ngfft4         54      54      54
            ngfft5         54      54      54
            ngfft6         54      54      54
            ngfft7         54      54      54
            ngfft8         54      54      54
            ngfft9         50      50      50
            ngfft10        50      50      50
          ngfftdg1         90      90      90
          ngfftdg2         90      90      90
          ngfftdg3         90      90      90
          ngfftdg4         90      90      90
          ngfftdg5         90      90      90
          ngfftdg6         90      90      90
          ngfftdg7         90      90      90
          ngfftdg8         80      80      80
          ngfftdg9         80      80      80
          ngfftdg10        80      80      80
             nkpt         163
            nstep        2500
             nsym           8
           ntypat           4
              occ      2.000000  2.000000  2.000000  2.000000  2.000000  2.000000
                       2.000000  2.000000  2.000000  2.000000  2.000000  2.000000
                       2.000000  2.000000  2.000000  2.000000  2.000000  2.000000
                       2.000000  2.000000  2.000000  2.000000  2.000000  2.000000
                       2.000000  2.000000  2.000000  2.000000  2.000000  2.000000
                       2.000000  2.000000  2.000000  2.000000  2.000000  2.000000
                       0.000000  0.000000  0.000000  0.000000  0.000000  0.000000
        pawecutdg      4.00000000E+01 Hartree
            prtwf           0
            rprim1     0.0000000000E+00  7.0622486396E-01  7.0798759984E-01
                       7.0710678119E-01  0.0000000000E+00  7.0710678119E-01
                       7.0798759984E-01  7.0622486396E-01  0.0000000000E+00
            rprim2     0.0000000000E+00  7.0616137129E-01  7.0805092874E-01
                       7.0710678119E-01  0.0000000000E+00  7.0710678119E-01
                       7.0805092874E-01  7.0616137129E-01  0.0000000000E+00
            rprim3     0.0000000000E+00  7.0594685284E-01  7.0826480991E-01
                       7.0710678119E-01  0.0000000000E+00  7.0710678119E-01
                       7.0826480991E-01  7.0594685284E-01  0.0000000000E+00
            rprim4     0.0000000000E+00  7.0601966919E-01  7.0819222441E-01
                       7.0710678119E-01  0.0000000000E+00  7.0710678119E-01
                       7.0819222441E-01  7.0601966919E-01  0.0000000000E+00
            rprim5     0.0000000000E+00  7.0605061057E-01  7.0816137660E-01
[...]
                      -1.3600938730E-12  5.9399989340E-02 -1.3600938730E-12
           xangst7     2.6491625408E+00  2.6706324702E+00  2.6491625408E+00
                       7.9474876224E+00  7.9677666138E+00  7.9474876224E+00
                       5.2983250815E+00  7.8239125675E+00  5.2983250815E+00
                       5.2983250815E+00  5.2992972780E+00  2.5975005990E+00
                       5.2983250817E+00  5.2992972780E+00  7.9991495642E+00
                       5.2983250817E+00  2.6567003533E+00  5.2983250817E+00
                       7.9991495642E+00  5.2992972780E+00  5.2983250817E+00
                       2.5975005990E+00  5.2992972780E+00  5.2983250815E+00
                      -1.9751005349E-12  6.0872031829E-02 -1.9751005349E-12
           xangst8     2.6196841473E+00  2.6430504884E+00  2.6196841473E+00
                       7.8590524419E+00  7.8871986635E+00  7.8590524419E+00
                       5.2393682946E+00  7.7331786537E+00  5.2393682946E+00
                       5.2393682946E+00  5.2437571975E+00  2.5903979839E+00
                       5.2393682946E+00  5.2437571975E+00  7.8883386053E+00
                       5.2393682946E+00  2.6521442352E+00  5.2393682946E+00
                       7.8883386053E+00  5.2437571975E+00  5.2393682946E+00
                       2.5903979839E+00  5.2437571975E+00  5.2393682946E+00
                      -2.7409732381E-13  6.2584570653E-02 -2.7409732381E-13
           xangst9     2.5899500771E+00  2.6142103820E+00  2.5899500771E+00
                       7.7698502313E+00  7.8064021895E+00  7.7698502313E+00
                       5.1799001542E+00  7.6465809230E+00  5.1799001542E+00
                       5.1799001542E+00  5.1892493647E+00  2.5823420622E+00
                       5.1799001543E+00  5.1892493647E+00  7.7774582462E+00
                       5.1799001543E+00  2.6476078918E+00  5.1799001543E+00
                       7.7774582462E+00  5.1892493647E+00  5.1799001543E+00
                       2.5823420622E+00  5.1892493647E+00  5.1799001542E+00
                      -1.5962210003E-12  6.5735615726E-02 -1.5962210003E-12
           xangst10    2.5601330032E+00  2.5853672235E+00  2.5601330032E+00
                       7.6803990097E+00  7.7259435067E+00  7.6803990097E+00
                       5.1202660064E+00  7.5620813302E+00  5.1202660064E+00
                       5.1202660064E+00  5.1350073818E+00  2.5729802187E+00
                       5.1202660065E+00  5.1350073818E+00  7.6675517942E+00
                       5.1202660065E+00  2.6419701810E+00  5.1202660065E+00
                       7.6675517942E+00  5.1350073818E+00  5.1202660065E+00
                       2.5729802187E+00  5.1350073818E+00  5.1202660064E+00
                      -2.2981314364E-12  6.9218496977E-02 -2.2981314364E-12
            xcart1     5.3332023233E+00  5.3662997464E+00  5.3332023233E+00
                       1.5999606970E+01  1.6006147354E+01  1.5999606970E+01
                       1.0666404647E+01  1.5923123265E+01  1.0666404647E+01
                       1.0666404647E+01  1.0666696614E+01  4.9538824635E+00
                       1.0666404647E+01  1.0666696614E+01  1.6378926830E+01
                       1.0666404647E+01  5.0498188101E+00  1.0666404647E+01
                       1.6378926830E+01  1.0666696614E+01  1.0666404647E+01
                       4.9538824635E+00  1.0666696614E+01  1.0666404647E+01
                      -2.6385529669E-13  1.0660522850E-01 -2.6385529669E-13
            xcart2     5.2796472244E+00  5.3128455935E+00  5.2796472244E+00
                       1.5838941673E+01  1.5843960722E+01  1.5838941673E+01
                       1.0559294449E+01  1.5720004622E+01  1.0559294449E+01
                       1.0559294449E+01  1.0555030696E+01  4.9495055609E+00
                       1.0559294449E+01  1.0555030696E+01  1.6169083337E+01
                       1.0559294449E+01  5.0457584010E+00  1.0559294449E+01
                       1.6169083337E+01  1.0555030696E+01  1.0559294449E+01
                       4.9495055609E+00  1.0555030696E+01  1.0559294449E+01
                      -2.4779160642E-12  1.0622890867E-01 -2.4779160642E-12
            xcart3     5.2268287280E+00  5.2615216180E+00  5.2268287280E+00
                       1.5680486184E+01  1.5680967111E+01  1.5680486184E+01
                       1.0453657456E+01  1.5511604767E+01  1.0453657456E+01
                       1.0453657456E+01  1.0439057123E+01  4.9439969540E+00
                       1.0453657456E+01  1.0439057123E+01  1.5963317958E+01
                       1.0453657456E+01  5.0402217067E+00  1.0453657456E+01
                       1.5963317958E+01  1.0439057123E+01  1.0453657456E+01
                       4.9439969540E+00  1.0439057123E+01  1.0453657456E+01
                      -2.9993669878E-12  1.0502025025E-01 -2.9993669878E-12
            xcart4     5.1725893362E+00  5.2076957817E+00  5.1725893362E+00
                       1.5517768009E+01  1.5521138054E+01  1.5517768009E+01
                       1.0345178672E+01  1.5318606903E+01  1.0345178672E+01
                       1.0345178672E+01  1.0329569824E+01  4.9373471597E+00
                       1.0345178673E+01  1.0329569824E+01  1.5753010185E+01
                       1.0345178673E+01  5.0357785288E+00  1.0345178673E+01
                       1.5753010185E+01  1.0329569824E+01  1.0345178673E+01
                       4.9373471597E+00  1.0329569824E+01  1.0345178672E+01
                      -1.8227966837E-12  1.0603961239E-01 -1.8227966837E-12
            xcart5     5.1185591025E+00  5.1500139576E+00  5.1185591025E+00
                       1.5355677307E+01  1.5356619116E+01  1.5355677307E+01
                       1.0237118205E+01  1.5127468078E+01  1.0237118205E+01
                       1.0237118205E+01  1.0219351070E+01  4.9292490458E+00
                       1.0237118205E+01  1.0219351070E+01  1.5544987364E+01
                       1.0237118205E+01  5.0323213919E+00  1.0237118205E+01
                       1.5544987364E+01  1.0219351070E+01  1.0237118205E+01
                       4.9292490458E+00  1.0219351070E+01  1.0237118205E+01
                      -6.2041418198E-13  1.0901443810E-01 -6.2041418198E-13
            xcart6     5.0626503870E+00  5.0967175011E+00  5.0626503870E+00
                       1.5187951161E+01  1.5203981966E+01  1.5187951161E+01
                       1.0125300774E+01  1.4953071027E+01  1.0125300774E+01
                       1.0125300774E+01  1.0116214458E+01  4.9196864199E+00
                       1.0125300774E+01  1.0116214458E+01  1.5330915128E+01
                       1.0125300774E+01  5.0272376838E+00  1.0125300774E+01
                       1.5330915128E+01  1.0116214458E+01  1.0125300774E+01
                       4.9196864199E+00  1.0116214458E+01  1.0125300774E+01
                      -2.5702049349E-12  1.1224971215E-01 -2.5702049349E-12
            xcart7     5.0061916836E+00  5.0467639703E+00  5.0061916836E+00
                       1.5018575051E+01  1.5056896791E+01  1.5018575051E+01
                       1.0012383367E+01  1.4785052040E+01  1.0012383367E+01
                       1.0012383367E+01  1.0014220552E+01  4.9085647620E+00
                       1.0012383367E+01  1.0014220552E+01  1.5116201972E+01
                       1.0012383367E+01  5.0204360849E+00  1.0012383367E+01
                       1.5116201972E+01  1.0014220552E+01  1.0012383367E+01
                       4.9085647620E+00  1.0014220552E+01  1.0012383367E+01
                      -3.7323990958E-12  1.1503146931E-01 -3.7323990958E-12
            xcart8     4.9504855930E+00  4.9946415784E+00  4.9504855930E+00
                       1.4851456779E+01  1.4904645430E+01  1.4851456779E+01
                       9.9009711861E+00  1.4613589792E+01  9.9009711861E+00
                       9.9009711860E+00  9.9092650106E+00  4.8951427647E+00
                       9.9009711861E+00  9.9092650106E+00  1.4906799607E+01
                       9.9009711861E+00  5.0118262695E+00  9.9009711861E+00
                       1.4906799607E+01  9.9092650106E+00  9.9009711861E+00
                       4.8951427647E+00  9.9092650106E+00  9.9009711860E+00
                      -5.1796887575E-13  1.1826769868E-01 -5.1796887575E-13
            xcart9     4.8942963436E+00  4.9401416757E+00  4.8942963436E+00
                       1.4682889031E+01  1.4751962221E+01  1.4682889031E+01
                       9.7885926870E+00  1.4449943797E+01  9.7885926870E+00
                       9.7885926870E+00  9.8062601345E+00  4.8799192791E+00
                       9.7885926873E+00  9.8062601345E+00  1.4697266095E+01
                       9.7885926873E+00  5.0032538227E+00  9.7885926873E+00
                       1.4697266095E+01  9.8062601345E+00  9.7885926873E+00
                       4.8799192791E+00  9.8062601345E+00  9.7885926870E+00
                      -3.0164205380E-12  1.2422231090E-01 -3.0164205380E-12
            xcart10    4.8379502399E+00  4.8856360053E+00  4.8379502399E+00
                       1.4513850720E+01  1.4599917346E+01  1.4513850720E+01
                       9.6759004796E+00  1.4290262709E+01  9.6759004796E+00
                       9.6759004796E+00  9.7037576420E+00  4.8622279586E+00
                       9.6759004799E+00  9.7037576420E+00  1.4489573001E+01
                       9.6759004799E+00  4.9926000934E+00  9.6759004799E+00
                       1.4489573001E+01  9.7037576420E+00  9.6759004799E+00
                       4.8622279586E+00  9.7037576420E+00  9.6759004796E+00
                      -4.3428390322E-12  1.3080400262E-01 -4.3428390322E-12
             xred1     2.5217935182E-01  2.4782064818E-01  2.5217935182E-01
                       7.5217935182E-01  7.4782064818E-01  7.5217935182E-01
                       7.4827778801E-01  2.5172221199E-01  7.4827778801E-01
                       2.3348066430E-01  2.3095722528E-01  7.6904277472E-01
                       7.6904277472E-01  7.6651933570E-01  2.3348066430E-01
                       2.3730691436E-01  7.6269308564E-01  2.3730691436E-01
                       2.3348066430E-01  7.6651933570E-01  7.6904277472E-01
                       7.6904277472E-01  2.3095722528E-01  2.3348066430E-01
                       5.0097159484E-03 -5.0097159484E-03  5.0097159484E-03
             xred2     2.5224515773E-01  2.4775484227E-01  2.5224515773E-01
                       7.5224515773E-01  7.4775484227E-01  7.5224515773E-01
                       7.4635992626E-01  2.5364007374E-01  7.4635992626E-01
                       2.3550271970E-01  2.3323177623E-01  7.6676822377E-01
                       7.6676822377E-01  7.6449728030E-01  2.3550271970E-01
                       2.3956429776E-01  7.6043570224E-01  2.3956429776E-01
                       2.3550271970E-01  7.6449728030E-01  7.6676822377E-01
                       7.6676822377E-01  2.3323177623E-01  2.3550271970E-01
                       5.0435736089E-03 -5.0435736089E-03  5.0435736089E-03
             xred3     2.5248568273E-01  2.4751431727E-01  2.5248568273E-01
                       7.5248568273E-01  7.4751431727E-01  7.5248568273E-01
                       7.4435845829E-01  2.5564154171E-01  7.4435845829E-01
                       2.3741322112E-01  2.3553100676E-01  7.6446899324E-01
                       7.6446899324E-01  7.6258677888E-01  2.3741322112E-01
                       2.4186611994E-01  7.5813388006E-01  2.4186611994E-01
                       2.3741322112E-01  7.6258677888E-01  7.6446899324E-01
                       7.6446899324E-01  2.3553100676E-01  2.3741322112E-01
                       5.0396276040E-03 -5.0396276040E-03  5.0396276040E-03
             xred4     2.5247127217E-01  2.4752872783E-01  2.5247127217E-01
                       7.5247127217E-01  7.4752872783E-01  7.5247127217E-01
                       7.4265247717E-01  2.5734752283E-01  7.4265247717E-01
                       2.3941221782E-01  2.3784847685E-01  7.6215152315E-01
                       7.6215152315E-01  7.6058778218E-01  2.3941221782E-01
                       2.4413665176E-01  7.5586334824E-01  2.4413665176E-01
                       2.3941221782E-01  7.6058778218E-01  7.6215152315E-01
                       7.6215152315E-01  2.3784847685E-01  2.3941221782E-01
                       5.1408448116E-03 -5.1408448116E-03  5.1408448116E-03
             xred5     2.5228829165E-01  2.4771170835E-01  2.5228829165E-01
                       7.5228829165E-01  7.4771170835E-01  7.5228829165E-01
                       7.4106266698E-01  2.5893733302E-01  7.4106266698E-01
                       2.4137813806E-01  2.4012934746E-01  7.5987065254E-01
                       7.5987065254E-01  7.5862186194E-01  2.4137813806E-01
                       2.4652278177E-01  7.5347721823E-01  2.4652278177E-01
                       2.4137813806E-01  7.5862186194E-01  7.5987065254E-01
                       7.5987065254E-01  2.4012934746E-01  2.4137813806E-01
                       5.3403867601E-03 -5.3403867601E-03  5.3403867601E-03
             xred6     2.5213140106E-01  2.4786859894E-01  2.5213140106E-01
                       7.5213140106E-01  7.4786859894E-01  7.5213140106E-01
                       7.3971899510E-01  2.6028100490E-01  7.3971899510E-01
                       2.4338301122E-01  2.4249751023E-01  7.5750248977E-01
                       7.5750248977E-01  7.5661698878E-01  2.4338301122E-01
                       2.4869427831E-01  7.5130572169E-01  2.4869427831E-01
                       2.4338301122E-01  7.5661698878E-01  7.5750248977E-01
                       7.5750248977E-01  2.4249751023E-01  2.4338301122E-01
                       5.5529224813E-03 -5.5529224813E-03  5.5529224813E-03
             xred7     2.5208276757E-01  2.4791723243E-01  2.5208276757E-01
                       7.5208276757E-01  7.4791723243E-01  7.5208276757E-01
                       7.3850428887E-01  2.6149571113E-01  7.3850428887E-01
                       2.4532887088E-01  2.4492051151E-01  7.5507948849E-01
                       7.5507948849E-01  7.5467112912E-01  2.4532887088E-01
                       2.5076770583E-01  7.4923229417E-01  2.5076770583E-01
                       2.4532887088E-01  7.5467112912E-01  7.5507948849E-01
                       7.5507948849E-01  2.4492051151E-01  2.4532887088E-01
                       5.7457513987E-03 -5.7457513987E-03  5.7457513987E-03
             xred8     2.5199998170E-01  2.4800001830E-01  2.5199998170E-01
                       7.5199998170E-01  7.4800001830E-01  7.5199998170E-01
                       7.3731504101E-01  2.6268495899E-01  7.3731504101E-01
                       2.4716790431E-01  2.4724245935E-01  7.5275754065E-01
                       7.5275754065E-01  7.5283209569E-01  2.4716790431E-01
                       2.5286701926E-01  7.4713298074E-01  2.5286701926E-01
                       2.4716790431E-01  7.5283209569E-01  7.5275754065E-01
                       7.5275754065E-01  2.4724245935E-01  2.4716790431E-01
                       5.9670864135E-03 -5.9670864135E-03  5.9670864135E-03
             xred9     2.5174439609E-01  2.4825560391E-01  2.5174439609E-01
                       7.5174439609E-01  7.4825560391E-01  7.5174439609E-01
                       7.3635385656E-01  2.6364614344E-01  7.3635385656E-01
                       2.4898226880E-01  2.4954897415E-01  7.5045102585E-01
                       7.5045102585E-01  7.5101773120E-01  2.4898226880E-01
                       2.5496052437E-01  7.4503947563E-01  2.5496052437E-01
                       2.4898226880E-01  7.5101773120E-01  7.5045102585E-01
                       7.5045102585E-01  2.4954897415E-01  2.4898226880E-01
                       6.3302376108E-03 -6.3302376108E-03  6.3302376108E-03
             xred10    2.5146667232E-01  2.4853332768E-01  2.5146667232E-01
                       7.5146667232E-01  7.4853332768E-01  7.5146667232E-01
                       7.3552855882E-01  2.6447144118E-01  7.3552855882E-01
                       2.5071288451E-01  2.5179620690E-01  7.4820379310E-01
                       7.4820379310E-01  7.4928711549E-01  2.5071288451E-01
                       2.5697217933E-01  7.4302782067E-01  2.5697217933E-01
                       2.5071288451E-01  7.4928711549E-01  7.4820379310E-01
                       7.4820379310E-01  2.5179620690E-01  2.5071288451E-01
                       6.7325619895E-03 -6.7325619895E-03  6.7325619895E-03
            znucl       55.00000   53.00000   72.00000   35.00000

- Timing analysis has been suppressed with timopt=0

 Suggested references for the acknowledgment of ABINIT usage.

 Calculation completed.
.Delivered   0 WARNINGs and   5 COMMENTs to log file.