.Version 9.2.2 of ABINIT

 ABINIT is a project of the Universite Catholique de Louvain,
 Corning Inc. and other collaborators, see ~abinit/doc/developers/contributors.txt .
 acknowledgments of the ABINIT effort.

.Starting date : Mon 17 Jul 2023.
- ( at 19h16 )

- The starting date is more than 2 years after the initial release
- of this version of ABINIT, namely Nov 2020.
- Note that the use beyond 3 years after the release will not be supported.
- Action: please, switch to a more recent version of ABINIT.

- input  file    -> Cs2TiI6.in
- output file    -> Cs2TiI6.out
- root for input  files -> Cs2TiI6i
- root for output files -> Cs2TiI6o

 Symmetries : space group Fm -3 m (#225); Bravais cF (face-center cubic)
     intxc =       0    ionmov =       0      iscf =      17    lmnmax =       8
     lnmax =       8     mgfft =      64  mpssoang =       4    mqgrid =    3001
     natom =       9  nloc_mem =       1    nspden =       1   nspinor =       1
    nsppol =       1      nsym =      48    n1xccc =    2501    ntypat =       3
    occopt =       1   xclevel =       2
-    mband =          42        mffmem =           1         mkmem =           1
       mpw =       10326          nfft =      262144          nkpt =           3
  Rough estimation (10% accuracy) of disk space for files :

------------- Echo of variables that govern the present computation ------------
-
- outvars: echo of selected default values
-   iomode0 =  0 , fftalg0 =112 , wfoptalg0 =  0
-
- outvars: echo of global parameters not present in the input file
-  max_nthreads =    0
-
 -outvars: echo values of preprocessed input variables --------
            acell      1.5034787014E+01  1.5034787014E+01  1.5034787014E+01 Bohr
              amu      1.32905430E+02  1.26904470E+02  1.78490000E+02
           diemac      1.20000000E+01
             ecut      2.00000000E+01 Hartree
-          fftalg         112
             iscf          17
           istwfk        1    1    1
              ixc        -428
              kpt      0.00000000E+00  0.00000000E+00  0.00000000E+00
                       5.00000000E-01  0.00000000E+00  0.00000000E+00
                       5.00000000E-01  5.00000000E-01  0.00000000E+00
         kptns_hf      0.00000000E+00  0.00000000E+00  0.00000000E+00
                       5.00000000E-01  0.00000000E+00  0.00000000E+00
                       0.00000000E+00  5.00000000E-01  0.00000000E+00
                       5.00000000E-01  5.00000000E-01  0.00000000E+00
                       0.00000000E+00  0.00000000E+00  5.00000000E-01
                       5.00000000E-01  0.00000000E+00  5.00000000E-01
                       0.00000000E+00  5.00000000E-01  5.00000000E-01
                       5.00000000E-01  5.00000000E-01  5.00000000E-01
         kptrlatt        2    0    0      0    2    0      0    0    2
          kptrlen      3.00695740E+01
P           mkmem           1
            natom           9
            nband          42
          nbandhf          36
            ngfft          64      64      64
             nkpt           3
           nkpthf           8
-           npkpt           4
            nstep        2500
             nsym          48
           ntypat           3
              occ      2.000000  2.000000  2.000000  2.000000  2.000000  2.000000
                       2.000000  2.000000  2.000000  2.000000  2.000000  2.000000
                       2.000000  2.000000  2.000000  2.000000  2.000000  2.000000
                       2.000000  2.000000  2.000000  2.000000  2.000000  2.000000
                       2.000000  2.000000  2.000000  2.000000  2.000000  2.000000
                       2.000000  2.000000  2.000000  2.000000  2.000000  2.000000
                       0.000000  0.000000  0.000000  0.000000  0.000000  0.000000
            rprim      0.0000000000E+00  7.0710678119E-01  7.0710678119E-01
                       7.0710678119E-01  0.0000000000E+00  7.0710678119E-01
                       7.0710678119E-01  7.0710678119E-01  0.0000000000E+00
          spgroup         225
           symrel      1  0  0   0  1  0   0  0  1      -1  0  0   0 -1  0   0  0 -1
                       0 -1  1   0 -1  0   1 -1  0       0  1 -1   0  1  0  -1  1  0
                      -1  0  0  -1  0  1  -1  1  0       1  0  0   1  0 -1   1 -1  0
                       0  1 -1   1  0 -1   0  0 -1       0 -1  1  -1  0  1   0  0  1
                      -1  0  0  -1  1  0  -1  0  1       1  0  0   1 -1  0   1  0 -1
                       0 -1  1   1 -1  0   0 -1  0       0  1 -1  -1  1  0   0  1  0
                       1  0  0   0  0  1   0  1  0      -1  0  0   0  0 -1   0 -1  0
                       0  1 -1   0  0 -1   1  0 -1       0 -1  1   0  0  1  -1  0  1
                      -1  0  1  -1  1  0  -1  0  0       1  0 -1   1 -1  0   1  0  0
                       0 -1  0   1 -1  0   0 -1  1       0  1  0  -1  1  0   0  1 -1
                       1  0 -1   0  0 -1   0  1 -1      -1  0  1   0  0  1   0 -1  1
                       0  1  0   0  0  1   1  0  0       0 -1  0   0  0 -1  -1  0  0
                       1  0 -1   0  1 -1   0  0 -1      -1  0  1   0 -1  1   0  0  1
                       0 -1  0   0 -1  1   1 -1  0       0  1  0   0  1 -1  -1  1  0
                      -1  0  1  -1  0  0  -1  1  0       1  0 -1   1  0  0   1 -1  0
                       0  1  0   1  0  0   0  0  1       0 -1  0  -1  0  0   0  0 -1
                       0  0 -1   0  1 -1   1  0 -1       0  0  1   0 -1  1  -1  0  1
                       1 -1  0   0 -1  1   0 -1  0      -1  1  0   0  1 -1   0  1  0
                       0  0  1   1  0  0   0  1  0       0  0 -1  -1  0  0   0 -1  0
                      -1  1  0  -1  0  0  -1  0  1       1 -1  0   1  0  0   1  0 -1
                       0  0  1   0  1  0   1  0  0       0  0 -1   0 -1  0  -1  0  0
                       1 -1  0   0 -1  0   0 -1  1      -1  1  0   0  1  0   0  1 -1
                       0  0 -1   1  0 -1   0  1 -1       0  0  1  -1  0  1   0 -1  1
                      -1  1  0  -1  0  1  -1  0  0       1 -1  0   1  0 -1   1  0  0
           toldfe      1.00000000E-08 Hartree
            typat      1  1  2  2  2  2  2  2  3
          usefock           1
              wtk        0.12500    0.50000    0.37500
           xangst      2.8128943307E+00  2.8128943307E+00  2.8128943307E+00
                       8.4386829921E+00  8.4386829921E+00  8.4386829921E+00
                       5.6257886614E+00  8.4266164865E+00  5.6257886614E+00
                       5.6257886614E+00  5.6257886614E+00  2.8249608364E+00
                       5.6257886614E+00  5.6257886614E+00  8.4266164865E+00
                       5.6257886614E+00  2.8249608364E+00  5.6257886614E+00
                       8.4266164865E+00  5.6257886614E+00  5.6257886614E+00
                       2.8249608364E+00  5.6257886614E+00  5.6257886614E+00
                      -1.4558597549E-20 -9.1838727196E-20  1.2781622979E-19
            xcart      5.3155999258E+00  5.3155999258E+00  5.3155999258E+00
                       1.5946799777E+01  1.5946799777E+01  1.5946799777E+01
                       1.0631199852E+01  1.5923997386E+01  1.0631199852E+01
                       1.0631199852E+01  1.0631199852E+01  5.3384023169E+00
                       1.0631199852E+01  1.0631199852E+01  1.5923997386E+01
                       1.0631199852E+01  5.3384023169E+00  1.0631199852E+01
                       1.5923997386E+01  1.0631199852E+01  1.0631199852E+01
                       5.3384023169E+00  1.0631199852E+01  1.0631199852E+01
                      -2.7511762247E-20 -1.7355004279E-19  2.4153766963E-19
             xred      2.5000000000E-01  2.5000000000E-01  2.5000000000E-01
                       7.5000000000E-01  7.5000000000E-01  7.5000000000E-01
                       7.4892757208E-01  2.5107242792E-01  7.4892757208E-01
                       2.5107242792E-01  2.5107242792E-01  7.4892757208E-01
                       7.4892757208E-01  7.4892757208E-01  2.5107242792E-01
                       2.5107242792E-01  7.4892757208E-01  2.5107242792E-01
                       2.5107242792E-01  7.4892757208E-01  7.4892757208E-01
                       7.4892757208E-01  2.5107242792E-01  2.5107242792E-01
                       4.4914680573E-21  1.8228231789E-20 -2.0816064078E-20
            znucl       55.00000   53.00000   72.00000

 chkinp: Checking input parameters for consistency.

== DATASET  1 ==================================================================
-   mpi_nproc: 4, omp_nthreads: -1 (-1 if OMP is not activated)
-    --> not optimal distribution: autoparal keyword recommended in input file <--

--- !DatasetInfo
iteration_state: {dtset: 1, }
dimensions: {natom: 9, nkpt: 3, mband: 42, nsppol: 1, nspinor: 1, nspden: 1, mpw: 10326, }
cutoff_energies: {ecut:  20.0, pawecutdg:  -1.0, }
electrons: {nelect:   7.20000000E+01, charge:   0.00000000E+00, occopt:   1.00000000E+00, tsmear:   1.00000000E-02, }
meta: {optdriver: 0, ionmov: 0, optcell: 0, iscf: 17, paral_kgb: 0, }
...

 Real(R)+Recip(G) space primitive vectors, cartesian coordinates (Bohr,Bohr^-1):
 R(1)=  0.0000000 10.6311999 10.6311999  G(1)= -0.0470314  0.0470314  0.0470314
 R(2)= 10.6311999  0.0000000 10.6311999  G(2)=  0.0470314 -0.0470314  0.0470314
 R(3)= 10.6311999 10.6311999  0.0000000  G(3)=  0.0470314  0.0470314 -0.0470314
 Unit cell volume ucvol=  2.4031277E+03 bohr^3
 Angles (23,13,12)=  6.00000000E+01  6.00000000E+01  6.00000000E+01 degrees

 getcut: wavevector=  0.0000  0.0000  0.0000  ngfft=  64  64  64
         ecut(hartree)=     20.000   => boxcut(ratio)=   2.11448

--- Pseudopotential description ------------------------------------------------
- pspini: atom type   1  psp file is ../../../Psps_for_tests/ONCVPSP-PBE-PDv0.4/Cs-sp.psp8
- pspatm: opening atomic psp file    ../../../Psps_for_tests/ONCVPSP-PBE-PDv0.4/Cs-sp.psp8
- Cs    ONCVPSP-3.2.3.1  r_core=   2.27353   1.85623   2.01788   1.90105
- 55.00000   9.00000    170703                znucl, zion, pspdat
    8   32    3    4       600   0.00000      pspcod,pspxc,lmax,lloc,mmax,r2well
    5.99000000000000    5.00000000000000    0.00000000000000   rchrg,fchrg,qchrg
     nproj     2     2     2     2
     extension_switch     1
  pspatm : epsatm=   22.81663475
         --- l  ekb(1:nproj) -->
             0    6.176104    0.756334
             1    6.263084    0.786397
             2    3.737592    0.906929
             3   -9.272327   -2.535859
 pspatm: atomic psp has been read  and splines computed

- pspini: atom type   2  psp file is ../../../Psps_for_tests/ONCVPSP-PBE-PDv0.4/I.psp8
- pspatm: opening atomic psp file    ../../../Psps_for_tests/ONCVPSP-PBE-PDv0.4/I.psp8
- I     ONCVPSP-3.2.3.1  r_core=   2.02042   2.17032   2.27639
- 53.00000   7.00000    170510                znucl, zion, pspdat
    8   32    2    4       600   0.00000      pspcod,pspxc,lmax,lloc,mmax,r2well
    5.99000000000000    4.00000000000000    0.00000000000000   rchrg,fchrg,qchrg
     nproj     2     2     2
     extension_switch     1
  pspatm : epsatm=   19.17050482
         --- l  ekb(1:nproj) -->
             0    5.955518    0.916455
[...]
 ETOT 10  -181.17975488517    -7.225E-08 2.247E-04 1.518E-06
 ETOT 11  -181.17975484608     3.908E-08 2.071E-04 7.223E-08
 ETOT 12  -181.17975484606     2.828E-11 1.975E-04 7.933E-09
 ETOT 13  -181.17975484639    -3.299E-10 1.250E-04 1.137E-09

 At SCF step   13, etot is converged :
  for the second time, diff in etot=  3.299E-10 < toldfe=  1.000E-08

 Cartesian components of stress tensor (hartree/bohr^3)
  sigma(1 1)= -7.19039381E-05  sigma(3 2)=  0.00000000E+00
  sigma(2 2)= -7.19039381E-05  sigma(3 1)=  0.00000000E+00
  sigma(3 3)= -7.19039381E-05  sigma(2 1)=  0.00000000E+00

--- !ResultsGS
iteration_state: {dtset: 1, }
comment   : Summary of ground state results
lattice_vectors:
- [  0.0000000,  10.6311999,  10.6311999, ]
- [ 10.6311999,   0.0000000,  10.6311999, ]
- [ 10.6311999,  10.6311999,   0.0000000, ]
lattice_lengths: [  15.03479,   15.03479,   15.03479, ]
lattice_angles: [ 60.000,  60.000,  60.000, ] # degrees, (23, 13, 12)
lattice_volume:   2.4031277E+03
convergence: {deltae: -3.299E-10, res2:  1.137E-09, residm:  1.250E-04, diffor: null, }
etotal    :  -1.81179755E+02
entropy   :   0.00000000E+00
fermie    :   7.17718897E-02
cartesian_stress_tensor: # hartree/bohr^3
- [ -7.19039381E-05,   0.00000000E+00,   0.00000000E+00, ]
- [  0.00000000E+00,  -7.19039381E-05,   0.00000000E+00, ]
- [  0.00000000E+00,   0.00000000E+00,  -7.19039381E-05, ]
pressure_GPa:   2.1155E+00
xred      :
- [  2.5000E-01,   2.5000E-01,   2.5000E-01, Cs]
- [  7.5000E-01,   7.5000E-01,   7.5000E-01, Cs]
- [  7.4893E-01,   2.5107E-01,   7.4893E-01,  I]
- [  2.5107E-01,   2.5107E-01,   7.4893E-01,  I]
- [  7.4893E-01,   7.4893E-01,   2.5107E-01,  I]
- [  2.5107E-01,   7.4893E-01,   2.5107E-01,  I]
- [  2.5107E-01,   7.4893E-01,   7.4893E-01,  I]
- [  7.4893E-01,   2.5107E-01,   2.5107E-01,  I]
- [  4.4915E-21,   1.8228E-20,  -2.0816E-20, Hf]
cartesian_forces: # hartree/bohr
- [  4.74895578E-30,  -2.40933816E-20,   1.84445324E-20, ]
- [ -4.74895578E-30,  -2.40933816E-20,   1.84445324E-20, ]
- [  2.14012521E-19,   2.10016880E-03,  -1.95567988E-19, ]
- [ -2.82791378E-21,  -2.12654678E-20,  -2.10016880E-03, ]
- [  1.66000792E-19,  -1.90094173E-19,   2.10016880E-03, ]
- [ -5.08396428E-20,  -2.10016880E-03,   6.92841752E-20, ]
- [  2.10016880E-03,   1.85578722E-19,  -1.91227572E-19, ]
- [ -2.10016880E-03,  -1.69250511E-20,   1.12762019E-20, ]
- [ -0.00000000E+00,  -2.40933816E-20,   1.84445324E-20, ]
force_length_stats: {min:   3.03429038E-20, max:   2.10016880E-03, mean:   1.40011253E-03, }
...

 Integrated electronic density in atomic spheres:
 Atom  Sphere_radius  Integrated_density
    1        2.00000          4.41270519
    2        2.00000          4.41270519
    3        2.00000          2.88232070
    4        2.00000          2.88232070
    5        2.00000          2.88232070
    6        2.00000          2.88232070
    7        2.00000          2.88232070
    8        2.00000          2.88232070
    9        2.00000          8.20989074

 ----iterations are completed or convergence reached----

 Mean square residual over all n,k,spin=   13.711E-07; max=  12.503E-05
 reduced coordinates (array xred) for    9 atoms
       0.250000000000      0.250000000000      0.250000000000
       0.750000000000      0.750000000000      0.750000000000
       0.748927572080      0.251072427920      0.748927572080
       0.251072427920      0.251072427920      0.748927572080
       0.748927572080      0.748927572080      0.251072427920
       0.251072427920      0.748927572080      0.251072427920
       0.251072427920      0.748927572080      0.748927572080
       0.748927572080      0.251072427920      0.251072427920
       0.000000000000      0.000000000000     -0.000000000000
 rms dE/dt=  1.4885E-02; max dE/dt=  2.2327E-02; dE/dt below (all hartree)
    1       0.000000000000     -0.000000000000      0.000000000000
    2      -0.000000000000      0.000000000000     -0.000000000000
    3      -0.022327314213      0.000000000000     -0.022327314213
    4       0.022327314213      0.022327314213      0.000000000000
    5      -0.022327314213     -0.022327314213      0.000000000000
    6       0.022327314213      0.000000000000      0.022327314213
    7      -0.000000000000     -0.022327314213     -0.022327314213
    8       0.000000000000      0.022327314213      0.022327314213
    9       0.000000000000      0.000000000000      0.000000000000

 cartesian coordinates (angstrom) at end:
    1      2.81289433071116     2.81289433071116     2.81289433071116
    2      8.43868299213349     8.43868299213349     8.43868299213349
    3      5.62578866142233     8.42661648646843     5.62578866142233
    4      5.62578866142233     5.62578866142233     2.82496083637622
    5      5.62578866142233     5.62578866142233     8.42661648646843
    6      5.62578866142233     2.82496083637622     5.62578866142233
    7      8.42661648646843     5.62578866142233     5.62578866142233
    8      2.82496083637622     5.62578866142233     5.62578866142233
    9     -0.00000000000000    -0.00000000000000     0.00000000000000

 cartesian forces (hartree/bohr) at end:
    1      0.00000000000000    -0.00000000000000     0.00000000000000
    2     -0.00000000000000    -0.00000000000000     0.00000000000000
    3      0.00000000000000     0.00210016879792    -0.00000000000000
    4     -0.00000000000000    -0.00000000000000    -0.00210016879792
    5      0.00000000000000    -0.00000000000000     0.00210016879792
    6     -0.00000000000000    -0.00210016879792     0.00000000000000
    7      0.00210016879792     0.00000000000000    -0.00000000000000
    8     -0.00210016879792    -0.00000000000000     0.00000000000000
    9     -0.00000000000000    -0.00000000000000     0.00000000000000
 frms,max,avg= 9.9002907E-04 2.1001688E-03   0.000E+00  0.000E+00  0.000E+00 h/b

 cartesian forces (eV/Angstrom) at end:
    1      0.00000000000000    -0.00000000000000     0.00000000000000
    2     -0.00000000000000    -0.00000000000000     0.00000000000000
    3      0.00000000000000     0.10799501264092    -0.00000000000000
    4     -0.00000000000000    -0.00000000000000    -0.10799501264092
    5      0.00000000000000    -0.00000000000000     0.10799501264092
    6     -0.00000000000000    -0.10799501264092     0.00000000000000
    7      0.10799501264092     0.00000000000000    -0.00000000000000
    8     -0.10799501264092    -0.00000000000000     0.00000000000000
    9     -0.00000000000000    -0.00000000000000     0.00000000000000
 frms,max,avg= 5.0909337E-02 1.0799501E-01   0.000E+00  0.000E+00  0.000E+00 e/A
 length scales= 15.034787014332 15.034787014332 15.034787014332 bohr
              =  7.956066623989  7.956066623989  7.956066623989 angstroms
 prteigrs : about to open file Cs2TiI6o_EIG
 Fermi (or HOMO) energy (hartree) =   0.07177   Average Vxc (hartree)=  -0.26483
 Eigenvalues (hartree) for nkpt=   3  k points:
 kpt#   1, nband= 42, wtk=  0.12500, kpt=  0.0000  0.0000  0.0000 (reduced coord)
  -2.36087   -1.14739   -1.14739   -1.14739   -0.73490   -0.73458   -0.41637   -0.38559
  -0.38559   -0.38559   -0.37937   -0.37937   -0.22104   -0.22104   -0.22104   -0.21727
  -0.21727   -0.21727   -0.10954   -0.03824   -0.03824   -0.03824   -0.03232   -0.03232
  -0.03232   -0.00782   -0.00782    0.03095    0.03095    0.03095    0.06418    0.06418
   0.06418    0.07177    0.07177    0.07177    0.17417    0.17417    0.17417    0.23688
   0.25636    0.25636
 prteigrs : prtvol=0 or 1, do not print more k-points.

--- !EnergyTerms
iteration_state     : {dtset: 1, }
comment             : Components of total free energy in Hartree
kinetic             :  4.36429483797519E+01
hartree             :  2.97899179226607E+01
xc                  : -4.72254029632704E+01
Ewald energy        : -1.23927519597361E+02
psp_core            :  5.47088914233348E+00
local_psp           : -1.05140128390157E+02
non_local_psp+x     :  1.62095334429533E+01
total_energy        : -1.81179762063089E+02
...

--- !EnergyTermsDC
iteration_state     : {dtset: 1, }
comment             : '"Double-counting" decomposition of free energy'
band_energy         : -2.17430310545793E+01
Ewald energy        : -1.23927519597361E+02
psp_core            :  5.47088914233348E+00
xc_dc               : -4.09800933367790E+01
total_energy_dc     : -1.81179754846385E+02
...

 Cartesian components of stress tensor (hartree/bohr^3)
  sigma(1 1)= -7.19039381E-05  sigma(3 2)=  0.00000000E+00
  sigma(2 2)= -7.19039381E-05  sigma(3 1)=  0.00000000E+00
  sigma(3 3)= -7.19039381E-05  sigma(2 1)=  0.00000000E+00

-Cartesian components of stress tensor (GPa)         [Pressure=  2.1155E+00 GPa]
- sigma(1 1)= -2.11548654E+00  sigma(3 2)=  0.00000000E+00
- sigma(2 2)= -2.11548654E+00  sigma(3 1)=  0.00000000E+00
- sigma(3 3)= -2.11548654E+00  sigma(2 1)=  0.00000000E+00

== END DATASET(S) ==============================================================

 -outvars: echo values of variables after computation  --------
            acell      1.5034787014E+01  1.5034787014E+01  1.5034787014E+01 Bohr
              amu      1.32905430E+02  1.26904470E+02  1.78490000E+02
           diemac      1.20000000E+01
             ecut      2.00000000E+01 Hartree
           etotal     -1.8117975485E+02
            fcart      4.7489557754E-30 -2.4093381619E-20  1.8444532414E-20
                      -4.7489557754E-30 -2.4093381603E-20  1.8444532417E-20
                       2.1401252072E-19  2.1001687979E-03 -1.9556798830E-19
                      -2.8279137804E-21 -2.1265467830E-20 -2.1001687979E-03
                       1.6600079174E-19 -1.9009417335E-19  2.1001687979E-03
                      -5.0839642754E-20 -2.1001687979E-03  6.9284175170E-20
                       2.1001687979E-03  1.8557872239E-19 -1.9122757158E-19
                      -2.1001687979E-03 -1.6925051113E-20  1.1276201918E-20
                      -0.0000000000E+00 -2.4093381611E-20  1.8444532416E-20
-          fftalg         112
             iscf          17
           istwfk        1    1    1
              ixc        -428
              kpt      0.00000000E+00  0.00000000E+00  0.00000000E+00
                       5.00000000E-01  0.00000000E+00  0.00000000E+00
                       5.00000000E-01  5.00000000E-01  0.00000000E+00
         kptns_hf      0.00000000E+00  0.00000000E+00  0.00000000E+00
                       5.00000000E-01  0.00000000E+00  0.00000000E+00
                       0.00000000E+00  5.00000000E-01  0.00000000E+00
                       5.00000000E-01  5.00000000E-01  0.00000000E+00
                       0.00000000E+00  0.00000000E+00  5.00000000E-01
                       5.00000000E-01  0.00000000E+00  5.00000000E-01
                       0.00000000E+00  5.00000000E-01  5.00000000E-01
                       5.00000000E-01  5.00000000E-01  5.00000000E-01
         kptrlatt        2    0    0      0    2    0      0    0    2
          kptrlen      3.00695740E+01
P           mkmem           1
            natom           9
            nband          42
          nbandhf          36
            ngfft          64      64      64
             nkpt           3
           nkpthf           8
-           npkpt           4
            nstep        2500
             nsym          48
           ntypat           3
              occ      2.000000  2.000000  2.000000  2.000000  2.000000  2.000000
                       2.000000  2.000000  2.000000  2.000000  2.000000  2.000000
                       2.000000  2.000000  2.000000  2.000000  2.000000  2.000000
                       2.000000  2.000000  2.000000  2.000000  2.000000  2.000000
                       2.000000  2.000000  2.000000  2.000000  2.000000  2.000000
                       2.000000  2.000000  2.000000  2.000000  2.000000  2.000000
                       0.000000  0.000000  0.000000  0.000000  0.000000  0.000000
            rprim      0.0000000000E+00  7.0710678119E-01  7.0710678119E-01
                       7.0710678119E-01  0.0000000000E+00  7.0710678119E-01
                       7.0710678119E-01  7.0710678119E-01  0.0000000000E+00
          spgroup         225
           strten     -7.1903938135E-05 -7.1903938135E-05 -7.1903938135E-05
                       0.0000000000E+00  0.0000000000E+00  0.0000000000E+00
           symrel      1  0  0   0  1  0   0  0  1      -1  0  0   0 -1  0   0  0 -1
                       0 -1  1   0 -1  0   1 -1  0       0  1 -1   0  1  0  -1  1  0
                      -1  0  0  -1  0  1  -1  1  0       1  0  0   1  0 -1   1 -1  0
                       0  1 -1   1  0 -1   0  0 -1       0 -1  1  -1  0  1   0  0  1
                      -1  0  0  -1  1  0  -1  0  1       1  0  0   1 -1  0   1  0 -1
                       0 -1  1   1 -1  0   0 -1  0       0  1 -1  -1  1  0   0  1  0
                       1  0  0   0  0  1   0  1  0      -1  0  0   0  0 -1   0 -1  0
                       0  1 -1   0  0 -1   1  0 -1       0 -1  1   0  0  1  -1  0  1
                      -1  0  1  -1  1  0  -1  0  0       1  0 -1   1 -1  0   1  0  0
                       0 -1  0   1 -1  0   0 -1  1       0  1  0  -1  1  0   0  1 -1
                       1  0 -1   0  0 -1   0  1 -1      -1  0  1   0  0  1   0 -1  1
                       0  1  0   0  0  1   1  0  0       0 -1  0   0  0 -1  -1  0  0
                       1  0 -1   0  1 -1   0  0 -1      -1  0  1   0 -1  1   0  0  1
                       0 -1  0   0 -1  1   1 -1  0       0  1  0   0  1 -1  -1  1  0
                      -1  0  1  -1  0  0  -1  1  0       1  0 -1   1  0  0   1 -1  0
                       0  1  0   1  0  0   0  0  1       0 -1  0  -1  0  0   0  0 -1
                       0  0 -1   0  1 -1   1  0 -1       0  0  1   0 -1  1  -1  0  1
                       1 -1  0   0 -1  1   0 -1  0      -1  1  0   0  1 -1   0  1  0
                       0  0  1   1  0  0   0  1  0       0  0 -1  -1  0  0   0 -1  0
                      -1  1  0  -1  0  0  -1  0  1       1 -1  0   1  0  0   1  0 -1
                       0  0  1   0  1  0   1  0  0       0  0 -1   0 -1  0  -1  0  0
                       1 -1  0   0 -1  0   0 -1  1      -1  1  0   0  1  0   0  1 -1
                       0  0 -1   1  0 -1   0  1 -1       0  0  1  -1  0  1   0 -1  1
                      -1  1  0  -1  0  1  -1  0  0       1 -1  0   1  0 -1   1  0  0
           toldfe      1.00000000E-08 Hartree
            typat      1  1  2  2  2  2  2  2  3
          usefock           1
              wtk        0.12500    0.50000    0.37500
           xangst      2.8128943307E+00  2.8128943307E+00  2.8128943307E+00
                       8.4386829921E+00  8.4386829921E+00  8.4386829921E+00
                       5.6257886614E+00  8.4266164865E+00  5.6257886614E+00
                       5.6257886614E+00  5.6257886614E+00  2.8249608364E+00
                       5.6257886614E+00  5.6257886614E+00  8.4266164865E+00
                       5.6257886614E+00  2.8249608364E+00  5.6257886614E+00
                       8.4266164865E+00  5.6257886614E+00  5.6257886614E+00
                       2.8249608364E+00  5.6257886614E+00  5.6257886614E+00
                      -1.4558597549E-20 -9.1838727196E-20  1.2781622979E-19
            xcart      5.3155999258E+00  5.3155999258E+00  5.3155999258E+00
                       1.5946799777E+01  1.5946799777E+01  1.5946799777E+01
                       1.0631199852E+01  1.5923997386E+01  1.0631199852E+01
                       1.0631199852E+01  1.0631199852E+01  5.3384023169E+00
                       1.0631199852E+01  1.0631199852E+01  1.5923997386E+01
                       1.0631199852E+01  5.3384023169E+00  1.0631199852E+01
                       1.5923997386E+01  1.0631199852E+01  1.0631199852E+01
                       5.3384023169E+00  1.0631199852E+01  1.0631199852E+01
                      -2.7511762247E-20 -1.7355004279E-19  2.4153766963E-19
             xred      2.5000000000E-01  2.5000000000E-01  2.5000000000E-01
                       7.5000000000E-01  7.5000000000E-01  7.5000000000E-01
                       7.4892757208E-01  2.5107242792E-01  7.4892757208E-01
                       2.5107242792E-01  2.5107242792E-01  7.4892757208E-01
                       7.4892757208E-01  7.4892757208E-01  2.5107242792E-01
                       2.5107242792E-01  7.4892757208E-01  2.5107242792E-01
                       2.5107242792E-01  7.4892757208E-01  7.4892757208E-01
                       7.4892757208E-01  2.5107242792E-01  2.5107242792E-01
                       4.4914680573E-21  1.8228231789E-20 -2.0816064078E-20
            znucl       55.00000   53.00000   72.00000

- Timing analysis has been suppressed with timopt=0

 Suggested references for the acknowledgment of ABINIT usage.

 Calculation completed.
.Delivered   0 WARNINGs and   0 COMMENTs to log file.