.Version 9.2.2 of ABINIT

 ABINIT is a project of the Universite Catholique de Louvain,
 Corning Inc. and other collaborators, see ~abinit/doc/developers/contributors.txt .
 acknowledgments of the ABINIT effort.

.Starting date : Tue  6 Dec 2022.
- ( at 13h28 )

- The starting date is more than 2 years after the initial release
- of this version of ABINIT, namely Nov 2020.
- Note that the use beyond 3 years after the release will not be supported.
- Action: please, switch to a more recent version of ABINIT.

- input  file    -> Cs2TiI6.in
- output file    -> Cs2TiI6.out
- root for input  files -> Cs2TiI6i
- root for output files -> Cs2TiI6o

- inpspheads : Reading pseudopotential header in XML form from
-   ../../../Psps_for_tests/ATOMICDATA/Cs.GGA_PBE-JTH.xml
- inpspheads : Reading pseudopotential header in XML form from
-   ../../../Psps_for_tests/ATOMICDATA/Cl.GGA_PBE-JTH.xml
- inpspheads : Reading pseudopotential header in XML form from
-   ../../../Psps_for_tests/ATOMICDATA/Zr.GGA_PBE-JTH.xml

 Symmetries : space group Fm -3 m (#225); Bravais cF (face-center cubic)
     intxc =       0    ionmov =       2      iscf =      17    lmnmax =      18
     lnmax =       6     mgfft =      64  mpssoang =       3    mqgrid =    3984
     natom =       9  nloc_mem =       2    nspden =       1   nspinor =       1
    nsppol =       1      nsym =      48    n1xccc =       1    ntypat =       3
    occopt =       1   xclevel =       2
-    mband =          42        mffmem =           1         mkmem =           2
       mpw =       10918          nfft =      262144          nkpt =          10
Pmy_natom=         2
 PAW method is used; the additional fine FFT grid is defined by:
   mgfftf=       100    nfftf =   1000000
  Rough estimation (10% accuracy) of disk space for files :

------------- Echo of variables that govern the present computation ------------
-
- outvars: echo of selected default values
-   iomode0 =  0 , fftalg0 =112 , wfoptalg0 = 10
-
- outvars: echo of global parameters not present in the input file
-  max_nthreads =    0
-
 -outvars: echo values of preprocessed input variables --------
            acell      1.4900000000E+01  1.4900000000E+01  1.4900000000E+01 Bohr
              amu      1.32905430E+02  3.54527000E+01  9.12240000E+01
           diemac      1.20000000E+01
          dilatmx      1.15000000E+00
             ecut      1.60000000E+01 Hartree
           ecutsm      5.00000000E-01 Hartree
-          fftalg         112
           ionmov           2
              ixc     -101130
              kpt     -1.25000000E-01 -2.50000000E-01  0.00000000E+00
                      -1.25000000E-01  5.00000000E-01  0.00000000E+00
                      -2.50000000E-01 -3.75000000E-01  0.00000000E+00
                      -1.25000000E-01 -3.75000000E-01  1.25000000E-01
                      -1.25000000E-01  2.50000000E-01  0.00000000E+00
                      -2.50000000E-01  3.75000000E-01  0.00000000E+00
                      -3.75000000E-01  5.00000000E-01  0.00000000E+00
                      -2.50000000E-01  5.00000000E-01  1.25000000E-01
                      -1.25000000E-01  0.00000000E+00  0.00000000E+00
                      -3.75000000E-01  0.00000000E+00  0.00000000E+00
         kptrlatt        4   -4    4     -4    4    4     -4   -4    4
          kptrlen      8.42871283E+01
P           mkmem           2
            natom           9
            nband          42
            ngfft          64      64      64
          ngfftdg         100     100     100
             nkpt          10
            nstep        2500
             nsym          48
            ntime        1000
           ntypat           3
              occ      2.000000  2.000000  2.000000  2.000000  2.000000  2.000000
                       2.000000  2.000000  2.000000  2.000000  2.000000  2.000000
                       2.000000  2.000000  2.000000  2.000000  2.000000  2.000000
                       2.000000  2.000000  2.000000  2.000000  2.000000  2.000000
                       2.000000  2.000000  2.000000  2.000000  2.000000  2.000000
                       2.000000  2.000000  2.000000  2.000000  2.000000  2.000000
                       0.000000  0.000000  0.000000  0.000000  0.000000  0.000000
          optcell           2
        optforces           1
        pawecutdg      4.00000000E+01 Hartree
            prtwf           0
            rprim      0.0000000000E+00  7.0710678119E-01  7.0710678119E-01
                       7.0710678119E-01  0.0000000000E+00  7.0710678119E-01
                       7.0710678119E-01  7.0710678119E-01  0.0000000000E+00
           shiftk      5.00000000E-01  5.00000000E-01  5.00000000E-01
          spgroup         225
           symrel      1  0  0   0  1  0   0  0  1      -1  0  0   0 -1  0   0  0 -1
                       0 -1  1   0 -1  0   1 -1  0       0  1 -1   0  1  0  -1  1  0
                      -1  0  0  -1  0  1  -1  1  0       1  0  0   1  0 -1   1 -1  0
                       0  1 -1   1  0 -1   0  0 -1       0 -1  1  -1  0  1   0  0  1
                      -1  0  0  -1  1  0  -1  0  1       1  0  0   1 -1  0   1  0 -1
                       0 -1  1   1 -1  0   0 -1  0       0  1 -1  -1  1  0   0  1  0
                       1  0  0   0  0  1   0  1  0      -1  0  0   0  0 -1   0 -1  0
                       0  1 -1   0  0 -1   1  0 -1       0 -1  1   0  0  1  -1  0  1
                      -1  0  1  -1  1  0  -1  0  0       1  0 -1   1 -1  0   1  0  0
                       0 -1  0   1 -1  0   0 -1  1       0  1  0  -1  1  0   0  1 -1
                       1  0 -1   0  0 -1   0  1 -1      -1  0  1   0  0  1   0 -1  1
                       0  1  0   0  0  1   1  0  0       0 -1  0   0  0 -1  -1  0  0
                       1  0 -1   0  1 -1   0  0 -1      -1  0  1   0 -1  1   0  0  1
                       0 -1  0   0 -1  1   1 -1  0       0  1  0   0  1 -1  -1  1  0
                      -1  0  1  -1  0  0  -1  1  0       1  0 -1   1  0  0   1 -1  0
                       0  1  0   1  0  0   0  0  1       0 -1  0  -1  0  0   0  0 -1
                       0  0 -1   0  1 -1   1  0 -1       0  0  1   0 -1  1  -1  0  1
                       1 -1  0   0 -1  1   0 -1  0      -1  1  0   0  1 -1   0  1  0
                       0  0  1   1  0  0   0  1  0       0  0 -1  -1  0  0   0 -1  0
                      -1  1  0  -1  0  0  -1  0  1       1 -1  0   1  0  0   1  0 -1
                       0  0  1   0  1  0   1  0  0       0  0 -1   0 -1  0  -1  0  0
                       1 -1  0   0 -1  0   0 -1  1      -1  1  0   0  1  0   0  1 -1
                       0  0 -1   1  0 -1   0  1 -1       0  0  1  -1  0  1   0 -1  1
                      -1  1  0  -1  0  1  -1  0  0       1 -1  0   1  0 -1   1  0  0
           toldff      1.00000000E-08
           tolmxf      1.00000000E-05
            typat      1  1  2  2  2  2  2  2  3
           useylm           1
              wtk        0.09375    0.09375    0.09375    0.18750    0.09375    0.09375
                         0.09375    0.18750    0.03125    0.03125
           xangst      2.7876767052E+00  2.7876767052E+00  2.7876767052E+00
                       8.3630301156E+00  8.3630301156E+00  8.3630301156E+00
                       5.5753534104E+00  5.5753534104E+00  2.6754601581E+00
                       5.5753534104E+00  5.5753534104E+00  8.4752466627E+00
                       8.4752466627E+00  5.5753534104E+00  5.5753534104E+00
                       5.5753534104E+00  8.4752466627E+00  5.5753534104E+00
                       5.5753534104E+00  2.6754601581E+00  5.5753534104E+00
                       2.6754601581E+00  5.5753534104E+00  5.5753534104E+00
                       3.1876716076E-22  2.8529018231E-21  7.7934613333E-21
            xcart      5.2679455199E+00  5.2679455199E+00  5.2679455199E+00
                       1.5803836560E+01  1.5803836560E+01  1.5803836560E+01
                       1.0535891040E+01  1.0535891040E+01  5.0558869783E+00
                       1.0535891040E+01  1.0535891040E+01  1.6015895101E+01
                       1.6015895101E+01  1.0535891040E+01  1.0535891040E+01
                       1.0535891040E+01  1.6015895101E+01  1.0535891040E+01
                       1.0535891040E+01  5.0558869783E+00  1.0535891040E+01
                       5.0558869783E+00  1.0535891040E+01  1.0535891040E+01
                       6.0238263400E-22  5.3912031297E-21  1.4727507547E-20
             xred      2.5000000000E-01  2.5000000000E-01  2.5000000000E-01
                       7.5000000000E-01  7.5000000000E-01  7.5000000000E-01
                       2.3993637364E-01  2.3993637364E-01  7.6006362636E-01
                       7.6006362636E-01  7.6006362636E-01  2.3993637364E-01
                       2.3993637364E-01  7.6006362636E-01  7.6006362636E-01
                       7.6006362636E-01  2.3993637364E-01  7.6006362636E-01
                       2.3993637364E-01  7.6006362636E-01  2.3993637364E-01
                       7.6006362636E-01  2.3993637364E-01  2.3993637364E-01
                       9.2618308073E-22  4.7165859128E-22 -4.1448424962E-22
            znucl       55.00000   17.00000   40.00000

 chkinp: Checking input parameters for consistency.

== DATASET  1 ==================================================================
-   mpi_nproc: 6, omp_nthreads: -1 (-1 if OMP is not activated)

--- !DatasetInfo
iteration_state: {dtset: 1, }
dimensions: {natom: 9, nkpt: 10, mband: 42, nsppol: 1, nspinor: 1, nspden: 1, mpw: 10918, }
cutoff_energies: {ecut:  16.0, pawecutdg:  40.0, }
electrons: {nelect:   7.20000000E+01, charge:   0.00000000E+00, occopt:   1.00000000E+00, tsmear:   1.00000000E-02, }
meta: {optdriver: 0, ionmov: 2, optcell: 2, iscf: 17, paral_kgb: 0, }
...

 Real(R)+Recip(G) space primitive vectors, cartesian coordinates (Bohr,Bohr^-1):
 R(1)=  0.0000000 10.5358910 10.5358910  G(1)= -0.0474568  0.0474568  0.0474568
 R(2)= 10.5358910  0.0000000 10.5358910  G(2)=  0.0474568 -0.0474568  0.0474568
 R(3)= 10.5358910 10.5358910  0.0000000  G(3)=  0.0474568  0.0474568 -0.0474568
 Unit cell volume ucvol=  2.3390732E+03 bohr^3
 Angles (23,13,12)=  6.00000000E+01  6.00000000E+01  6.00000000E+01 degrees

 Coarse grid specifications (used for wave-functions):

 getcut: wavevector=  0.0000  0.0000  0.0000  ngfft=  64  64  64
         ecut(hartree)=     21.160   => boxcut(ratio)=   2.07430

 Fine grid specifications (used for densities):

 getcut: wavevector=  0.0000  0.0000  0.0000  ngfft= 100 100 100
         ecut(hartree)=     52.900   => boxcut(ratio)=   2.04984

--- Pseudopotential description ------------------------------------------------
- pspini: atom type   1  psp file is ../../../Psps_for_tests/ATOMICDATA/Cs.GGA_PBE-JTH.xml
- pspatm: opening atomic psp file    ../../../Psps_for_tests/ATOMICDATA/Cs.GGA_PBE-JTH.xml
- pspatm : Reading pseudopotential header in XML form from ../../../Psps_for_tests/ATOMICDATA/Cs.GGA_PBE-JTH.xml
 Pseudopotential format is: paw10
 basis_size (lnmax)=  6 (lmn_size= 18), orbitals=   0   0   1   1   2   2
 Spheres core radius: rc_sph= 2.20660278
 1 radial meshes are used:
[...]
 Reduced forces (fred)
  1.61555410786266E-23  3.59776199090073E-22  1.36563462799307E-22
  1.64312679494776E-23  3.59776199090073E-22  1.36287735928456E-22
  1.26883573495514E-05  1.26883573495514E-05  1.36287735928456E-22
 -1.26883573495514E-05 -1.26883573495514E-05  1.36287735928456E-22
  1.63623362317650E-23 -1.26883573495514E-05 -1.26883573495514E-05
 -1.26883573495514E-05  3.59776199090073E-22 -1.26883573495514E-05
  1.26883573495514E-05  3.59776199090073E-22  1.26883573495514E-05
  1.63623362317650E-23  1.26883573495514E-05  1.26883573495514E-05
  1.63623362317648E-23  3.59776199090073E-22  1.36287735928456E-22
 Scale of Primitive Cell (acell) [bohr]
  1.44164511707799E+01  1.44164511707799E+01  1.44164511707799E+01
 Real space primitive translations (rprimd) [bohr]
  0.00000000000000E+00  1.01939703835032E+01  1.01939703835032E+01
  1.01939703835032E+01  0.00000000000000E+00  1.01939703835032E+01
  1.01939703835032E+01  1.01939703835032E+01  0.00000000000000E+00
 Unitary Cell Volume (ucvol) [Bohr^3]=  2.11865429676364E+03
 Angles (23,13,12)= [degrees]
  6.00000000000000E+01  6.00000000000000E+01  6.00000000000000E+01
 Lengths [Bohr]
  1.44164511707799E+01  1.44164511707799E+01  1.44164511707799E+01
 Stress tensor in cartesian coordinates (strten) [Ha/bohr^3]
 -1.95494588703035E-09  0.00000000000000E+00  0.00000000000000E+00
  0.00000000000000E+00 -1.95494588703035E-09  0.00000000000000E+00
  0.00000000000000E+00  0.00000000000000E+00 -1.95494588789771E-09
 Total energy (etotal) [Ha]= -1.79826124463293E+02

 Difference of energy with previous step (new-old):
           Absolute (Ha)=-8.55487E-08
           Relative     =-4.75730E-10

 At Broyd/MD step  11, gradients are converged :
  max grad (force/stress) = 1.2447E-06 < tolmxf= 1.0000E-05 ha/bohr (free atoms)

 ----iterations are completed or convergence reached----

 Mean square residual over all n,k,spin=   26.341E-12; max=  58.936E-10
 reduced coordinates (array xred) for    9 atoms
       0.250000000000      0.250000000000      0.250000000000
       0.750000000000      0.750000000000      0.750000000000
       0.230467138383      0.230467138383      0.769532861617
       0.769532861617      0.769532861617      0.230467138383
       0.230467138383      0.769532861617      0.769532861617
       0.769532861617      0.230467138383      0.769532861617
       0.230467138383      0.769532861617      0.230467138383
       0.769532861617      0.230467138383      0.230467138383
       0.000000000000     -0.000000000000     -0.000000000000
 rms dE/dt=  8.4589E-06; max dE/dt=  1.2688E-05; dE/dt below (all hartree)
    1      -0.000000000000      0.000000000000      0.000000000000
    2       0.000000000000      0.000000000000      0.000000000000
    3       0.000012688357      0.000012688357      0.000000000000
    4      -0.000012688357     -0.000012688357      0.000000000000
    5      -0.000000000000     -0.000012688357     -0.000012688357
    6      -0.000012688357      0.000000000000     -0.000012688357
    7       0.000012688357      0.000000000000      0.000012688357
    8       0.000000000000      0.000012688357      0.000012688357
    9       0.000000000000      0.000000000000      0.000000000000

 cartesian coordinates (angstrom) at end:
    1      2.69720839599567     2.69720839599567     2.69720839599567
    2      8.09162518798702     8.09162518798702     8.09162518798702
    3      5.39441679199135     5.39441679199135     2.48647160259424
    4      5.39441679199135     5.39441679199135     8.30236198138847
    5      8.30236198138847     5.39441679199135     5.39441679199135
    6      5.39441679199135     8.30236198138847     5.39441679199135
    7      5.39441679199135     2.48647160259424     5.39441679199135
    8      2.48647160259424     5.39441679199135     5.39441679199135
    9     -0.00000000000000     0.00000000000000     0.00000000000000

 cartesian forces (hartree/bohr) at end:
    1     -0.00000000000000     0.00000000000000    -0.00000000000000
    2     -0.00000000000000     0.00000000000000    -0.00000000000000
    3     -0.00000000000000    -0.00000000000000    -0.00000124469239
    4      0.00000000000000    -0.00000000000000     0.00000124469239
    5      0.00000124469239    -0.00000000000000     0.00000000000000
    6     -0.00000000000000     0.00000124469239    -0.00000000000000
    7     -0.00000000000000    -0.00000124469239    -0.00000000000000
    8     -0.00000124469239     0.00000000000000    -0.00000000000000
    9     -0.00000000000000     0.00000000000000    -0.00000000000000
 frms,max,avg= 5.8675362E-07 1.2446924E-06   0.000E+00  0.000E+00  0.000E+00 h/b

 cartesian forces (eV/Angstrom) at end:
    1     -0.00000000000000     0.00000000000000    -0.00000000000000
    2     -0.00000000000000     0.00000000000000    -0.00000000000000
    3     -0.00000000000000    -0.00000000000000    -0.00006400465068
    4      0.00000000000000    -0.00000000000000     0.00006400465068
    5      0.00006400465068    -0.00000000000000     0.00000000000000
    6     -0.00000000000000     0.00006400465068    -0.00000000000000
    7     -0.00000000000000    -0.00006400465068    -0.00000000000000
    8     -0.00006400465068     0.00000000000000    -0.00000000000000
    9     -0.00000000000000     0.00000000000000    -0.00000000000000
 frms,max,avg= 3.0172082E-05 6.4004651E-05   0.000E+00  0.000E+00  0.000E+00 e/A
 length scales= 14.416451170780 14.416451170780 14.416451170780 bohr
              =  7.628857388327  7.628857388327  7.628857388327 angstroms
 prteigrs : about to open file Cs2TiI6o_EIG
 Fermi (or HOMO) energy (hartree) =  -0.01821   Average Vxc (hartree)=  -0.28464
 Eigenvalues (hartree) for nkpt=  10  k points:
 kpt#   1, nband= 42, wtk=  0.09375, kpt= -0.1250 -0.2500  0.0000 (reduced coord)
  -1.78467   -0.97634   -0.97634   -0.97634   -0.71459   -0.71429   -0.49758   -0.48438
  -0.48367   -0.48065   -0.47998   -0.47964   -0.23287   -0.23285   -0.23174   -0.23002
  -0.22978   -0.22925   -0.11188   -0.09458   -0.09101   -0.08557   -0.08179   -0.08156
  -0.07499   -0.07175   -0.06905   -0.04255   -0.04132   -0.03884   -0.03432   -0.02816
  -0.02803   -0.02156   -0.02138   -0.01851    0.12028    0.12314    0.12333    0.20880
   0.21667    0.22351
 prteigrs : prtvol=0 or 1, do not print more k-points.

--- !EnergyTerms
iteration_state     : {dtset: 1, itime: 11, icycle: 1, }
comment             : Components of total free energy in Hartree
kinetic             :  6.16352307156311E+01
hartree             :  4.84501992955399E+01
xc                  : -5.36571632096830E+01
Ewald energy        : -1.21246806625037E+02
psp_core            :  4.84000248466965E+00
local_psp           : -1.65432039796611E+02
spherical_terms     :  4.55844526646354E+01
total_energy        : -1.79826124470856E+02
total_energy_eV     : -4.89331770103259E+03
...

--- !EnergyTermsDC
iteration_state     : {dtset: 1, itime: 11, icycle: 1, }
comment             : '"Double-counting" decomposition of free energy'
band_energy         : -2.29832633023642E+01
Ewald energy        : -1.21246806625037E+02
psp_core            :  4.84000248466965E+00
xc_dc               : -5.60213322682022E+01
spherical_terms     :  1.55852752476409E+01
total_energy_dc     : -1.79826124463293E+02
total_energy_dc_eV  : -4.89331770082680E+03
...

 rms coord change=  7.7316E-03   atom, delta coord (reduced):
     1        0.000000000000      0.000000000000      0.000000000000
     2        0.000000000000      0.000000000000      0.000000000000
     3       -0.009469235257     -0.009469235257      0.009469235257
     4        0.009469235257      0.009469235257     -0.009469235257
     5       -0.009469235257      0.009469235257      0.009469235257
     6        0.009469235257     -0.009469235257      0.009469235257
     7       -0.009469235257      0.009469235257     -0.009469235257
     8        0.009469235257     -0.009469235257     -0.009469235257
     9        0.000000000000     -0.000000000000     -0.000000000000

 Cartesian components of stress tensor (hartree/bohr^3)
  sigma(1 1)= -1.95494589E-09  sigma(3 2)=  0.00000000E+00
  sigma(2 2)= -1.95494589E-09  sigma(3 1)=  0.00000000E+00
  sigma(3 3)= -1.95494589E-09  sigma(2 1)=  0.00000000E+00

-Cartesian components of stress tensor (GPa)         [Pressure=  5.7516E-05 GPa]
- sigma(1 1)= -5.75164841E-05  sigma(3 2)=  0.00000000E+00
- sigma(2 2)= -5.75164841E-05  sigma(3 1)=  0.00000000E+00
- sigma(3 3)= -5.75164841E-05  sigma(2 1)=  0.00000000E+00

== END DATASET(S) ==============================================================

 -outvars: echo values of variables after computation  --------
            acell      1.4416451171E+01  1.4416451171E+01  1.4416451171E+01 Bohr
              amu      1.32905430E+02  3.54527000E+01  9.12240000E+01
           diemac      1.20000000E+01
          dilatmx      1.15000000E+00
             ecut      1.60000000E+01 Hartree
           ecutsm      5.00000000E-01 Hartree
           etotal     -1.7982612446E+02
            fcart     -2.3552360010E-23  1.0155866038E-23 -1.1740679459E-23
                      -2.3525311975E-23  1.0155866038E-23 -1.1767727494E-23
                      -4.5813143271E-25 -1.2911314505E-23 -1.2446923890E-06
                       3.6492309937E-23 -4.9861755874E-23  1.2446923890E-06
                       1.2446923890E-06 -2.1604488480E-22  2.1443978535E-22
                      -2.3245685377E-23  1.2446923890E-06 -1.2047354092E-23
                      -2.3811700582E-23 -1.2446923890E-06 -1.1481338887E-23
                      -1.2446923890E-06  1.3048426048E-22 -1.3208935993E-22
                      -2.3528692979E-23  1.0159247042E-23 -1.1764346490E-23
-          fftalg         112
           ionmov           2
              ixc     -101130
              kpt     -1.25000000E-01 -2.50000000E-01  0.00000000E+00
                      -1.25000000E-01  5.00000000E-01  0.00000000E+00
                      -2.50000000E-01 -3.75000000E-01  0.00000000E+00
                      -1.25000000E-01 -3.75000000E-01  1.25000000E-01
                      -1.25000000E-01  2.50000000E-01  0.00000000E+00
                      -2.50000000E-01  3.75000000E-01  0.00000000E+00
                      -3.75000000E-01  5.00000000E-01  0.00000000E+00
                      -2.50000000E-01  5.00000000E-01  1.25000000E-01
                      -1.25000000E-01  0.00000000E+00  0.00000000E+00
                      -3.75000000E-01  0.00000000E+00  0.00000000E+00
         kptrlatt        4   -4    4     -4    4    4     -4   -4    4
          kptrlen      8.42871283E+01
P           mkmem           2
            natom           9
            nband          42
            ngfft          64      64      64
          ngfftdg         100     100     100
             nkpt          10
            nstep        2500
             nsym          48
            ntime        1000
           ntypat           3
              occ      2.000000  2.000000  2.000000  2.000000  2.000000  2.000000
                       2.000000  2.000000  2.000000  2.000000  2.000000  2.000000
                       2.000000  2.000000  2.000000  2.000000  2.000000  2.000000
                       2.000000  2.000000  2.000000  2.000000  2.000000  2.000000
                       2.000000  2.000000  2.000000  2.000000  2.000000  2.000000
                       2.000000  2.000000  2.000000  2.000000  2.000000  2.000000
                       0.000000  0.000000  0.000000  0.000000  0.000000  0.000000
          optcell           2
        optforces           1
        pawecutdg      4.00000000E+01 Hartree
            prtwf           0
            rprim      0.0000000000E+00  7.0710678119E-01  7.0710678119E-01
                       7.0710678119E-01  0.0000000000E+00  7.0710678119E-01
                       7.0710678119E-01  7.0710678119E-01  0.0000000000E+00
           shiftk      5.00000000E-01  5.00000000E-01  5.00000000E-01
          spgroup         225
           strten     -1.9549458870E-09 -1.9549458870E-09 -1.9549458879E-09
                       0.0000000000E+00  0.0000000000E+00  0.0000000000E+00
           symrel      1  0  0   0  1  0   0  0  1      -1  0  0   0 -1  0   0  0 -1
                       0 -1  1   0 -1  0   1 -1  0       0  1 -1   0  1  0  -1  1  0
                      -1  0  0  -1  0  1  -1  1  0       1  0  0   1  0 -1   1 -1  0
                       0  1 -1   1  0 -1   0  0 -1       0 -1  1  -1  0  1   0  0  1
                      -1  0  0  -1  1  0  -1  0  1       1  0  0   1 -1  0   1  0 -1
                       0 -1  1   1 -1  0   0 -1  0       0  1 -1  -1  1  0   0  1  0
                       1  0  0   0  0  1   0  1  0      -1  0  0   0  0 -1   0 -1  0
                       0  1 -1   0  0 -1   1  0 -1       0 -1  1   0  0  1  -1  0  1
                      -1  0  1  -1  1  0  -1  0  0       1  0 -1   1 -1  0   1  0  0
                       0 -1  0   1 -1  0   0 -1  1       0  1  0  -1  1  0   0  1 -1
                       1  0 -1   0  0 -1   0  1 -1      -1  0  1   0  0  1   0 -1  1
                       0  1  0   0  0  1   1  0  0       0 -1  0   0  0 -1  -1  0  0
                       1  0 -1   0  1 -1   0  0 -1      -1  0  1   0 -1  1   0  0  1
                       0 -1  0   0 -1  1   1 -1  0       0  1  0   0  1 -1  -1  1  0
                      -1  0  1  -1  0  0  -1  1  0       1  0 -1   1  0  0   1 -1  0
                       0  1  0   1  0  0   0  0  1       0 -1  0  -1  0  0   0  0 -1
                       0  0 -1   0  1 -1   1  0 -1       0  0  1   0 -1  1  -1  0  1
                       1 -1  0   0 -1  1   0 -1  0      -1  1  0   0  1 -1   0  1  0
                       0  0  1   1  0  0   0  1  0       0  0 -1  -1  0  0   0 -1  0
                      -1  1  0  -1  0  0  -1  0  1       1 -1  0   1  0  0   1  0 -1
                       0  0  1   0  1  0   1  0  0       0  0 -1   0 -1  0  -1  0  0
                       1 -1  0   0 -1  0   0 -1  1      -1  1  0   0  1  0   0  1 -1
                       0  0 -1   1  0 -1   0  1 -1       0  0  1  -1  0  1   0 -1  1
                      -1  1  0  -1  0  1  -1  0  0       1 -1  0   1  0 -1   1  0  0
           toldff      1.00000000E-08
           tolmxf      1.00000000E-05
            typat      1  1  2  2  2  2  2  2  3
           useylm           1
              wtk        0.09375    0.09375    0.09375    0.18750    0.09375    0.09375
                         0.09375    0.18750    0.03125    0.03125
           xangst      2.6972083960E+00  2.6972083960E+00  2.6972083960E+00
                       8.0916251880E+00  8.0916251880E+00  8.0916251880E+00
                       5.3944167920E+00  5.3944167920E+00  2.4864716026E+00
                       5.3944167920E+00  5.3944167920E+00  8.3023619814E+00
                       8.3023619814E+00  5.3944167920E+00  5.3944167920E+00
                       5.3944167920E+00  8.3023619814E+00  5.3944167920E+00
                       5.3944167920E+00  2.4864716026E+00  5.3944167920E+00
                       2.4864716026E+00  5.3944167920E+00  5.3944167920E+00
                      -1.0427151568E-18  2.8895190367E-18  3.1188574532E-18
            xcart      5.0969851918E+00  5.0969851918E+00  5.0969851918E+00
                       1.5290955575E+01  1.5290955575E+01  1.5290955575E+01
                       1.0193970384E+01  1.0193970384E+01  4.6987503661E+00
                       1.0193970384E+01  1.0193970384E+01  1.5689190401E+01
                       1.5689190401E+01  1.0193970384E+01  1.0193970384E+01
                       1.0193970384E+01  1.5689190401E+01  1.0193970384E+01
                       1.0193970384E+01  4.6987503661E+00  1.0193970384E+01
                       4.6987503661E+00  1.0193970384E+01  1.0193970384E+01
                      -1.9704460809E-18  5.4603996352E-18  5.8937864340E-18
             xred      2.5000000000E-01  2.5000000000E-01  2.5000000000E-01
                       7.5000000000E-01  7.5000000000E-01  7.5000000000E-01
                       2.3046713838E-01  2.3046713838E-01  7.6953286162E-01
                       7.6953286162E-01  7.6953286162E-01  2.3046713838E-01
                       2.3046713838E-01  7.6953286162E-01  7.6953286162E-01
                       7.6953286162E-01  2.3046713838E-01  7.6953286162E-01
                       2.3046713838E-01  7.6953286162E-01  2.3046713838E-01
                       7.6953286162E-01  2.3046713838E-01  2.3046713838E-01
                       6.5355458417E-19 -7.5390609560E-20 -1.1790464310E-19
            znucl       55.00000   17.00000   40.00000

- Timing analysis has been suppressed with timopt=0

 Suggested references for the acknowledgment of ABINIT usage.

 Calculation completed.
.Delivered   0 WARNINGs and  11 COMMENTs to log file.