.Version 9.2.2 of ABINIT

 ABINIT is a project of the Universite Catholique de Louvain,
 Corning Inc. and other collaborators, see ~abinit/doc/developers/contributors.txt .
 acknowledgments of the ABINIT effort.

.Starting date : Wed  9 Nov 2022.
- ( at 21h05 )

- input  file    -> Cs2TiI6.in
- output file    -> Cs2TiI6.out
- root for input  files -> Cs2TiI6i
- root for output files -> Cs2TiI6o

- inpspheads : Reading pseudopotential header in XML form from
-   ../../../Psps_for_tests/ATOMICDATA/Cs.GGA_PBE-JTH.xml
- inpspheads : Reading pseudopotential header in XML form from
-   ../../../Psps_for_tests/ATOMICDATA/I.GGA_PBE-JTH.xml
- inpspheads : Reading pseudopotential header in XML form from
-   ../../../Psps_for_tests/ATOMICDATA/Hf.GGA_PBE-JTH.xml
- inpspheads : Reading pseudopotential header in XML form from
-   ../../../Psps_for_tests/ATOMICDATA/Cl.GGA_PBE-JTH.xml

 DATASET    1 : space group I4/m m m (#139); Bravais tI (body-center tetrag.)
     intxc =       0    ionmov =       0      iscf =      17    lmnmax =      18
     lnmax =       6     mgfft =      54  mpssoang =       3    mqgrid =    3359
     natom =       9  nloc_mem =       2    nspden =       1   nspinor =       1
    nsppol =       1      nsym =      16    n1xccc =       1    ntypat =       4
    occopt =       1   xclevel =       2
-    mband =          42        mffmem =           1         mkmem =          41
       mpw =        6582          nfft =      157464          nkpt =         163
Pmy_natom=         3
 PAW method is used; the additional fine FFT grid is defined by:
   mgfftf=        90    nfftf =    729000
  Rough estimation (10% accuracy) of disk space for files :

[...]

 DATASET   10 : space group I4/m m m (#139); Bravais tI (body-center tetrag.)
     intxc =       0    ionmov =       0      iscf =      17    lmnmax =      18
     lnmax =       6     mgfft =      54  mpssoang =       3    mqgrid =    3329
     natom =       9  nloc_mem =       2    nspden =       1   nspinor =       1
    nsppol =       1      nsym =      16    n1xccc =       1    ntypat =       4
    occopt =       1   xclevel =       2
-    mband =          42        mffmem =           1         mkmem =          41
       mpw =        6385          nfft =      157464          nkpt =         163
Pmy_natom=         3
 PAW method is used; the additional fine FFT grid is defined by:
   mgfftf=        90    nfftf =    729000
  Rough estimation (10% accuracy) of disk space for files :

------------- Echo of variables that govern the present computation ------------
-
- outvars: echo of selected default values
-   iomode0 =  0 , fftalg0 =112 , wfoptalg0 = 10
-
- outvars: echo of global parameters not present in the input file
-  max_nthreads =    0
-
 -outvars: echo values of preprocessed input variables --------
            acell1     1.4331013041E+01  1.4746346126E+01  1.4331013041E+01 Bohr
            acell2     1.4315632340E+01  1.4734174897E+01  1.4315632340E+01 Bohr
            acell3     1.4300421244E+01  1.4721583729E+01  1.4300421244E+01 Bohr
            acell4     1.4285420039E+01  1.4708469125E+01  1.4285420039E+01 Bohr
            acell5     1.4270235061E+01  1.4695819228E+01  1.4270235061E+01 Bohr
            acell6     1.4255674712E+01  1.4681599345E+01  1.4255674712E+01 Bohr
            acell7     1.4240503728E+01  1.4668918927E+01  1.4240503728E+01 Bohr
            acell8     1.4225043032E+01  1.4656974476E+01  1.4225043032E+01 Bohr
            acell9     1.4209705900E+01  1.4644723700E+01  1.4209705900E+01 Bohr
            acell10    1.4194269132E+01  1.4632731381E+01  1.4194269132E+01 Bohr
              amu      1.32905430E+02  1.26904470E+02  1.78490000E+02
                       3.54527000E+01
           diemac      1.20000000E+01
             ecut      1.60000000E+01 Hartree
-          fftalg         112
           istwfk        2    0    0    0    0    0    3    0    0    0
                         0    0    0    0    0    0    0    0    0    0
                         0    0    0    0    0    0    0    0    0    0
                         0    0    0    0    0    0    0    0    0    0
                         0    0    7    0    0    0    0    0    0    0
                       outvar_i_n : Printing only first  50 k-points.
              ixc     -101130
           jdtset        1    2    3    4    5    6    7    8    9   10
              kpt      0.00000000E+00  0.00000000E+00  0.00000000E+00
                       8.33333333E-02  0.00000000E+00  0.00000000E+00
                       1.66666667E-01  0.00000000E+00  0.00000000E+00
                       2.50000000E-01  0.00000000E+00  0.00000000E+00
                       3.33333333E-01  0.00000000E+00  0.00000000E+00
                       4.16666667E-01  0.00000000E+00  0.00000000E+00
                       5.00000000E-01  0.00000000E+00  0.00000000E+00
                       8.33333333E-02  8.33333333E-02  0.00000000E+00
                       1.66666667E-01  8.33333333E-02  0.00000000E+00
                       2.50000000E-01  8.33333333E-02  0.00000000E+00
                       3.33333333E-01  8.33333333E-02  0.00000000E+00
                       4.16666667E-01  8.33333333E-02  0.00000000E+00
                       5.00000000E-01  8.33333333E-02  0.00000000E+00
                      -4.16666667E-01  8.33333333E-02  0.00000000E+00
                      -3.33333333E-01  8.33333333E-02  0.00000000E+00
                      -2.50000000E-01  8.33333333E-02  0.00000000E+00
                      -1.66666667E-01  8.33333333E-02  0.00000000E+00
                      -8.33333333E-02  8.33333333E-02  0.00000000E+00
                       1.66666667E-01  1.66666667E-01  0.00000000E+00
                       2.50000000E-01  1.66666667E-01  0.00000000E+00
                       3.33333333E-01  1.66666667E-01  0.00000000E+00
                       4.16666667E-01  1.66666667E-01  0.00000000E+00
                       5.00000000E-01  1.66666667E-01  0.00000000E+00
                      -4.16666667E-01  1.66666667E-01  0.00000000E+00
                      -3.33333333E-01  1.66666667E-01  0.00000000E+00
                      -2.50000000E-01  1.66666667E-01  0.00000000E+00
                      -1.66666667E-01  1.66666667E-01  0.00000000E+00
                       2.50000000E-01  2.50000000E-01  0.00000000E+00
                       3.33333333E-01  2.50000000E-01  0.00000000E+00
                       4.16666667E-01  2.50000000E-01  0.00000000E+00
                       5.00000000E-01  2.50000000E-01  0.00000000E+00
                      -4.16666667E-01  2.50000000E-01  0.00000000E+00
                      -3.33333333E-01  2.50000000E-01  0.00000000E+00
                      -2.50000000E-01  2.50000000E-01  0.00000000E+00
                       3.33333333E-01  3.33333333E-01  0.00000000E+00
                       4.16666667E-01  3.33333333E-01  0.00000000E+00
                       5.00000000E-01  3.33333333E-01  0.00000000E+00
                      -4.16666667E-01  3.33333333E-01  0.00000000E+00
                      -3.33333333E-01  3.33333333E-01  0.00000000E+00
                       4.16666667E-01  4.16666667E-01  0.00000000E+00
                       5.00000000E-01  4.16666667E-01  0.00000000E+00
                      -4.16666667E-01  4.16666667E-01  0.00000000E+00
                       5.00000000E-01  5.00000000E-01  0.00000000E+00
                       8.33333333E-02  0.00000000E+00  8.33333333E-02
                       1.66666667E-01  0.00000000E+00  8.33333333E-02
                       2.50000000E-01  0.00000000E+00  8.33333333E-02
                       3.33333333E-01  0.00000000E+00  8.33333333E-02
                       4.16666667E-01  0.00000000E+00  8.33333333E-02
                       5.00000000E-01  0.00000000E+00  8.33333333E-02
                      -4.16666667E-01  0.00000000E+00  8.33333333E-02
                       outvar_i_n : Printing only first  50 k-points.
         kptrlatt       12    0    0      0   12    0      0    0   12
          kptrlen1     1.71972156E+02
          kptrlen2     1.71787588E+02
          kptrlen3     1.71605055E+02
          kptrlen4     1.71425040E+02
          kptrlen5     1.71242821E+02
          kptrlen6     1.71068097E+02
          kptrlen7     1.70886045E+02
          kptrlen8     1.70700516E+02
          kptrlen9     1.70516471E+02
          kptrlen10    1.70331230E+02
P           mkmem          41
            natom           9
            nband          42
           ndtset          10
            ngfft          54      54      54
          ngfftdg          90      90      90
             nkpt         163
            nstep        2500
             nsym          16
           ntypat           4
              occ      2.000000  2.000000  2.000000  2.000000  2.000000  2.000000
                       2.000000  2.000000  2.000000  2.000000  2.000000  2.000000
                       2.000000  2.000000  2.000000  2.000000  2.000000  2.000000
                       2.000000  2.000000  2.000000  2.000000  2.000000  2.000000
                       2.000000  2.000000  2.000000  2.000000  2.000000  2.000000
                       2.000000  2.000000  2.000000  2.000000  2.000000  2.000000
                       0.000000  0.000000  0.000000  0.000000  0.000000  0.000000
        pawecutdg      4.00000000E+01 Hartree
            prtwf           0
            rprim1     0.0000000000E+00  6.8600190981E-01  7.2759973869E-01
                       7.0710678119E-01  0.0000000000E+00  7.0710678119E-01
                       7.2759973869E-01  6.8600190981E-01  0.0000000000E+00
            rprim2     0.0000000000E+00  6.8581036495E-01  7.2778028507E-01
                       7.0710678119E-01  0.0000000000E+00  7.0710678119E-01
                       7.2778028507E-01  6.8581036495E-01  0.0000000000E+00
            rprim3     0.0000000000E+00  6.8564951927E-01  7.2793182148E-01
                       7.0710678119E-01  0.0000000000E+00  7.0710678119E-01
                       7.2793182148E-01  6.8564951927E-01  0.0000000000E+00
            rprim4     0.0000000000E+00  6.8552713885E-01  7.2804707396E-01
                       7.0710678119E-01  0.0000000000E+00  7.0710678119E-01
                       7.2804707396E-01  6.8552713885E-01  0.0000000000E+00
            rprim5     0.0000000000E+00  6.8537003267E-01  7.2819497274E-01
                       7.0710678119E-01  0.0000000000E+00  7.0710678119E-01
                       7.2819497274E-01  6.8537003267E-01  0.0000000000E+00
            rprim6     0.0000000000E+00  6.8532920270E-01  7.2823339935E-01
                       7.0710678119E-01  0.0000000000E+00  7.0710678119E-01
                       7.2823339935E-01  6.8532920270E-01  0.0000000000E+00
            rprim7     0.0000000000E+00  6.8517384322E-01  7.2837957451E-01
                       7.0710678119E-01  0.0000000000E+00  7.0710678119E-01
                       7.2837957451E-01  6.8517384322E-01  0.0000000000E+00
            rprim8     0.0000000000E+00  6.8496339443E-01  7.2857748270E-01
                       7.0710678119E-01  0.0000000000E+00  7.0710678119E-01
[...]
                      -4.2810712485E-20 -3.1299261338E-20  6.3260108607E-20
           xangst7     2.7444431935E+00  2.5816493985E+00  2.7444431935E+00
                       8.2333295806E+00  7.7449481956E+00  8.2333295806E+00
                       5.4888863871E+00  7.4691530157E+00  5.4888863871E+00
                       5.4888863871E+00  5.1632987971E+00  2.4480419502E+00
                       5.4888863871E+00  5.1632987971E+00  8.5297308240E+00
                       5.4888863871E+00  2.8574445785E+00  5.4888863871E+00
                       8.5297308240E+00  5.1632987971E+00  5.4888863871E+00
                       2.4480419502E+00  5.1632987971E+00  5.4888863871E+00
                      -4.2471432560E-20 -3.0961159741E-20  6.3558779054E-20
           xangst8     2.7422084775E+00  2.5780544576E+00  2.7422084775E+00
                       8.2266254326E+00  7.7341633728E+00  8.2266254326E+00
                       5.4844169550E+00  7.4558053882E+00  5.4844169550E+00
                       5.4844169550E+00  5.1561089152E+00  2.4478104837E+00
                       5.4844169551E+00  5.1561089152E+00  8.5210234264E+00
                       5.4844169551E+00  2.8564124423E+00  5.4844169551E+00
                       8.5210234264E+00  5.1561089152E+00  5.4844169551E+00
                       2.4478104837E+00  5.1561089152E+00  5.4844169550E+00
                      -4.2528651602E-20 -3.0072457558E-20  6.2571976915E-20
           xangst9     2.7399164504E+00  2.5745677950E+00  2.7399164504E+00
                       8.2197493513E+00  7.7237033851E+00  8.2197493513E+00
                       5.4798329008E+00  7.4428488534E+00  5.4798329008E+00
                       5.4798329008E+00  5.1491355901E+00  2.4475889638E+00
                       5.4798329010E+00  5.1491355901E+00  8.5120768380E+00
                       5.4798329010E+00  2.8554223268E+00  5.4798329010E+00
                       8.5120768380E+00  5.1491355901E+00  5.4798329010E+00
                       2.4475889638E+00  5.1491355901E+00  5.4798329008E+00
                      -4.1086588663E-20 -3.0641246625E-20  6.3552794456E-20
           xangst10    2.7376727788E+00  2.5709907674E+00  2.7376727788E+00
                       8.2130183365E+00  7.7129723021E+00  8.2130183365E+00
                       5.4753455577E+00  7.4295464188E+00  5.4753455577E+00
                       5.4753455577E+00  5.1419815348E+00  2.4473463874E+00
                       5.4753455577E+00  5.1419815348E+00  8.5033447280E+00
                       5.4753455577E+00  2.8544166507E+00  5.4753455577E+00
                       8.5033447280E+00  5.1419815348E+00  5.4753455577E+00
                       2.4473463874E+00  5.1419815348E+00  5.4753455577E+00
                      -4.2415063276E-20 -3.1265711063E-20  6.4238474244E-20
            xcart1     5.2136206718E+00  4.9155511578E+00  5.2136206718E+00
                       1.5640862015E+01  1.4746653473E+01  1.5640862015E+01
                       1.0427241344E+01  1.4251583478E+01  1.0427241344E+01
                       1.0427241344E+01  9.8311023156E+00  4.6282642064E+00
                       1.0427241344E+01  9.8311023156E+00  1.6226218481E+01
                       1.0427241344E+01  5.4106211536E+00  1.0427241344E+01
                       1.6226218481E+01  9.8311023156E+00  1.0427241344E+01
                       4.6282642064E+00  9.8311023156E+00  1.0427241344E+01
                      -7.6756999859E-20 -5.9675843374E-20  1.1925749620E-19
            xcart2     5.2093174926E+00  4.9089045198E+00  5.2093174926E+00
                       1.5627952478E+01  1.4726713559E+01  1.5627952478E+01
                       1.0418634985E+01  1.4226890744E+01  1.0418634985E+01
                       1.0418634985E+01  9.8178090396E+00  4.6279643177E+00
                       1.0418634985E+01  9.8178090396E+00  1.6209305653E+01
                       1.0418634985E+01  5.4087273348E+00  1.0418634985E+01
                       1.6209305653E+01  9.8178090396E+00  1.0418634985E+01
                       4.6279643177E+00  9.8178090396E+00  1.0418634985E+01
                      -8.1218102026E-20 -6.7733809317E-20  1.1737451734E-19
            xcart3     5.2048658422E+00  4.9025384757E+00  5.2048658422E+00
                       1.5614597527E+01  1.4707615427E+01  1.5614597527E+01
                       1.0409731684E+01  1.4203235000E+01  1.0409731684E+01
                       1.0409731684E+01  9.8050769513E+00  4.6275952882E+00
                       1.0409731685E+01  9.8050769513E+00  1.6191868081E+01
                       1.0409731684E+01  5.4069189021E+00  1.0409731684E+01
                       1.6191868081E+01  9.8050769513E+00  1.0409731685E+01
                       4.6275952882E+00  9.8050769513E+00  1.0409731684E+01
                      -8.0162896524E-20 -5.8602314930E-20  1.1967020058E-19
            xcart4     5.2002291297E+00  4.8965215633E+00  5.2002291297E+00
                       1.5600687389E+01  1.4689564690E+01  1.5600687389E+01
                       1.0400458260E+01  1.4180942921E+01  1.0400458260E+01
                       1.0400458260E+01  9.7930431266E+00  4.6272094590E+00
                       1.0400458259E+01  9.7930431266E+00  1.6173707060E+01
                       1.0400458259E+01  5.4051433319E+00  1.0400458259E+01
                       1.6173707060E+01  9.7930431266E+00  1.0400458259E+01
                       4.6272094590E+00  9.7930431266E+00  1.0400458260E+01
                      -8.1048583630E-20 -5.9287564384E-20  1.1976306641E-19
            xcart5     5.1957567156E+00  4.8901957350E+00  5.1957567156E+00
                       1.5587270147E+01  1.4670587205E+01  1.5587270147E+01
                       1.0391513431E+01  1.4157404311E+01  1.0391513431E+01
                       1.0391513431E+01  9.7803914700E+00  4.6268492099E+00
                       1.0391513431E+01  9.7803914700E+00  1.6156177653E+01
                       1.0391513431E+01  5.4033786294E+00  1.0391513431E+01
                       1.6156177653E+01  9.7803914700E+00  1.0391513431E+01
                       4.6268492099E+00  9.7803914700E+00  1.0391513431E+01
                      -8.0978878461E-20 -5.9210970633E-20  1.1966006518E-19
            xcart6     5.1907292278E+00  4.8849150922E+00  5.1907292278E+00
                       1.5572187683E+01  1.4654745276E+01  1.5572187683E+01
                       1.0381458456E+01  1.4138111833E+01  1.0381458456E+01
                       1.0381458456E+01  9.7698301843E+00  4.6265145338E+00
                       1.0381458456E+01  9.7698301843E+00  1.6136402377E+01
                       1.0381458456E+01  5.4015485357E+00  1.0381458456E+01
                       1.6136402377E+01  9.7698301843E+00  1.0381458456E+01
                       4.6265145338E+00  9.7698301843E+00  1.0381458456E+01
                      -8.0900522151E-20 -5.9147032091E-20  1.1954428040E-19
            xcart7     5.1862460231E+00  4.8786103344E+00  5.1862460231E+00
                       1.5558738069E+01  1.4635831003E+01  1.5558738069E+01
                       1.0372492046E+01  1.4114653644E+01  1.0372492046E+01
                       1.0372492046E+01  9.7572206687E+00  4.6261288476E+00
                       1.0372492046E+01  9.7572206687E+00  1.6118855245E+01
                       1.0372492046E+01  5.3997876932E+00  1.0372492046E+01
                       1.6118855245E+01  9.7572206687E+00  1.0372492046E+01
                       4.6261288476E+00  9.7572206687E+00  1.0372492046E+01
                      -8.0259376010E-20 -5.8508112667E-20  1.2010868575E-19
            xcart8     5.1820230218E+00  4.8718168806E+00  5.1820230218E+00
                       1.5546069065E+01  1.4615450642E+01  1.5546069065E+01
                       1.0364046044E+01  1.4089430284E+01  1.0364046044E+01
                       1.0364046044E+01  9.7436337611E+00  4.6256914394E+00
                       1.0364046044E+01  9.7436337611E+00  1.6102400648E+01
                       1.0364046044E+01  5.3978372384E+00  1.0364046044E+01
                       1.6102400648E+01  9.7436337611E+00  1.0364046044E+01
                       4.6256914394E+00  9.7436337611E+00  1.0364046044E+01
                      -8.0367504328E-20 -5.6828708927E-20  1.1824389996E-19
            xcart9     5.1776917183E+00  4.8652280432E+00  5.1776917183E+00
                       1.5533075155E+01  1.4595684130E+01  1.5533075155E+01
                       1.0355383437E+01  1.4064945981E+01  1.0355383437E+01
                       1.0355383437E+01  9.7304560864E+00  4.6252728275E+00
                       1.0355383437E+01  9.7304560864E+00  1.6085494046E+01
                       1.0355383437E+01  5.3959661914E+00  1.0355383437E+01
                       1.6085494046E+01  9.7304560864E+00  1.0355383437E+01
                       4.6252728275E+00  9.7304560864E+00  1.0355383437E+01
                      -7.7642400307E-20 -5.7903564491E-20  1.2009737650E-19
            xcart10    5.1734517935E+00  4.8584684405E+00  5.1734517935E+00
                       1.5520355380E+01  1.4575405322E+01  1.5520355380E+01
                       1.0346903587E+01  1.4039808023E+01  1.0346903587E+01
                       1.0346903587E+01  9.7169368811E+00  4.6248144246E+00
                       1.0346903587E+01  9.7169368811E+00  1.6068992749E+01
                       1.0346903587E+01  5.3940657391E+00  1.0346903587E+01
                       1.6068992749E+01  9.7169368811E+00  1.0346903587E+01
                       4.6248144246E+00  9.7169368811E+00  1.0346903587E+01
                      -8.0152853501E-20 -5.9083631259E-20  1.2139312352E-19
             xred1     2.5000000000E-01  2.5000000000E-01  2.5000000000E-01
                       7.5000000000E-01  7.5000000000E-01  7.5000000000E-01
                       7.2482123673E-01  2.7517876327E-01  7.2482123673E-01
                       2.2193138405E-01  2.2193138405E-01  7.7806861595E-01
                       7.7806861595E-01  7.7806861595E-01  2.2193138405E-01
                       2.7517876327E-01  7.2482123673E-01  2.7517876327E-01
                       2.2193138405E-01  7.7806861595E-01  7.7806861595E-01
                       7.7806861595E-01  2.2193138405E-01  2.2193138405E-01
                       6.3641005613E-21  5.0730084759E-21 -1.2434207601E-20
             xred2     2.5000000000E-01  2.5000000000E-01  2.5000000000E-01
                       7.5000000000E-01  7.5000000000E-01  7.5000000000E-01
                       7.2454509387E-01  2.7545490613E-01  7.2454509387E-01
                       2.2210031949E-01  2.2210031949E-01  7.7789968051E-01
                       7.7789968051E-01  7.7789968051E-01  2.2210031949E-01
                       2.7545490613E-01  7.2454509387E-01  2.7545490613E-01
                       2.2210031949E-01  7.7789968051E-01  7.7789968051E-01
                       7.7789968051E-01  2.2210031949E-01  2.2210031949E-01
                       6.0811069037E-21  5.1847179868E-21 -1.2980182761E-20
             xred3     2.5000000000E-01  2.5000000000E-01  2.5000000000E-01
                       7.5000000000E-01  7.5000000000E-01  7.5000000000E-01
                       7.2427962937E-01  2.7572037063E-01  7.2427962937E-01
                       2.2227255363E-01  2.2227255363E-01  7.7772744637E-01
                       7.7772744637E-01  7.7772744637E-01  2.2227255363E-01
                       2.7572037063E-01  7.2427962937E-01  2.7572037063E-01
                       2.2227255363E-01  7.7772744637E-01  7.7772744637E-01
                       7.7772744637E-01  2.2227255363E-01  2.2227255363E-01
                       6.6100129762E-21  4.8859798321E-21 -1.2586744747E-20
             xred4     2.5000000000E-01  2.5000000000E-01  2.5000000000E-01
                       7.5000000000E-01  7.5000000000E-01  7.5000000000E-01
                       7.2403147510E-01  2.7596852490E-01  7.2403147510E-01
                       2.2245219122E-01  2.2245219122E-01  7.7754780878E-01
                       7.7754780878E-01  7.7754780878E-01  2.2245219122E-01
                       2.7596852490E-01  7.2403147510E-01  2.7596852490E-01
                       2.2245219122E-01  7.7754780878E-01  7.7754780878E-01
                       7.7754780878E-01  2.2245219122E-01  2.2245219122E-01
                       6.6269562913E-21  4.8882157739E-21 -1.2681005438E-20
             xred5     2.5000000000E-01  2.5000000000E-01  2.5000000000E-01
                       7.5000000000E-01  7.5000000000E-01  7.5000000000E-01
                       7.2376470584E-01  2.7623529416E-01  7.2376470584E-01
                       2.2262634026E-01  2.2262634026E-01  7.7737365974E-01
                       7.7737365974E-01  7.7737365974E-01  2.2262634026E-01
                       2.7623529416E-01  7.2376470584E-01  2.7623529416E-01
                       2.2262634026E-01  7.7737365974E-01  7.7737365974E-01
                       7.7737365974E-01  2.2262634026E-01  2.2262634026E-01
                       6.6269562913E-21  4.8882157739E-21 -1.2681005438E-20
             xred6     2.5000000000E-01  2.5000000000E-01  2.5000000000E-01
                       7.5000000000E-01  7.5000000000E-01  7.5000000000E-01
                       7.2355975315E-01  2.7644024685E-01  7.2355975315E-01
                       2.2282584637E-01  2.2282584637E-01  7.7717415363E-01
                       7.7717415363E-01  7.7717415363E-01  2.2282584637E-01
                       2.7644024685E-01  7.2355975315E-01  2.7644024685E-01
                       2.2282584637E-01  7.7717415363E-01  7.7717415363E-01
                       7.7717415363E-01  2.2282584637E-01  2.2282584637E-01
                       6.6269562913E-21  4.8882157739E-21 -1.2681005438E-20
             xred7     2.5000000000E-01  2.5000000000E-01  2.5000000000E-01
                       7.5000000000E-01  7.5000000000E-01  7.5000000000E-01
                       7.2329273486E-01  2.7670726514E-01  7.2329273486E-01
                       2.2299987443E-01  2.2299987443E-01  7.7700012557E-01
                       7.7700012557E-01  7.7700012557E-01  2.2299987443E-01
                       2.7670726514E-01  7.2329273486E-01  2.7670726514E-01
                       2.2299987443E-01  7.7700012557E-01  7.7700012557E-01
                       7.7700012557E-01  2.2299987443E-01  2.2299987443E-01
                       6.6604312915E-21  4.9191086319E-21 -1.2656822544E-20
             xred8     2.5000000000E-01  2.5000000000E-01  2.5000000000E-01
                       7.5000000000E-01  7.5000000000E-01  7.5000000000E-01
                       7.2300697200E-01  2.7699302800E-01  7.2300697200E-01
                       2.2316050218E-01  2.2316050218E-01  7.7683949782E-01
                       7.7683949782E-01  7.7683949782E-01  2.2316050218E-01
                       2.7699302800E-01  7.2300697200E-01  2.7699302800E-01
                       2.2316050218E-01  7.7683949782E-01  7.7683949782E-01
                       7.7683949782E-01  2.2316050218E-01  2.2316050218E-01
                       6.6655534936E-21  4.7434946199E-21 -1.2497947272E-20
             xred9     2.5000000000E-01  2.5000000000E-01  2.5000000000E-01
                       7.5000000000E-01  7.5000000000E-01  7.5000000000E-01
                       7.2272799222E-01  2.7727200778E-01  7.2272799222E-01
                       2.2332697074E-01  2.2332697074E-01  7.7667302926E-01
                       7.7667302926E-01  7.7667302926E-01  2.2332697074E-01
                       2.7727200778E-01  7.2272799222E-01  2.7727200778E-01
                       2.2332697074E-01  7.7667302926E-01  7.7667302926E-01
                       7.7667302926E-01  2.2332697074E-01  2.2332697074E-01
                       6.5723023839E-21  5.0252765215E-21 -1.2523057824E-20
             xred10    2.5000000000E-01  2.5000000000E-01  2.5000000000E-01
                       7.5000000000E-01  7.5000000000E-01  7.5000000000E-01
                       7.2244001350E-01  2.7755998650E-01  7.2244001350E-01
                       2.2348784763E-01  2.2348784763E-01  7.7651215237E-01
                       7.7651215237E-01  7.7651215237E-01  2.2348784763E-01
                       2.7755998650E-01  7.2244001350E-01  2.7755998650E-01
                       2.2348784763E-01  7.7651215237E-01  7.7651215237E-01
                       7.7651215237E-01  2.2348784763E-01  2.2348784763E-01
                       6.6991948473E-21  5.0331193176E-21 -1.2779673910E-20
            znucl       55.00000   53.00000   72.00000   17.00000

- Timing analysis has been suppressed with timopt=0

 Suggested references for the acknowledgment of ABINIT usage.

 Calculation completed.
.Delivered   0 WARNINGs and   0 COMMENTs to log file.