.Version 9.2.2 of ABINIT

 ABINIT is a project of the Universite Catholique de Louvain,
 Corning Inc. and other collaborators, see ~abinit/doc/developers/contributors.txt .
 acknowledgments of the ABINIT effort.

.Starting date : Wed 23 Nov 2022.
- ( at 15h38 )

- input  file    -> Cs2TiI6.in
- output file    -> Cs2TiI6.out
- root for input  files -> Cs2TiI6i
- root for output files -> Cs2TiI6o

- inpspheads : Reading pseudopotential header in XML form from
-   ../../../Psps_for_tests/ATOMICDATA/Cs.GGA_PBE-JTH.xml
- inpspheads : Reading pseudopotential header in XML form from
-   ../../../Psps_for_tests/ATOMICDATA/I.GGA_PBE-JTH.xml
- inpspheads : Reading pseudopotential header in XML form from
-   ../../../Psps_for_tests/ATOMICDATA/Zr.GGA_PBE-JTH.xml
- inpspheads : Reading pseudopotential header in XML form from
-   ../../../Psps_for_tests/ATOMICDATA/Br.GGA_PBE-JTH.xml

 DATASET    1 : space group I4/m m m (#139); Bravais tI (body-center tetrag.)
     intxc =       0    ionmov =       0      iscf =      17    lmnmax =      18
     lnmax =       6     mgfft =      60  mpssoang =       3    mqgrid =    3549
     natom =       9  nloc_mem =       2    nspden =       1   nspinor =       1
    nsppol =       1      nsym =      16    n1xccc =       1    ntypat =       4
    occopt =       1   xclevel =       2
-    mband =          42        mffmem =           1         mkmem =          28
       mpw =        7723          nfft =      216000          nkpt =         163
Pmy_natom=         2
 PAW method is used; the additional fine FFT grid is defined by:
   mgfftf=        90    nfftf =    729000
  Rough estimation (10% accuracy) of disk space for files :

[...]

 DATASET   10 : space group I4/m m m (#139); Bravais tI (body-center tetrag.)
     intxc =       0    ionmov =       0      iscf =      17    lmnmax =      18
     lnmax =       6     mgfft =      54  mpssoang =       3    mqgrid =    3226
     natom =       9  nloc_mem =       2    nspden =       1   nspinor =       1
    nsppol =       1      nsym =      16    n1xccc =       1    ntypat =       4
    occopt =       1   xclevel =       2
-    mband =          42        mffmem =           1         mkmem =          28
       mpw =        5825          nfft =      157464          nkpt =         163
Pmy_natom=         2
 PAW method is used; the additional fine FFT grid is defined by:
   mgfftf=        80    nfftf =    512000
  Rough estimation (10% accuracy) of disk space for files :

------------- Echo of variables that govern the present computation ------------
-
- outvars: echo of selected default values
-   iomode0 =  0 , fftalg0 =112 , wfoptalg0 = 10
-
- outvars: echo of global parameters not present in the input file
-  max_nthreads =    0
-
 -outvars: echo values of preprocessed input variables --------
            acell1     1.5257781447E+01  1.5257781447E+01  1.5280522377E+01 Bohr
            acell2     1.5098506280E+01  1.5098506280E+01  1.5136632831E+01 Bohr
            acell3     1.4941445576E+01  1.4941445576E+01  1.4988286859E+01 Bohr
            acell4     1.4785316839E+01  1.4785316839E+01  1.4838055232E+01 Bohr
            acell5     1.4632952156E+01  1.4632952156E+01  1.4680113962E+01 Bohr
            acell6     1.4481762631E+01  1.4481762631E+01  1.4519784783E+01 Bohr
            acell7     1.4332916684E+01  1.4332916684E+01  1.4354734795E+01 Bohr
            acell8     1.4184842555E+01  1.4184842555E+01  1.4188221390E+01 Bohr
            acell9     1.4037426800E+01  1.4037426800E+01  1.4020512595E+01 Bohr
            acell10    1.3891012699E+01  1.3891012699E+01  1.3850975817E+01 Bohr
              amu      1.32905430E+02  1.26904470E+02  9.12240000E+01
                       7.99040000E+01
           diemac      1.20000000E+01
             ecut      1.60000000E+01 Hartree
-          fftalg         112
           istwfk        2    0    0    0    0    0    3    0    0    0
                         0    0    0    0    0    0    0    0    0    0
                         0    0    0    0    0    0    0    0    0    0
                         0    0    0    0    0    0    0    0    0    0
                         0    0    7    0    0    0    0    0    0    0
                       outvar_i_n : Printing only first  50 k-points.
              ixc     -101130
           jdtset        1    2    3    4    5    6    7    8    9   10
              kpt      0.00000000E+00  0.00000000E+00  0.00000000E+00
                       8.33333333E-02  0.00000000E+00  0.00000000E+00
                       1.66666667E-01  0.00000000E+00  0.00000000E+00
                       2.50000000E-01  0.00000000E+00  0.00000000E+00
                       3.33333333E-01  0.00000000E+00  0.00000000E+00
                       4.16666667E-01  0.00000000E+00  0.00000000E+00
                       5.00000000E-01  0.00000000E+00  0.00000000E+00
                       8.33333333E-02  8.33333333E-02  0.00000000E+00
                       1.66666667E-01  8.33333333E-02  0.00000000E+00
                       2.50000000E-01  8.33333333E-02  0.00000000E+00
                       3.33333333E-01  8.33333333E-02  0.00000000E+00
                       4.16666667E-01  8.33333333E-02  0.00000000E+00
                       5.00000000E-01  8.33333333E-02  0.00000000E+00
                      -4.16666667E-01  8.33333333E-02  0.00000000E+00
                      -3.33333333E-01  8.33333333E-02  0.00000000E+00
                      -2.50000000E-01  8.33333333E-02  0.00000000E+00
                      -1.66666667E-01  8.33333333E-02  0.00000000E+00
                      -8.33333333E-02  8.33333333E-02  0.00000000E+00
                       1.66666667E-01  1.66666667E-01  0.00000000E+00
                       2.50000000E-01  1.66666667E-01  0.00000000E+00
                       3.33333333E-01  1.66666667E-01  0.00000000E+00
                       4.16666667E-01  1.66666667E-01  0.00000000E+00
                       5.00000000E-01  1.66666667E-01  0.00000000E+00
                      -4.16666667E-01  1.66666667E-01  0.00000000E+00
                      -3.33333333E-01  1.66666667E-01  0.00000000E+00
                      -2.50000000E-01  1.66666667E-01  0.00000000E+00
                      -1.66666667E-01  1.66666667E-01  0.00000000E+00
                       2.50000000E-01  2.50000000E-01  0.00000000E+00
                       3.33333333E-01  2.50000000E-01  0.00000000E+00
                       4.16666667E-01  2.50000000E-01  0.00000000E+00
                       5.00000000E-01  2.50000000E-01  0.00000000E+00
                      -4.16666667E-01  2.50000000E-01  0.00000000E+00
                      -3.33333333E-01  2.50000000E-01  0.00000000E+00
                      -2.50000000E-01  2.50000000E-01  0.00000000E+00
                       3.33333333E-01  3.33333333E-01  0.00000000E+00
                       4.16666667E-01  3.33333333E-01  0.00000000E+00
                       5.00000000E-01  3.33333333E-01  0.00000000E+00
                      -4.16666667E-01  3.33333333E-01  0.00000000E+00
                      -3.33333333E-01  3.33333333E-01  0.00000000E+00
                       4.16666667E-01  4.16666667E-01  0.00000000E+00
                       5.00000000E-01  4.16666667E-01  0.00000000E+00
                      -4.16666667E-01  4.16666667E-01  0.00000000E+00
                       5.00000000E-01  5.00000000E-01  0.00000000E+00
                       8.33333333E-02  0.00000000E+00  8.33333333E-02
                       1.66666667E-01  0.00000000E+00  8.33333333E-02
                       2.50000000E-01  0.00000000E+00  8.33333333E-02
                       3.33333333E-01  0.00000000E+00  8.33333333E-02
                       4.16666667E-01  0.00000000E+00  8.33333333E-02
                       5.00000000E-01  0.00000000E+00  8.33333333E-02
                      -4.16666667E-01  0.00000000E+00  8.33333333E-02
                       outvar_i_n : Printing only first  50 k-points.
         kptrlatt       12    0    0      0   12    0      0    0   12
          kptrlen1     1.83093377E+02
          kptrlen2     1.81182075E+02
          kptrlen3     1.79297347E+02
          kptrlen4     1.77423802E+02
          kptrlen5     1.75595426E+02
          kptrlen6     1.73781152E+02
          kptrlen7     1.71995000E+02
          kptrlen8     1.70218111E+02
          kptrlen9     1.68246151E+02
          kptrlen10    1.66211710E+02
P           mkmem          28
            natom           9
            nband          42
           ndtset          10
            ngfft1         60      60      60
            ngfft2         60      60      60
            ngfft3         54      54      54
            ngfft4         54      54      54
            ngfft5         54      54      54
            ngfft6         54      54      54
            ngfft7         54      54      54
            ngfft8         54      54      54
            ngfft9         54      54      54
            ngfft10        54      54      54
          ngfftdg1         90      90      90
          ngfftdg2         90      90      90
          ngfftdg3         90      90      90
          ngfftdg4         90      90      90
          ngfftdg5         90      90      90
          ngfftdg6         90      90      90
          ngfftdg7         90      90      90
          ngfftdg8         90      90      90
          ngfftdg9         80      80      80
          ngfftdg10        80      80      80
             nkpt         163
            nstep        2500
             nsym          16
           ntypat           4
              occ      2.000000  2.000000  2.000000  2.000000  2.000000  2.000000
                       2.000000  2.000000  2.000000  2.000000  2.000000  2.000000
                       2.000000  2.000000  2.000000  2.000000  2.000000  2.000000
                       2.000000  2.000000  2.000000  2.000000  2.000000  2.000000
                       2.000000  2.000000  2.000000  2.000000  2.000000  2.000000
                       2.000000  2.000000  2.000000  2.000000  2.000000  2.000000
                       0.000000  0.000000  0.000000  0.000000  0.000000  0.000000
        pawecutdg      4.00000000E+01 Hartree
            prtwf           0
            rprim1     0.0000000000E+00  7.0816068709E-01  7.0605130214E-01
                       7.0816068709E-01  0.0000000000E+00  7.0605130214E-01
                       7.0710678119E-01  7.0710678119E-01  0.0000000000E+00
            rprim2     0.0000000000E+00  7.0889235802E-01  7.0531668401E-01
                       7.0889235802E-01  0.0000000000E+00  7.0531668401E-01
                       7.0710678119E-01  7.0710678119E-01  0.0000000000E+00
            rprim3     0.0000000000E+00  7.0932355387E-01  7.0488303705E-01
                       7.0932355387E-01  0.0000000000E+00  7.0488303705E-01
                       7.0710678119E-01  7.0710678119E-01  0.0000000000E+00
            rprim4     0.0000000000E+00  7.0962899124E-01  7.0457554229E-01
                       7.0962899124E-01  0.0000000000E+00  7.0457554229E-01
                       7.0710678119E-01  7.0710678119E-01  0.0000000000E+00
            rprim5     0.0000000000E+00  7.0938577676E-01  7.0482041665E-01
[...]
                      -2.0617995440E-20 -3.7142590324E-20  5.8527821553E-21
           xangst7     2.6856617314E+00  2.6856617314E+00  2.6774915028E+00
                       8.0569851941E+00  8.0569851941E+00  8.0324745084E+00
                       5.3713234627E+00  5.3713234627E+00  2.8425079101E+00
                       5.3713234627E+00  5.3713234627E+00  7.8674581011E+00
                       8.1287108133E+00  5.3713234627E+00  5.3549830056E+00
                       5.3713234627E+00  8.1287108133E+00  5.3549830056E+00
                       5.3713234627E+00  2.6139361121E+00  5.3549830056E+00
                       2.6139361121E+00  5.3713234627E+00  5.3549830056E+00
                      -1.9085620370E-20 -3.6676018134E-20  5.9402843376E-21
           xangst8     2.6545083394E+00  2.6545083394E+00  2.6532438800E+00
                       7.9635250183E+00  7.9635250183E+00  7.9597316400E+00
                       5.3090166789E+00  5.3090166789E+00  2.8292839081E+00
                       5.3090166789E+00  5.3090166789E+00  7.7836916119E+00
                       8.0109467308E+00  5.3090166789E+00  5.3064877600E+00
                       5.3090166789E+00  8.0109467308E+00  5.3064877600E+00
                       5.3090166789E+00  2.6070866270E+00  5.3064877600E+00
                       2.6070866270E+00  5.3090166789E+00  5.3064877600E+00
                      -1.8844048564E-20 -3.5557170981E-20 -7.0311390099E-22
           xangst9     2.6231312991E+00  2.6231312991E+00  2.6294565288E+00
                       7.8693938973E+00  7.8693938973E+00  7.8883695864E+00
                       5.2462625982E+00  5.2462625982E+00  2.8146591709E+00
                       5.2462625983E+00  5.2462625983E+00  7.7031669443E+00
                       7.8935337114E+00  5.2462625982E+00  5.2589130576E+00
                       5.2462625982E+00  7.8935337114E+00  5.2589130576E+00
                       5.2462625983E+00  2.5989914851E+00  5.2589130576E+00
                       2.5989914851E+00  5.2462625983E+00  5.2589130576E+00
                      -1.8961767041E-20 -3.4552444512E-20  1.5165328738E-21
           xangst10    2.5914122569E+00  2.5914122569E+00  2.6063719220E+00
                       7.7742367708E+00  7.7742367708E+00  7.8191157659E+00
                       5.1828245139E+00  5.1828245139E+00  2.7988180083E+00
                       5.1828245138E+00  5.1828245138E+00  7.6266696796E+00
                       7.7758631484E+00  5.1828245139E+00  5.2127438439E+00
                       5.1828245139E+00  7.7758631484E+00  5.2127438439E+00
                       5.1828245138E+00  2.5897858793E+00  5.2127438439E+00
                       2.5897858793E+00  5.1828245138E+00  5.2127438439E+00
                      -1.7987126466E-20 -3.3985159349E-20  4.6384608240E-21
            xcart1     5.4024804965E+00  5.4024804965E+00  5.3863882292E+00
                       1.6207441489E+01  1.6207441489E+01  1.6159164688E+01
                       1.0804960993E+01  1.0804960993E+01  5.4768501825E+00
                       1.0804960993E+01  1.0804960993E+01  1.6068702734E+01
                       1.6627206201E+01  1.0804960993E+01  1.0772776458E+01
                       1.0804960993E+01  1.6627206201E+01  1.0772776458E+01
                       1.0804960993E+01  4.9827157846E+00  1.0772776458E+01
                       4.9827157846E+00  1.0804960993E+01  1.0772776458E+01
                      -4.1429048573E-20 -7.1624159104E-20  1.1928301898E-20
            xcart2     5.3516078596E+00  5.3516078596E+00  5.3246141915E+00
                       1.6054823579E+01  1.6054823579E+01  1.5973842574E+01
                       1.0703215719E+01  1.0703215719E+01  5.4635828075E+00
                       1.0703215719E+01  1.0703215719E+01  1.5834873958E+01
                       1.6427421686E+01  1.0703215719E+01  1.0649228383E+01
                       1.0703215719E+01  1.6427421686E+01  1.0649228383E+01
                       1.0703215719E+01  4.9790097529E+00  1.0649228383E+01
                       4.9790097529E+00  1.0703215719E+01  1.0649228383E+01
                      -4.9370992558E-20 -7.3731060332E-20 -1.1139538293E-20
            xcart3     5.2991596381E+00  5.2991596381E+00  5.2659857678E+00
                       1.5897478914E+01  1.5897478914E+01  1.5797957303E+01
                       1.0598319276E+01  1.0598319276E+01  5.4490930504E+00
                       1.0598319276E+01  1.0598319276E+01  1.5614850021E+01
                       1.6222329686E+01  1.0598319276E+01  1.0531971536E+01
                       1.0598319276E+01  1.6222329686E+01  1.0531971536E+01
                       1.0598319276E+01  4.9743088667E+00  1.0531971536E+01
                       4.9743088667E+00  1.0598319276E+01  1.0531971536E+01
                      -4.0583944079E-20 -7.7465677724E-20  1.9470821375E-20
            xcart4     5.2460447370E+00  5.2460447370E+00  5.2086863149E+00
                       1.5738134211E+01  1.5738134211E+01  1.5626058945E+01
                       1.0492089474E+01  1.0492089474E+01  5.4325998067E+00
                       1.0492089474E+01  1.0492089474E+01  1.5402145453E+01
                       1.6016317264E+01  1.0492089474E+01  1.0417372630E+01
                       1.0492089474E+01  1.6016317264E+01  1.0417372630E+01
                       1.0492089474E+01  4.9678616833E+00  1.0417372630E+01
                       4.9678616833E+00  1.0492089474E+01  1.0417372630E+01
                      -4.0229417279E-20 -6.9550189614E-20  1.1534776220E-20
            xcart5     5.1902040657E+00  5.1902040657E+00  5.1568017177E+00
                       1.5570612197E+01  1.5570612197E+01  1.5470405153E+01
                       1.0380408131E+01  1.0380408131E+01  5.4146331414E+00
                       1.0380408131E+01  1.0380408131E+01  1.5212573729E+01
                       1.5800574569E+01  1.0380408131E+01  1.0313603435E+01
                       1.0380408131E+01  1.5800574569E+01  1.0313603435E+01
                       1.0380408131E+01  4.9602416933E+00  1.0313603435E+01
                       4.9602416933E+00  1.0380408131E+01  1.0313603435E+01
                      -4.1020090807E-20 -6.7366212537E-20  2.0758638485E-20
            xcart6     5.1335191407E+00  5.1335191407E+00  5.1065980317E+00
                       1.5400557422E+01  1.5400557422E+01  1.5319794095E+01
                       1.0267038281E+01  1.0267038281E+01  5.3942426289E+00
                       1.0267038281E+01  1.0267038281E+01  1.5032149498E+01
                       1.5583149208E+01  1.0267038281E+01  1.0213196063E+01
                       1.0267038281E+01  1.5583149208E+01  1.0213196063E+01
                       1.0267038281E+01  4.9509273547E+00  1.0213196063E+01
                       4.9509273547E+00  1.0267038281E+01  1.0213196063E+01
                      -3.8962364790E-20 -7.0189323578E-20  1.1060155389E-20
            xcart7     5.0751651578E+00  5.0751651578E+00  5.0597256634E+00
                       1.5225495473E+01  1.5225495473E+01  1.5179176990E+01
                       1.0150330316E+01  1.0150330316E+01  5.3715614806E+00
                       1.0150330316E+01  1.0150330316E+01  1.4867341173E+01
                       1.5361037251E+01  1.0150330316E+01  1.0119451327E+01
                       1.0150330316E+01  1.5361037251E+01  1.0119451327E+01
                       1.0150330316E+01  4.9396233807E+00  1.0119451327E+01
                       4.9396233807E+00  1.0150330316E+01  1.0119451327E+01
                      -3.6066595575E-20 -6.9307629918E-20  1.1225510550E-20
            xcart8     5.0162937790E+00  5.0162937790E+00  5.0139042970E+00
                       1.5048881337E+01  1.5048881337E+01  1.5041712891E+01
                       1.0032587558E+01  1.0032587558E+01  5.3465717385E+00
                       1.0032587558E+01  1.0032587558E+01  1.4709045449E+01
                       1.5138495386E+01  1.0032587558E+01  1.0027808594E+01
                       1.0032587558E+01  1.5138495386E+01  1.0027808594E+01
                       1.0032587558E+01  4.9266797297E+00  1.0027808594E+01
                       4.9266797297E+00  1.0032587558E+01  1.0027808594E+01
                      -3.5610091021E-20 -6.7193315215E-20 -1.3286927131E-21
            xcart9     4.9569997659E+00  4.9569997659E+00  4.9689527177E+00
                       1.4870999298E+01  1.4870999298E+01  1.4906858153E+01
                       9.9139995318E+00  9.9139995318E+00  5.3189349904E+00
                       9.9139995319E+00  9.9139995319E+00  1.4556875881E+01
                       1.4916616935E+01  9.9139995318E+00  9.9379054355E+00
                       9.9139995318E+00  1.4916616935E+01  9.9379054355E+00
                       9.9139995319E+00  4.9113821285E+00  9.9379054355E+00
                       4.9113821285E+00  9.9139995319E+00  9.9379054355E+00
                      -3.5832546702E-20 -6.5294657350E-20  2.8658318029E-21
            xcart10    4.8970594630E+00  4.8970594630E+00  4.9253291330E+00
                       1.4691178389E+01  1.4691178389E+01  1.4775987399E+01
                       9.7941189262E+00  9.7941189262E+00  5.2889995315E+00
                       9.7941189259E+00  9.7941189259E+00  1.4412317000E+01
                       1.4694251797E+01  9.7941189262E+00  9.8506582659E+00
                       9.7941189262E+00  1.4694251797E+01  9.8506582659E+00
                       9.7941189259E+00  4.8939860548E+00  9.8506582659E+00
                       4.8939860548E+00  9.7941189259E+00  9.8506582659E+00
                      -3.3990742938E-20 -6.4222643753E-20  8.7654206354E-21
             xred1     2.5000000000E-01  2.5000000000E-01  2.5000000000E-01
                       7.5000000000E-01  7.5000000000E-01  7.5000000000E-01
                       2.5419863689E-01  2.5419863689E-01  7.4580136311E-01
                       7.4580136311E-01  7.4580136311E-01  2.5419863689E-01
                       2.3057537125E-01  7.6942462875E-01  7.6942462875E-01
                       7.6942462875E-01  2.3057537125E-01  7.6942462875E-01
                       2.3057537125E-01  7.6942462875E-01  2.3057537125E-01
                       7.6942462875E-01  2.3057537125E-01  2.3057537125E-01
                      -8.4364820404E-22  1.9509116792E-21 -5.7851734225E-21
             xred2     2.5000000000E-01  2.5000000000E-01  2.5000000000E-01
                       7.5000000000E-01  7.5000000000E-01  7.5000000000E-01
                       2.5652482091E-01  2.5652482091E-01  7.4347517909E-01
                       7.4347517909E-01  7.4347517909E-01  2.5652482091E-01
                       2.3259410459E-01  7.6740589541E-01  7.6740589541E-01
                       7.6740589541E-01  2.3259410459E-01  7.6740589541E-01
                       2.3259410459E-01  7.6740589541E-01  2.3259410459E-01
                       7.6740589541E-01  2.3259410459E-01  2.3259410459E-01
                      -1.6609998346E-21  6.1495800952E-22 -5.2276831805E-21
             xred3     2.5000000000E-01  2.5000000000E-01  2.5000000000E-01
                       7.5000000000E-01  7.5000000000E-01  7.5000000000E-01
                       2.5869292525E-01  2.5869292525E-01  7.4130707475E-01
                       7.4130707475E-01  7.4130707475E-01  2.5869292525E-01
                       2.3467442040E-01  7.6532557960E-01  7.6532557960E-01
                       7.6532557960E-01  2.3467442040E-01  7.6532557960E-01
                       2.3467442040E-01  7.6532557960E-01  2.3467442040E-01
                       7.6532557960E-01  2.3467442040E-01  2.3467442040E-01
                      -8.1561294997E-22  2.6643476631E-21 -6.4936287990E-21
             xred4     2.5000000000E-01  2.5000000000E-01  2.5000000000E-01
                       7.5000000000E-01  7.5000000000E-01  7.5000000000E-01
                       2.6074711925E-01  2.6074711925E-01  7.3925288075E-01
                       7.3925288075E-01  7.3925288075E-01  2.6074711925E-01
                       2.3674320047E-01  7.6325679953E-01  7.6325679953E-01
                       7.6325679953E-01  2.3674320047E-01  7.6325679953E-01
                       2.3674320047E-01  7.6325679953E-01  2.3674320047E-01
                       7.6325679953E-01  2.3674320047E-01  2.3674320047E-01
                      -8.4364820404E-22  1.9509116792E-21 -5.7851734225E-21
             xred5     2.5000000000E-01  2.5000000000E-01  2.5000000000E-01
                       7.5000000000E-01  7.5000000000E-01  7.5000000000E-01
                       2.6249958006E-01  2.6249958006E-01  7.3750041994E-01
                       7.3750041994E-01  7.3750041994E-01  2.6249958006E-01
                       2.3892324996E-01  7.6107675004E-01  7.6107675004E-01
                       7.6107675004E-01  2.3892324996E-01  7.6107675004E-01
                       2.3892324996E-01  7.6107675004E-01  2.3892324996E-01
                       7.6107675004E-01  2.3892324996E-01  2.3892324996E-01
                      -2.6265935098E-22  2.2754028712E-21 -6.2270866865E-21
             xred6     2.5000000000E-01  2.5000000000E-01  2.5000000000E-01
                       7.5000000000E-01  7.5000000000E-01  7.5000000000E-01
                       2.6408200701E-01  2.6408200701E-01  7.3591799299E-01
                       7.3591799299E-01  7.3591799299E-01  2.6408200701E-01
                       2.4110786475E-01  7.5889213525E-01  7.5889213525E-01
                       7.5889213525E-01  2.4110786475E-01  7.5889213525E-01
                       2.4110786475E-01  7.5889213525E-01  2.4110786475E-01
                       7.5889213525E-01  2.4110786475E-01  2.4110786475E-01
                      -9.7927443173E-22  2.0622023732E-21 -5.8571005436E-21
             xred7     2.5000000000E-01  2.5000000000E-01  2.5000000000E-01
                       7.5000000000E-01  7.5000000000E-01  7.5000000000E-01
                       2.6540774332E-01  2.6540774332E-01  7.3459225668E-01
                       7.3459225668E-01  7.3459225668E-01  2.6540774332E-01
                       2.4332328245E-01  7.5667671755E-01  7.5667671755E-01
                       7.5667671755E-01  2.4332328245E-01  7.5667671755E-01
                       2.4332328245E-01  7.5667671755E-01  2.4332328245E-01
                       7.5667671755E-01  2.4332328245E-01  2.4332328245E-01
                      -1.0827859310E-21  2.1920862465E-21 -5.7453297817E-21
             xred8     2.5000000000E-01  2.5000000000E-01  2.5000000000E-01
                       7.5000000000E-01  7.5000000000E-01  7.5000000000E-01
                       2.6658724528E-01  2.6658724528E-01  7.3341275472E-01
                       7.3341275472E-01  7.3341275472E-01  2.6658724528E-01
                       2.4553385162E-01  7.5446614838E-01  7.5446614838E-01
                       7.5446614838E-01  2.4553385162E-01  7.5446614838E-01
                       2.4553385162E-01  7.5446614838E-01  2.4553385162E-01
                       7.5446614838E-01  2.4553385162E-01  2.4553385162E-01
                      -1.6402822269E-21  1.5077814217E-21 -5.0572237581E-21
             xred9     2.5000000000E-01  2.5000000000E-01  2.5000000000E-01
                       7.5000000000E-01  7.5000000000E-01  7.5000000000E-01
                       2.6760845255E-01  2.6760845255E-01  7.3239154745E-01
                       7.3239154745E-01  7.3239154745E-01  2.6760845255E-01
                       2.4769933228E-01  7.5230066772E-01  7.5230066772E-01
                       7.5230066772E-01  2.4769933228E-01  7.5230066772E-01
                       2.4769933228E-01  7.5230066772E-01  2.4769933228E-01
                       7.5230066772E-01  2.4769933228E-01  2.4769933228E-01
                      -1.3416972936E-21  1.6300711186E-21 -5.2444092662E-21
             xred10    2.5000000000E-01  2.5000000000E-01  2.5000000000E-01
                       7.5000000000E-01  7.5000000000E-01  7.5000000000E-01
                       2.6845919271E-01  2.6845919271E-01  7.3154080729E-01
                       7.3154080729E-01  7.3154080729E-01  2.6845919271E-01
                       2.4984309930E-01  7.5015690070E-01  7.5015690070E-01
                       7.5015690070E-01  2.4984309930E-01  7.5015690070E-01
                       2.4984309930E-01  7.5015690070E-01  2.4984309930E-01
                       7.5015690070E-01  2.4984309930E-01  2.4984309930E-01
                      -1.0984546337E-21  1.9882855870E-21 -5.4588114396E-21
            znucl       55.00000   53.00000   40.00000   35.00000

- Timing analysis has been suppressed with timopt=0

 Suggested references for the acknowledgment of ABINIT usage.

 Calculation completed.
.Delivered   0 WARNINGs and   5 COMMENTs to log file.