.Version 9.2.2 of ABINIT

 ABINIT is a project of the Universite Catholique de Louvain,
 Corning Inc. and other collaborators, see ~abinit/doc/developers/contributors.txt .
 acknowledgments of the ABINIT effort.

.Starting date : Wed  7 Dec 2022.
- ( at 09h29 )

- The starting date is more than 2 years after the initial release
- of this version of ABINIT, namely Nov 2020.
- Note that the use beyond 3 years after the release will not be supported.
- Action: please, switch to a more recent version of ABINIT.

- input  file    -> Cs2TiI6.in
- output file    -> Cs2TiI6.out
- root for input  files -> Cs2TiI6i
- root for output files -> Cs2TiI6o

- inpspheads : Reading pseudopotential header in XML form from
-   ../../../Psps_for_tests/ATOMICDATA/Cs.GGA_PBE-JTH.xml
- inpspheads : Reading pseudopotential header in XML form from
-   ../../../Psps_for_tests/ATOMICDATA/I.GGA_PBE-JTH.xml
- inpspheads : Reading pseudopotential header in XML form from
-   ../../../Psps_for_tests/ATOMICDATA/Zr.GGA_PBE-JTH.xml
- inpspheads : Reading pseudopotential header in XML form from
-   ../../../Psps_for_tests/ATOMICDATA/Cl.GGA_PBE-JTH.xml

 DATASET    1 : space group R3 m (#160); Bravais hR (rhombohedral)
     intxc =       0    ionmov =       0      iscf =      17    lmnmax =      18
     lnmax =       6     mgfft =      60  mpssoang =       3    mqgrid =    3628
     natom =       9  nloc_mem =       2    nspden =       1   nspinor =       1
    nsppol =       1      nsym =       6    n1xccc =       1    ntypat =       4
    occopt =       1   xclevel =       2
-    mband =          42        mffmem =           1         mkmem =          48
       mpw =        8036          nfft =      216000          nkpt =         189
Pmy_natom=         3
 PAW method is used; the additional fine FFT grid is defined by:
   mgfftf=        90    nfftf =    729000
  Rough estimation (10% accuracy) of disk space for files :

[...]

 DATASET    3 : space group Fm m 2 (# 42); Bravais oF (face-center ortho.)
     intxc =       0    ionmov =       0      iscf =      17    lmnmax =      18
     lnmax =       6     mgfft =      60  mpssoang =       3    mqgrid =    3591
     natom =       9  nloc_mem =       2    nspden =       1   nspinor =       1
    nsppol =       1      nsym =       4    n1xccc =       1    ntypat =       4
    occopt =       1   xclevel =       2
-    mband =          42        mffmem =           1         mkmem =          70
       mpw =        8000          nfft =      216000          nkpt =         280
Pmy_natom=         3
 PAW method is used; the additional fine FFT grid is defined by:
   mgfftf=        90    nfftf =    729000
  Rough estimation (10% accuracy) of disk space for files :

[...]

 DATASET    5 : space group R3 m (#160); Bravais hR (rhombohedral)
     intxc =       0    ionmov =       0      iscf =      17    lmnmax =      18
     lnmax =       6     mgfft =      60  mpssoang =       3    mqgrid =    3628
     natom =       9  nloc_mem =       2    nspden =       1   nspinor =       1
    nsppol =       1      nsym =       6    n1xccc =       1    ntypat =       4
    occopt =       1   xclevel =       2
-    mband =          42        mffmem =           1         mkmem =          48
       mpw =        8036          nfft =      216000          nkpt =         189
Pmy_natom=         3
 PAW method is used; the additional fine FFT grid is defined by:
   mgfftf=        90    nfftf =    729000
  Rough estimation (10% accuracy) of disk space for files :

 DATASET    6 : space group Fm m 2 (# 42); Bravais oF (face-center ortho.)
     intxc =       0    ionmov =       0      iscf =      17    lmnmax =      18
     lnmax =       6     mgfft =      60  mpssoang =       3    mqgrid =    3591
     natom =       9  nloc_mem =       2    nspden =       1   nspinor =       1
    nsppol =       1      nsym =       4    n1xccc =       1    ntypat =       4
    occopt =       1   xclevel =       2
-    mband =          42        mffmem =           1         mkmem =          70
       mpw =        8000          nfft =      216000          nkpt =         280
Pmy_natom=         3
 PAW method is used; the additional fine FFT grid is defined by:
   mgfftf=        90    nfftf =    729000
  Rough estimation (10% accuracy) of disk space for files :

------------- Echo of variables that govern the present computation ------------
-
- outvars: echo of selected default values
-   iomode0 =  0 , fftalg0 =112 , wfoptalg0 = 10
-
- outvars: echo of global parameters not present in the input file
-  max_nthreads =    0
-
 -outvars: echo values of preprocessed input variables --------
            acell1     1.5289296543E+01  1.5672583679E+01  1.5672583679E+01 Bohr
            acell2     1.5289297057E+01  1.5672584336E+01  1.5672584336E+01 Bohr
            acell3     1.5411825978E+01  1.5322716430E+01  1.5622272150E+01 Bohr
            acell4     1.5622272100E+01  1.5411825992E+01  1.5322716403E+01 Bohr
            acell5     1.5672597361E+01  1.5672597361E+01  1.5289442067E+01 Bohr
            acell6     1.5322716396E+01  1.5411825964E+01  1.5622272120E+01 Bohr
              amu      1.32905430E+02  1.26904470E+02  9.12240000E+01
                       3.54527000E+01
           diemac      1.20000000E+01
             ecut      1.60000000E+01 Hartree
-          fftalg         112
           istwfk1       2    0    0    0    0    0    3    0    0    0
                         0    0    0    0    0    0    0    0    0    0
                         0    0    0    0    0    0    0    0    0    0
                         0    0    0    0    0    0    0    0    0    0
                         0    0    0    0    0    0    0    0    0    0
           istwfk2       2    0    0    0    0    0    3    0    0    0
                         0    0    0    0    0    0    0    0    0    0
                         0    0    0    0    0    0    0    0    0    0
                         0    0    0    0    0    0    0    0    0    0
                         0    0    0    0    0    0    0    0    0    0
           istwfk3       2    0    0    0    0    0    3    0    0    0
                         0    0    0    0    0    0    0    0    0    0
                         0    0    0    0    0    0    0    0    0    0
                         0    0    0    0    0    0    0    0    0    0
                         0    0    7    0    0    0    0    0    0    0
           istwfk4       2    0    0    0    0    0    3    0    0    0
                         0    0    0    0    0    0    0    0    0    0
                         0    0    0    0    0    0    0    0    0    0
                         0    0    0    0    0    0    0    0    0    0
                         0    0    7    0    0    0    0    0    0    0
           istwfk5       2    0    0    0    0    0    3    0    0    0
                         0    0    0    0    0    0    0    0    0    0
                         0    0    0    0    0    0    0    0    0    0
                         0    0    0    0    0    0    0    0    0    0
                         0    0    7    0    0    0    0    0    0    0
           istwfk6       2    0    0    0    0    0    3    0    0    0
                         0    0    0    0    0    0    0    0    0    0
                         0    0    0    0    0    0    0    0    0    0
                         0    0    0    0    0    0    0    0    0    0
                         0    0    7    0    0    0    0    0    0    0
                       outvar_i_n : Printing only first  50 k-points.
              ixc     -101130
           jdtset        1    2    3    4    5    6
              kpt1     0.00000000E+00  0.00000000E+00  0.00000000E+00
                       8.33333333E-02  0.00000000E+00  0.00000000E+00
                       1.66666667E-01  0.00000000E+00  0.00000000E+00
                       2.50000000E-01  0.00000000E+00  0.00000000E+00
                       3.33333333E-01  0.00000000E+00  0.00000000E+00
                       4.16666667E-01  0.00000000E+00  0.00000000E+00
                       5.00000000E-01  0.00000000E+00  0.00000000E+00
                       0.00000000E+00  8.33333333E-02  0.00000000E+00
                       8.33333333E-02  8.33333333E-02  0.00000000E+00
                       1.66666667E-01  8.33333333E-02  0.00000000E+00
                       2.50000000E-01  8.33333333E-02  0.00000000E+00
                       3.33333333E-01  8.33333333E-02  0.00000000E+00
                       4.16666667E-01  8.33333333E-02  0.00000000E+00
                       5.00000000E-01  8.33333333E-02  0.00000000E+00
                      -4.16666667E-01  8.33333333E-02  0.00000000E+00
                      -3.33333333E-01  8.33333333E-02  0.00000000E+00
                      -2.50000000E-01  8.33333333E-02  0.00000000E+00
                      -1.66666667E-01  8.33333333E-02  0.00000000E+00
                      -8.33333333E-02  8.33333333E-02  0.00000000E+00
                       0.00000000E+00  1.66666667E-01  0.00000000E+00
                       8.33333333E-02  1.66666667E-01  0.00000000E+00
                       1.66666667E-01  1.66666667E-01  0.00000000E+00
                       2.50000000E-01  1.66666667E-01  0.00000000E+00
                       3.33333333E-01  1.66666667E-01  0.00000000E+00
                       4.16666667E-01  1.66666667E-01  0.00000000E+00
                       5.00000000E-01  1.66666667E-01  0.00000000E+00
                      -4.16666667E-01  1.66666667E-01  0.00000000E+00
                      -3.33333333E-01  1.66666667E-01  0.00000000E+00
                      -2.50000000E-01  1.66666667E-01  0.00000000E+00
                      -1.66666667E-01  1.66666667E-01  0.00000000E+00
                      -8.33333333E-02  1.66666667E-01  0.00000000E+00
                       0.00000000E+00  2.50000000E-01  0.00000000E+00
                       8.33333333E-02  2.50000000E-01  0.00000000E+00
                       1.66666667E-01  2.50000000E-01  0.00000000E+00
                       2.50000000E-01  2.50000000E-01  0.00000000E+00
                       3.33333333E-01  2.50000000E-01  0.00000000E+00
                       4.16666667E-01  2.50000000E-01  0.00000000E+00
                       5.00000000E-01  2.50000000E-01  0.00000000E+00
                      -4.16666667E-01  2.50000000E-01  0.00000000E+00
                      -3.33333333E-01  2.50000000E-01  0.00000000E+00
                      -2.50000000E-01  2.50000000E-01  0.00000000E+00
                      -1.66666667E-01  2.50000000E-01  0.00000000E+00
                      -8.33333333E-02  2.50000000E-01  0.00000000E+00
                       0.00000000E+00  3.33333333E-01  0.00000000E+00
                       8.33333333E-02  3.33333333E-01  0.00000000E+00
                       1.66666667E-01  3.33333333E-01  0.00000000E+00
                       2.50000000E-01  3.33333333E-01  0.00000000E+00
                       3.33333333E-01  3.33333333E-01  0.00000000E+00
                       4.16666667E-01  3.33333333E-01  0.00000000E+00
                       5.00000000E-01  3.33333333E-01  0.00000000E+00
[...]
                         0.00347    0.00347    0.00347    0.00347    0.00347    0.00347
                         0.00347    0.00347    0.00347    0.00347    0.00347    0.00347
                         0.00347    0.00347    0.00347    0.00347    0.00347    0.00347
                         0.00347    0.00347    0.00347    0.00347    0.00347    0.00347
                         0.00347    0.00347
              wtk2       0.00058    0.00116    0.00116    0.00116    0.00116    0.00116
                         0.00058    0.00347    0.00347    0.00347    0.00347    0.00347
                         0.00347    0.00347    0.00347    0.00347    0.00347    0.00347
                         0.00347    0.00347    0.00347    0.00347    0.00347    0.00347
                         0.00347    0.00347    0.00347    0.00347    0.00347    0.00347
                         0.00347    0.00347    0.00347    0.00347    0.00347    0.00347
                         0.00347    0.00347    0.00347    0.00347    0.00347    0.00347
                         0.00347    0.00347    0.00347    0.00347    0.00347    0.00347
                         0.00347    0.00347
              wtk3       0.00058    0.00463    0.00463    0.00463    0.00463    0.00463
                         0.00231    0.00116    0.00463    0.00463    0.00463    0.00463
                         0.00463    0.00463    0.00463    0.00463    0.00463    0.00231
                         0.00116    0.00463    0.00463    0.00463    0.00463    0.00463
                         0.00463    0.00463    0.00231    0.00116    0.00463    0.00463
                         0.00463    0.00463    0.00463    0.00231    0.00116    0.00463
                         0.00463    0.00463    0.00231    0.00116    0.00463    0.00231
                         0.00058    0.00116    0.00463    0.00463    0.00463    0.00463
                         0.00463    0.00463
              wtk4       0.00058    0.00463    0.00463    0.00463    0.00463    0.00463
                         0.00231    0.00116    0.00463    0.00463    0.00463    0.00463
                         0.00463    0.00463    0.00463    0.00463    0.00463    0.00231
                         0.00116    0.00463    0.00463    0.00463    0.00463    0.00463
                         0.00463    0.00463    0.00231    0.00116    0.00463    0.00463
                         0.00463    0.00463    0.00463    0.00231    0.00116    0.00463
                         0.00463    0.00463    0.00231    0.00116    0.00463    0.00231
                         0.00058    0.00116    0.00463    0.00463    0.00463    0.00463
                         0.00463    0.00463
              wtk5       0.00058    0.00347    0.00347    0.00347    0.00347    0.00347
                         0.00174    0.00347    0.00694    0.00694    0.00694    0.00694
                         0.00694    0.00694    0.00694    0.00694    0.00694    0.00347
                         0.00347    0.00694    0.00694    0.00694    0.00694    0.00694
                         0.00694    0.00694    0.00347    0.00347    0.00694    0.00694
                         0.00694    0.00694    0.00694    0.00347    0.00347    0.00694
                         0.00694    0.00694    0.00347    0.00347    0.00694    0.00347
                         0.00174    0.00116    0.00347    0.00347    0.00347    0.00347
                         0.00347    0.00347
              wtk6       0.00058    0.00463    0.00463    0.00463    0.00463    0.00463
                         0.00231    0.00116    0.00463    0.00463    0.00463    0.00463
                         0.00463    0.00463    0.00463    0.00463    0.00463    0.00231
                         0.00116    0.00463    0.00463    0.00463    0.00463    0.00463
                         0.00463    0.00463    0.00231    0.00116    0.00463    0.00463
                         0.00463    0.00463    0.00463    0.00231    0.00116    0.00463
                         0.00463    0.00463    0.00231    0.00116    0.00463    0.00231
                         0.00058    0.00116    0.00463    0.00463    0.00463    0.00463
                         0.00463    0.00463
                       outvars : Printing only first  50 k-points.
           xangst1     2.9610010961E+00  2.9034413780E+00  2.9034413780E+00
                       8.8840202896E+00  8.7093071326E+00  8.7093071326E+00
                       5.8239495158E+00  5.9049354324E+00  2.5461275539E+00
                       5.9713974525E+00  5.7574874956E+00  8.7585705623E+00
                       9.1827573943E+00  5.9049354324E+00  5.9049354324E+00
                       5.9713974525E+00  8.7585705623E+00  5.7574874956E+00
                       5.8239495158E+00  2.5461275539E+00  5.9049354324E+00
                       2.9703143859E+00  5.7574874956E+00  5.7574874956E+00
                      -9.5924962298E-02  9.5924962291E-02  9.5924962291E-02
           xangst2     2.9891956105E+00  2.8752471095E+00  2.8752471095E+00
                       8.9122149227E+00  8.6811132373E+00  8.6811132373E+00
                       5.9018182478E+00  5.8270671922E+00  2.8259838974E+00
                       6.0492663826E+00  5.6796190575E+00  9.0384273428E+00
                       8.9029015425E+00  5.8270671922E+00  5.8270671922E+00
                       6.0492663826E+00  9.0384273428E+00  5.6796190575E+00
                       5.9018182478E+00  2.8259838974E+00  5.8270671922E+00
                       2.6904580972E+00  5.6796190575E+00  5.6796190575E+00
                       9.5924891137E-02 -9.5924891140E-02 -9.5924891140E-02
           xangst3     2.9063624764E+00  2.9310761484E+00  2.8266102987E+00
                       8.7190874291E+00  8.8094004856E+00  8.4798308962E+00
                       5.8127249527E+00  5.8165939912E+00  2.4577262973E+00
                       5.8127249527E+00  5.8165939911E+00  8.8487148976E+00
                       8.7168183252E+00  5.8669594480E+00  5.6532205975E+00
                       5.8127249527E+00  9.1955159765E+00  5.6532205974E+00
                       5.8127249527E+00  2.8269319220E+00  5.6532205975E+00
                       2.9086315802E+00  5.8669594479E+00  5.6532205974E+00
                       1.1303612315E-13 -1.0343671329E-01  1.6049961050E-12
           xangst4     2.8266103062E+00  2.9063624594E+00  2.9472481735E+00
                       8.4798309185E+00  8.7190873781E+00  8.8255725066E+00
                       5.6532206123E+00  5.8127249186E+00  2.5611327055E+00
                       5.6532206123E+00  5.8127249189E+00  8.9297167482E+00
                       8.8487149255E+00  5.8127249186E+00  5.9400546798E+00
                       5.6532206123E+00  8.7168182583E+00  5.8896892271E+00
                       5.6532206123E+00  2.9086315792E+00  5.8896892269E+00
                       2.4577262991E+00  5.8127249189E+00  5.9400546800E+00
                       1.1704254724E-12  4.3829405407E-12  1.0343671788E-01
           xangst5     2.8755696771E+00  2.8755696771E+00  2.9888779166E+00
                       8.6810967246E+00  8.6810967246E+00  8.9122460565E+00
                       5.6796196519E+00  5.6796196519E+00  2.6904371804E+00
                       5.8270464434E+00  5.8270464434E+00  8.9029410342E+00
                       9.0384580069E+00  5.6796196519E+00  6.0492755354E+00
                       5.6796196519E+00  9.0384580069E+00  6.0492755354E+00
                       5.8270464434E+00  2.8259541533E+00  5.9018487440E+00
                       2.8259541533E+00  5.8270464434E+00  5.9018487440E+00
                      -9.5952461600E-02 -9.5952461600E-02  9.5952461603E-02
           xangst6     2.9472481931E+00  2.9063624672E+00  2.8266102955E+00
                       8.8255725259E+00  8.7190874017E+00  8.4798308864E+00
                       5.9400546757E+00  5.8127249346E+00  2.4577263013E+00
                       5.9400546758E+00  5.8127249344E+00  8.8487148805E+00
                       8.9297167338E+00  5.8127249345E+00  5.6532205911E+00
                       5.8896892250E+00  8.7168182905E+00  5.6532205908E+00
                       5.8896892250E+00  2.9086315785E+00  5.6532205911E+00
                       2.5611327005E+00  5.8127249344E+00  5.6532205908E+00
                       1.0343670761E-01  2.5715431834E-12  4.3127235668E-12
            xcart1     5.5954811508E+00  5.4867090473E+00  5.4867090473E+00
                       1.6788365306E+01  1.6458205288E+01  1.6458205288E+01
                       1.1005669597E+01  1.1158710800E+01  4.8114837763E+00
                       1.1284305816E+01  1.0880074580E+01  1.6551299678E+01
                       1.7352896620E+01  1.1158710800E+01  1.1158710800E+01
                       1.1284305816E+01  1.6551299678E+01  1.0880074580E+01
                       1.1005669597E+01  4.8114837763E+00  1.1158710800E+01
                       5.6130807179E+00  1.0880074580E+01  1.0880074580E+01
                      -1.8127190805E-01  1.8127190804E-01  1.8127190804E-01
            xcart2     5.6487610615E+00  5.4334296013E+00  5.4334296013E+00
                       1.6841645441E+01  1.6404926547E+01  1.6404926547E+01
                       1.1152820174E+01  1.1011561151E+01  5.3403356221E+00
                       1.1431456768E+01  1.0732924558E+01  1.7080152350E+01
                       1.6824045703E+01  1.1011561151E+01  1.1011561151E+01
                       1.1431456768E+01  1.7080152350E+01  1.0732924558E+01
                       1.1152820174E+01  5.3403356221E+00  1.1011561151E+01
                       5.0842289757E+00  1.0732924558E+01  1.0732924558E+01
                       1.8127177358E-01 -1.8127177358E-01 -1.8127177358E-01
            xcart3     5.4922291232E+00  5.5389311952E+00  5.3415193490E+00
                       1.6476687370E+01  1.6647354313E+01  1.6024558047E+01
                       1.0984458246E+01  1.0991769670E+01  4.6444296115E+00
                       1.0984458246E+01  1.0991769669E+01  1.6721647784E+01
                       1.6472399385E+01  1.1086946589E+01  1.0683038698E+01
                       1.0984458246E+01  1.7377006846E+01  1.0683038698E+01
                       1.0984458246E+01  5.3421271290E+00  1.0683038698E+01
                       5.4965171081E+00  1.1086946589E+01  1.0683038698E+01
                       2.1360731588E-13 -1.9546706021E-01  3.0330030827E-12
            xcart4     5.3415193630E+00  5.4922290911E+00  5.5694918935E+00
                       1.6024558089E+01  1.6476687273E+01  1.6677915003E+01
                       1.0683038726E+01  1.0984458182E+01  4.8398394033E+00
                       1.0683038726E+01  1.0984458182E+01  1.6874719098E+01
                       1.6721647837E+01  1.0984458182E+01  1.1225076559E+01
                       1.0683038726E+01  1.6472399258E+01  1.1129899647E+01
                       1.0683038726E+01  5.4965171061E+00  1.1129899647E+01
                       4.6444296148E+00  1.0984458182E+01  1.1225076560E+01
                       2.2117836018E-12  8.2825572787E-12  1.9546706888E-01
            xcart5     5.4340391657E+00  5.4340391657E+00  5.6481607070E+00
                       1.6404895343E+01  1.6404895343E+01  1.6841704276E+01
                       1.0732925681E+01  1.0732925681E+01  5.0841894487E+00
                       1.1011521942E+01  1.1011521942E+01  1.6824120332E+01
                       1.7080210297E+01  1.0732925681E+01  1.1431474064E+01
                       1.0732925681E+01  1.7080210297E+01  1.1431474064E+01
                       1.1011521942E+01  5.3402794138E+00  1.1152877804E+01
                       5.3402794138E+00  1.1011521942E+01  1.1152877804E+01
                      -1.8132387420E-01 -1.8132387420E-01  1.8132387421E-01
            xcart6     5.5694919307E+00  5.4922291060E+00  5.3415193428E+00
                       1.6677915040E+01  1.6476687318E+01  1.6024558028E+01
                       1.1225076551E+01  1.0984458212E+01  4.6444296191E+00
                       1.1225076552E+01  1.0984458212E+01  1.6721647752E+01
                       1.6874719071E+01  1.0984458212E+01  1.0683038686E+01
                       1.1129899643E+01  1.6472399319E+01  1.0683038685E+01
                       1.1129899643E+01  5.4965171048E+00  1.0683038686E+01
                       4.8398393939E+00  1.0984458212E+01  1.0683038685E+01
                       1.9546704946E-01  4.8595123555E-12  8.1498664282E-12
             xred1     2.5193949807E-01  2.4935350064E-01  2.4935350064E-01
                       7.5554839569E-01  7.4815053477E-01  7.4815053477E-01
                       2.3257244265E-01  2.0731504580E-01  7.8005625578E-01
                       7.5643957176E-01  7.5568165183E-01  2.4393938820E-01
                       2.3257244265E-01  7.8005625578E-01  7.8005625578E-01
                       7.5643957176E-01  2.4393938820E-01  7.5568165183E-01
                       2.3257244265E-01  7.8005625578E-01  2.0731504580E-01
                       7.5643957176E-01  2.4393938820E-01  2.4393938820E-01
                       2.5476063035E-02 -8.4920210118E-03 -8.4920210118E-03
             xred2     2.4445154378E-01  2.5184948541E-01  2.5184948541E-01
                       7.4806048230E-01  7.5064650590E-01  7.5064650590E-01
                       2.4356044414E-01  2.4431833124E-01  7.5606061231E-01
                       7.6742756164E-01  7.9268498302E-01  2.1994372767E-01
                       2.4356044414E-01  7.5606061231E-01  7.5606061231E-01
                       7.6742756164E-01  2.1994372767E-01  7.9268498302E-01
                       2.4356044414E-01  7.5606061231E-01  2.4431833124E-01
                       7.6742756164E-01  2.1994372767E-01  2.1994372767E-01
                      -2.5476043396E-02  8.4920144653E-03  8.4920144653E-03
             xred3     2.4931221725E-01  2.5068778275E-01  2.4931221725E-01
                       7.4931221725E-01  7.5068778275E-01  7.4931221725E-01
                       2.1212332009E-01  2.2262467089E-01  7.7737532911E-01
                       7.7737532911E-01  7.8787667991E-01  2.1212332009E-01
                       2.4922850655E-01  7.5077149345E-01  7.4883813820E-01
                       7.8215452645E-01  2.1784547355E-01  7.8215452645E-01
                       2.4045389127E-01  7.5954610873E-01  2.4045389127E-01
                       7.4883813820E-01  2.5116186180E-01  2.4922850655E-01
                      -8.7981461518E-03  8.7981461518E-03 -8.7981461518E-03
             xred4     2.5068778162E-01  2.5068778162E-01  2.4931221838E-01
                       7.5068778162E-01  7.5068778162E-01  7.4931221838E-01
                       2.1784547435E-01  2.1784547435E-01  7.8215452565E-01
                       7.5954610890E-01  7.5954610890E-01  2.4045389110E-01
                       2.2262467054E-01  7.8787668039E-01  7.7737532946E-01
                       7.5077149247E-01  2.5116186357E-01  7.4883813643E-01
                       2.5116186357E-01  7.5077149247E-01  2.4922850753E-01
                       7.8787668039E-01  2.2262467054E-01  2.1212331961E-01
                       8.7981465479E-03  8.7981465479E-03 -8.7981465479E-03
             xred5     2.5182222635E-01  2.5182222635E-01  2.4453332094E-01
                       7.5065192725E-01  7.5065192725E-01  7.4804421825E-01
                       2.1994514430E-01  2.1994514430E-01  7.6741866029E-01
                       7.5606452044E-01  7.5606452044E-01  2.4354982834E-01
                       2.1994514430E-01  7.9269105111E-01  7.6741866029E-01
                       7.9269105111E-01  2.1994514430E-01  7.6741866029E-01
                       2.4432113077E-01  7.5606452044E-01  2.4354982834E-01
                       7.5606452044E-01  2.4432113077E-01  2.4354982834E-01
                       8.4943350286E-03  8.4943350286E-03 -2.5483005086E-02
             xred6     2.4931221669E-01  2.5068778331E-01  2.5068778331E-01
                       7.4931221669E-01  7.5068778331E-01  7.5068778331E-01
                       2.1212332095E-01  2.2262467124E-01  7.8787667905E-01
                       7.7737532876E-01  7.8787667905E-01  2.2262467124E-01
                       2.4045389228E-01  7.5954610772E-01  7.5954610772E-01
                       7.4883813731E-01  2.5116186269E-01  7.5077149307E-01
                       2.4922850693E-01  7.5077149307E-01  2.5116186269E-01
                       7.8215452606E-01  2.1784547394E-01  2.1784547394E-01
                      -8.7981456746E-03  8.7981456746E-03  8.7981456746E-03
            znucl       55.00000   53.00000   40.00000   17.00000

- Timing analysis has been suppressed with timopt=0

 Suggested references for the acknowledgment of ABINIT usage.

 Calculation completed.
.Delivered   0 WARNINGs and   0 COMMENTs to log file.