.Version 9.2.2 of ABINIT

 ABINIT is a project of the Universite Catholique de Louvain,
 Corning Inc. and other collaborators, see ~abinit/doc/developers/contributors.txt .
 acknowledgments of the ABINIT effort.

.Starting date : Sat 22 Oct 2022.
- ( at 05h32 )

- input  file    -> Cs2TiI6.in
- output file    -> Cs2TiI6.out
- root for input  files -> Cs2TiI6i
- root for output files -> Cs2TiI6o

- inpspheads : Reading pseudopotential header in XML form from
-   ../../../Psps_for_tests/ATOMICDATA/Cs.GGA_PBE-JTH.xml
- inpspheads : Reading pseudopotential header in XML form from
-   ../../../Psps_for_tests/ATOMICDATA/I.GGA_PBE-JTH.xml
- inpspheads : Reading pseudopotential header in XML form from
-   ../../../Psps_for_tests/ATOMICDATA/Zr.GGA_PBE-JTH.xml
- inpspheads : Reading pseudopotential header in XML form from
-   ../../../Psps_for_tests/ATOMICDATA/Br.GGA_PBE-JTH.xml

 DATASET    1 : space group I4 m m (#107); Bravais tI (body-center tetrag.)
     intxc =       0    ionmov =       0      iscf =      17    lmnmax =      18
     lnmax =       6     mgfft =      60  mpssoang =       3    mqgrid =    3542
     natom =       9  nloc_mem =       2    nspden =       1   nspinor =       1
    nsppol =       1      nsym =       8    n1xccc =       1    ntypat =       4
    occopt =       1   xclevel =       2
-    mband =          42        mffmem =           1         mkmem =          28
       mpw =        7684          nfft =      216000          nkpt =         163
Pmy_natom=         2
 PAW method is used; the additional fine FFT grid is defined by:
   mgfftf=        90    nfftf =    729000
  Rough estimation (10% accuracy) of disk space for files :

 DATASET    2 : space group I4 m m (#107); Bravais tI (body-center tetrag.)
     intxc =       0    ionmov =       0      iscf =      17    lmnmax =      18
     lnmax =       6     mgfft =      60  mpssoang =       3    mqgrid =    3542
     natom =       9  nloc_mem =       2    nspden =       1   nspinor =       1
    nsppol =       1      nsym =       8    n1xccc =       1    ntypat =       4
    occopt =       1   xclevel =       2
-    mband =          42        mffmem =           1         mkmem =          28
       mpw =        7684          nfft =      216000          nkpt =         163
Pmy_natom=         2
 PAW method is used; the additional fine FFT grid is defined by:
   mgfftf=        90    nfftf =    729000
  Rough estimation (10% accuracy) of disk space for files :

------------- Echo of variables that govern the present computation ------------
-
- outvars: echo of selected default values
-   iomode0 =  0 , fftalg0 =112 , wfoptalg0 = 10
-
- outvars: echo of global parameters not present in the input file
-  max_nthreads =    0
-
 -outvars: echo values of preprocessed input variables --------
            acell1     1.5233602722E+01  1.5233602722E+01  1.5243697338E+01 Bohr
            acell2     1.5233602712E+01  1.5233602712E+01  1.5243697339E+01 Bohr
              amu      1.32905430E+02  1.26904470E+02  9.12240000E+01
                       7.99040000E+01
           diemac      1.20000000E+01
             ecut      1.60000000E+01 Hartree
-          fftalg         112
           istwfk        2    0    0    0    0    0    3    0    0    0
                         0    0    0    0    0    0    0    0    0    0
                         0    0    0    0    0    0    0    0    0    0
                         0    0    0    0    0    0    0    0    0    0
                         0    0    7    0    0    0    0    0    0    0
                       outvar_i_n : Printing only first  50 k-points.
              ixc     -101130
           jdtset        1    2
              kpt      0.00000000E+00  0.00000000E+00  0.00000000E+00
                       8.33333333E-02  0.00000000E+00  0.00000000E+00
                       1.66666667E-01  0.00000000E+00  0.00000000E+00
                       2.50000000E-01  0.00000000E+00  0.00000000E+00
                       3.33333333E-01  0.00000000E+00  0.00000000E+00
                       4.16666667E-01  0.00000000E+00  0.00000000E+00
                       5.00000000E-01  0.00000000E+00  0.00000000E+00
                       8.33333333E-02  8.33333333E-02  0.00000000E+00
                       1.66666667E-01  8.33333333E-02  0.00000000E+00
                       2.50000000E-01  8.33333333E-02  0.00000000E+00
                       3.33333333E-01  8.33333333E-02  0.00000000E+00
                       4.16666667E-01  8.33333333E-02  0.00000000E+00
                       5.00000000E-01  8.33333333E-02  0.00000000E+00
                      -4.16666667E-01  8.33333333E-02  0.00000000E+00
                      -3.33333333E-01  8.33333333E-02  0.00000000E+00
                      -2.50000000E-01  8.33333333E-02  0.00000000E+00
                      -1.66666667E-01  8.33333333E-02  0.00000000E+00
                      -8.33333333E-02  8.33333333E-02  0.00000000E+00
                       1.66666667E-01  1.66666667E-01  0.00000000E+00
                       2.50000000E-01  1.66666667E-01  0.00000000E+00
                       3.33333333E-01  1.66666667E-01  0.00000000E+00
                       4.16666667E-01  1.66666667E-01  0.00000000E+00
                       5.00000000E-01  1.66666667E-01  0.00000000E+00
                      -4.16666667E-01  1.66666667E-01  0.00000000E+00
                      -3.33333333E-01  1.66666667E-01  0.00000000E+00
                      -2.50000000E-01  1.66666667E-01  0.00000000E+00
                      -1.66666667E-01  1.66666667E-01  0.00000000E+00
                       2.50000000E-01  2.50000000E-01  0.00000000E+00
                       3.33333333E-01  2.50000000E-01  0.00000000E+00
                       4.16666667E-01  2.50000000E-01  0.00000000E+00
                       5.00000000E-01  2.50000000E-01  0.00000000E+00
                      -4.16666667E-01  2.50000000E-01  0.00000000E+00
                      -3.33333333E-01  2.50000000E-01  0.00000000E+00
                      -2.50000000E-01  2.50000000E-01  0.00000000E+00
                       3.33333333E-01  3.33333333E-01  0.00000000E+00
                       4.16666667E-01  3.33333333E-01  0.00000000E+00
                       5.00000000E-01  3.33333333E-01  0.00000000E+00
                      -4.16666667E-01  3.33333333E-01  0.00000000E+00
                      -3.33333333E-01  3.33333333E-01  0.00000000E+00
                       4.16666667E-01  4.16666667E-01  0.00000000E+00
                       5.00000000E-01  4.16666667E-01  0.00000000E+00
                      -4.16666667E-01  4.16666667E-01  0.00000000E+00
                       5.00000000E-01  5.00000000E-01  0.00000000E+00
                       8.33333333E-02  0.00000000E+00  8.33333333E-02
                       1.66666667E-01  0.00000000E+00  8.33333333E-02
                       2.50000000E-01  0.00000000E+00  8.33333333E-02
                       3.33333333E-01  0.00000000E+00  8.33333333E-02
                       4.16666667E-01  0.00000000E+00  8.33333333E-02
                       5.00000000E-01  0.00000000E+00  8.33333333E-02
                      -4.16666667E-01  0.00000000E+00  8.33333333E-02
                       outvar_i_n : Printing only first  50 k-points.
         kptrlatt       12    0    0      0   12    0      0    0   12
          kptrlen1     1.82803233E+02
          kptrlen2     1.82803233E+02
P           mkmem          28
            natom           9
            nband          42
           ndtset           2
            ngfft          60      60      60
          ngfftdg          90      90      90
             nkpt         163
            nstep        2500
             nsym           8
           ntypat           4
              occ      2.000000  2.000000  2.000000  2.000000  2.000000  2.000000
                       2.000000  2.000000  2.000000  2.000000  2.000000  2.000000
                       2.000000  2.000000  2.000000  2.000000  2.000000  2.000000
                       2.000000  2.000000  2.000000  2.000000  2.000000  2.000000
                       2.000000  2.000000  2.000000  2.000000  2.000000  2.000000
                       2.000000  2.000000  2.000000  2.000000  2.000000  2.000000
                       0.000000  0.000000  0.000000  0.000000  0.000000  0.000000
        pawecutdg      4.00000000E+01 Hartree
            prtwf           0
            rprim1     0.0000000000E+00  7.0757534872E-01  7.0663790294E-01
                       7.0757534872E-01  0.0000000000E+00  7.0663790294E-01
                       7.0710678119E-01  7.0710678119E-01  0.0000000000E+00
            rprim2     0.0000000000E+00  7.0757534921E-01  7.0663790246E-01
                       7.0757534921E-01  0.0000000000E+00  7.0663790246E-01
                       7.0710678119E-01  7.0710678119E-01  0.0000000000E+00
          spgroup         107
           symrel      1  0  0   0  1  0   0  0  1       1  0 -1   0  1 -1   0  0 -1
                       0  1 -1   1  0 -1   0  0 -1       0  1  0   1  0  0   0  0  1
                       1  0  0   1  0 -1   1 -1  0       0  1  0   0  1 -1  -1  1  0
                       0  1 -1   0  1  0  -1  1  0       1  0 -1   1  0  0   1 -1  0
           toldfe      1.00000000E-08 Hartree
            typat1     1  1  2  4  4  4  4  4  3
            typat2     1  1  4  2  4  4  4  4  3
           useylm           1
              wtk        0.00058    0.00463    0.00463    0.00463    0.00463    0.00463
                         0.00231    0.00116    0.00463    0.00463    0.00463    0.00463
                         0.00463    0.00463    0.00463    0.00463    0.00463    0.00231
                         0.00116    0.00463    0.00463    0.00463    0.00463    0.00463
                         0.00463    0.00463    0.00231    0.00116    0.00463    0.00463
                         0.00463    0.00463    0.00463    0.00231    0.00116    0.00463
                         0.00463    0.00463    0.00231    0.00116    0.00463    0.00231
                         0.00058    0.00231    0.00926    0.00926    0.00926    0.00926
                         0.00926    0.00926
                       outvars : Printing only first  50 k-points.
           xangst1     2.8519798638E+00  2.8519798638E+00  2.8221110366E+00
                       8.5559395914E+00  8.5559395914E+00  8.5185137557E+00
                       5.7039597276E+00  5.7039597276E+00  2.8575295251E+00
                       5.7039597276E+00  5.7039597276E+00  8.6975332794E+00
                       8.7651849262E+00  5.7039597276E+00  5.6832842452E+00
                       5.7039597276E+00  8.7651849262E+00  5.6832842452E+00
                       5.7039597276E+00  2.6427345290E+00  5.6832842452E+00
                       2.6427345290E+00  5.7039597276E+00  5.6832842452E+00
                      -4.6378268575E-13 -4.6378268575E-13 -5.7602824806E-02
           xangst2     2.8519798640E+00  2.8519798640E+00  2.8742916802E+00
                       8.5559395919E+00  8.5559395919E+00  8.5706943916E+00
                       5.7039597279E+00  5.7039597279E+00  2.6952721568E+00
                       5.7039597279E+00  5.7039597279E+00  8.5352758982E+00
[...]

 cartesian forces (eV/Angstrom) at end:
    1      0.00000000000000    -0.00000000000000     0.00144460092675
    2     -0.00000000000000     0.00000000000000     0.00144460092675
    3      0.00000000000000    -0.00000000000000    -0.00080938898290
    4     -0.00000000000000     0.00000000000000     0.00042919745129
    5      0.00019675757576    -0.00000000000000    -0.00067550446960
    6     -0.00000000000000     0.00019675757576    -0.00067550446960
    7      0.00000000000000    -0.00019675757576    -0.00067550446961
    8     -0.00019675757576     0.00000000000000    -0.00067550446961
    9      0.00000000000000    -0.00000000000000     0.00019300755653
 frms,max,avg= 5.1027937E-04 1.4446009E-03   0.000E+00  0.000E+00  2.353E-04 e/A
 length scales= 15.233602712000 15.233602712000 15.243697339000 bohr
              =  8.061275359905  8.061275359905  8.066617206443 angstroms
 prteigrs : about to open file Cs2TiI6o_DS2_EIG
 Fermi (or HOMO) energy (hartree) =  -0.05644   Average Vxc (hartree)=  -0.28348
 Eigenvalues (hartree) for nkpt= 163  k points:
 kpt#   1, nband= 42, wtk=  0.00058, kpt=  0.0000  0.0000  0.0000 (reduced coord)
  -1.86319   -1.05380   -1.05380   -1.05337   -0.79695   -0.79677   -0.55763   -0.54661
  -0.54522   -0.54424   -0.54424   -0.45202   -0.31439   -0.31439   -0.31416   -0.31217
  -0.31217   -0.31207   -0.18021   -0.14515   -0.14303   -0.14172   -0.14035   -0.14035
  -0.13524   -0.13524   -0.12815   -0.09617   -0.09255   -0.09255   -0.08053   -0.08053
  -0.07277   -0.06832   -0.05644   -0.05644    0.03178    0.03178    0.03497    0.10240
   0.12298    0.13155
 prteigrs : prtvol=0 or 1, do not print more k-points.

--- !EnergyTerms
iteration_state     : {dtset: 2, }
comment             : Components of total free energy in Hartree
kinetic             :  5.00816833506898E+01
hartree             :  4.18208464827544E+01
xc                  : -6.58213199510859E+01
Ewald energy        : -1.16820275954248E+02
psp_core            :  1.01802051383118E+01
local_psp           : -1.25913811954080E+02
spherical_terms     :  3.78512291157117E+01
total_energy        : -1.68621443771947E+02
total_energy_eV     : -4.58842283350585E+03
...

--- !EnergyTermsDC
iteration_state     : {dtset: 2, }
comment             : '"Double-counting" decomposition of free energy'
band_energy         : -2.74516064692933E+01
Ewald energy        : -1.16820275954248E+02
psp_core            :  1.01802051383118E+01
xc_dc               : -6.37742974569763E+01
spherical_terms     :  2.92445297822244E+01
total_energy_dc     : -1.68621444959982E+02
total_energy_dc_eV  : -4.58842286583393E+03
...

 Cartesian components of stress tensor (hartree/bohr^3)
  sigma(1 1)=  3.07194191E-06  sigma(3 2)=  2.74421833E-14
  sigma(2 2)=  3.07194191E-06  sigma(3 1)=  2.74412925E-14
  sigma(3 3)=  3.03711092E-06  sigma(2 1)= -5.48100337E-14

-Cartesian components of stress tensor (GPa)         [Pressure= -9.0038E-02 GPa]
- sigma(1 1)=  9.03796361E-02  sigma(3 2)=  8.07376771E-10
- sigma(2 2)=  9.03796361E-02  sigma(3 1)=  8.07350564E-10
- sigma(3 3)=  8.93548731E-02  sigma(2 1)= -1.61256659E-09

== END DATASET(S) ==============================================================

 -outvars: echo values of variables after computation  --------
            acell1     1.5233602722E+01  1.5233602722E+01  1.5243697338E+01 Bohr
            acell2     1.5233602712E+01  1.5233602712E+01  1.5243697339E+01 Bohr
              amu      1.32905430E+02  1.26904470E+02  9.12240000E+01
                       7.99040000E+01
           diemac      1.20000000E+01
             ecut      1.60000000E+01 Hartree
           etotal1    -1.6862144496E+02
           etotal2    -1.6862144496E+02
            fcart1    -2.8281447656E-21  2.9799381376E-21 -2.8064032395E-05
                      -1.9546480134E-21  2.1064413854E-21 -2.8064032395E-05
                       1.0161523692E-21 -8.6435899727E-22 -8.4304928008E-06
                       1.1400768392E-21 -9.8828346723E-22  1.5776467435E-05
                       3.7492147209E-06  3.0145389712E-17  1.3156122073E-05
                       3.0146765065E-17  3.7492147209E-06  1.3156122073E-05
                      -3.0145764006E-17 -3.7492147209E-06  1.3156122073E-05
                      -3.7492147209E-06 -3.0146292326E-17  1.3156122073E-05
                       1.0911969699E-21 -9.3940359792E-22 -3.8423981362E-06
            fcart2     5.7351375052E-22 -5.0122291233E-22  2.8093017609E-05
                      -1.9411212862E-21  2.0134121244E-21  2.8093017609E-05
                       5.5125014589E-22 -4.7895930770E-22 -1.5740111008E-05
                      -5.8564370588E-22  6.5793454407E-22  8.3465622468E-06
                       3.8263259688E-06 -2.5746831522E-17 -1.3136471539E-05
                      -2.5745359727E-17  3.8263259688E-06 -1.3136471539E-05
                       2.5746371110E-17 -3.8263259688E-06 -1.3136471539E-05
                      -3.8263259688E-06  2.5745432018E-17 -1.3136471539E-05
                       1.6317083470E-22 -9.0879996514E-23  3.7533996994E-06
-          fftalg         112
           istwfk        2    0    0    0    0    0    3    0    0    0
                         0    0    0    0    0    0    0    0    0    0
                         0    0    0    0    0    0    0    0    0    0
                         0    0    0    0    0    0    0    0    0    0
                         0    0    7    0    0    0    0    0    0    0
                       outvar_i_n : Printing only first  50 k-points.
              ixc     -101130
           jdtset        1    2
              kpt      0.00000000E+00  0.00000000E+00  0.00000000E+00
                       8.33333333E-02  0.00000000E+00  0.00000000E+00
                       1.66666667E-01  0.00000000E+00  0.00000000E+00
                       2.50000000E-01  0.00000000E+00  0.00000000E+00
                       3.33333333E-01  0.00000000E+00  0.00000000E+00
                       4.16666667E-01  0.00000000E+00  0.00000000E+00
                       5.00000000E-01  0.00000000E+00  0.00000000E+00
                       8.33333333E-02  8.33333333E-02  0.00000000E+00
                       1.66666667E-01  8.33333333E-02  0.00000000E+00
                       2.50000000E-01  8.33333333E-02  0.00000000E+00
                       3.33333333E-01  8.33333333E-02  0.00000000E+00
                       4.16666667E-01  8.33333333E-02  0.00000000E+00
                       5.00000000E-01  8.33333333E-02  0.00000000E+00
                      -4.16666667E-01  8.33333333E-02  0.00000000E+00
                      -3.33333333E-01  8.33333333E-02  0.00000000E+00
                      -2.50000000E-01  8.33333333E-02  0.00000000E+00
                      -1.66666667E-01  8.33333333E-02  0.00000000E+00
                      -8.33333333E-02  8.33333333E-02  0.00000000E+00
                       1.66666667E-01  1.66666667E-01  0.00000000E+00
                       2.50000000E-01  1.66666667E-01  0.00000000E+00
                       3.33333333E-01  1.66666667E-01  0.00000000E+00
                       4.16666667E-01  1.66666667E-01  0.00000000E+00
                       5.00000000E-01  1.66666667E-01  0.00000000E+00
                      -4.16666667E-01  1.66666667E-01  0.00000000E+00
                      -3.33333333E-01  1.66666667E-01  0.00000000E+00
                      -2.50000000E-01  1.66666667E-01  0.00000000E+00
                      -1.66666667E-01  1.66666667E-01  0.00000000E+00
                       2.50000000E-01  2.50000000E-01  0.00000000E+00
                       3.33333333E-01  2.50000000E-01  0.00000000E+00
                       4.16666667E-01  2.50000000E-01  0.00000000E+00
                       5.00000000E-01  2.50000000E-01  0.00000000E+00
                      -4.16666667E-01  2.50000000E-01  0.00000000E+00
                      -3.33333333E-01  2.50000000E-01  0.00000000E+00
                      -2.50000000E-01  2.50000000E-01  0.00000000E+00
                       3.33333333E-01  3.33333333E-01  0.00000000E+00
                       4.16666667E-01  3.33333333E-01  0.00000000E+00
                       5.00000000E-01  3.33333333E-01  0.00000000E+00
                      -4.16666667E-01  3.33333333E-01  0.00000000E+00
                      -3.33333333E-01  3.33333333E-01  0.00000000E+00
                       4.16666667E-01  4.16666667E-01  0.00000000E+00
                       5.00000000E-01  4.16666667E-01  0.00000000E+00
                      -4.16666667E-01  4.16666667E-01  0.00000000E+00
                       5.00000000E-01  5.00000000E-01  0.00000000E+00
                       8.33333333E-02  0.00000000E+00  8.33333333E-02
                       1.66666667E-01  0.00000000E+00  8.33333333E-02
                       2.50000000E-01  0.00000000E+00  8.33333333E-02
                       3.33333333E-01  0.00000000E+00  8.33333333E-02
                       4.16666667E-01  0.00000000E+00  8.33333333E-02
                       5.00000000E-01  0.00000000E+00  8.33333333E-02
                      -4.16666667E-01  0.00000000E+00  8.33333333E-02
                       outvar_i_n : Printing only first  50 k-points.
         kptrlatt       12    0    0      0   12    0      0    0   12
          kptrlen1     1.82803233E+02
          kptrlen2     1.82803233E+02
P           mkmem          28
            natom           9
            nband          42
           ndtset           2
            ngfft          60      60      60
          ngfftdg          90      90      90
             nkpt         163
            nstep        2500
             nsym           8
           ntypat           4
              occ      2.000000  2.000000  2.000000  2.000000  2.000000  2.000000
                       2.000000  2.000000  2.000000  2.000000  2.000000  2.000000
                       2.000000  2.000000  2.000000  2.000000  2.000000  2.000000
                       2.000000  2.000000  2.000000  2.000000  2.000000  2.000000
                       2.000000  2.000000  2.000000  2.000000  2.000000  2.000000
                       2.000000  2.000000  2.000000  2.000000  2.000000  2.000000
                       0.000000  0.000000  0.000000  0.000000  0.000000  0.000000
        pawecutdg      4.00000000E+01 Hartree
            prtwf           0
            rprim1     0.0000000000E+00  7.0757534872E-01  7.0663790294E-01
                       7.0757534872E-01  0.0000000000E+00  7.0663790294E-01
                       7.0710678119E-01  7.0710678119E-01  0.0000000000E+00
            rprim2     0.0000000000E+00  7.0757534921E-01  7.0663790246E-01
                       7.0757534921E-01  0.0000000000E+00  7.0663790246E-01
                       7.0710678119E-01  7.0710678119E-01  0.0000000000E+00
          spgroup         107
           strten1     3.0730467479E-06  3.0730467479E-06  3.0385298478E-06
                      -3.2793012883E-14 -3.2791330464E-14  6.5497437023E-14
           strten2     3.0719419077E-06  3.0719419077E-06  3.0371109162E-06
                       2.7442183305E-14  2.7441292542E-14 -5.4810033679E-14
           symrel      1  0  0   0  1  0   0  0  1       1  0 -1   0  1 -1   0  0 -1
                       0  1 -1   1  0 -1   0  0 -1       0  1  0   1  0  0   0  0  1
                       1  0  0   1  0 -1   1 -1  0       0  1  0   0  1 -1  -1  1  0
                       0  1 -1   0  1  0  -1  1  0       1  0 -1   1  0  0   1 -1  0
           toldfe      1.00000000E-08 Hartree
            typat1     1  1  2  4  4  4  4  4  3
            typat2     1  1  4  2  4  4  4  4  3
           useylm           1
              wtk        0.00058    0.00463    0.00463    0.00463    0.00463    0.00463
                         0.00231    0.00116    0.00463    0.00463    0.00463    0.00463
                         0.00463    0.00463    0.00463    0.00463    0.00463    0.00231
                         0.00116    0.00463    0.00463    0.00463    0.00463    0.00463
                         0.00463    0.00463    0.00231    0.00116    0.00463    0.00463
                         0.00463    0.00463    0.00463    0.00231    0.00116    0.00463
                         0.00463    0.00463    0.00231    0.00116    0.00463    0.00231
                         0.00058    0.00231    0.00926    0.00926    0.00926    0.00926
                         0.00926    0.00926
                       outvars : Printing only first  50 k-points.
           xangst1     2.8519798638E+00  2.8519798638E+00  2.8221110366E+00
                       8.5559395914E+00  8.5559395914E+00  8.5185137557E+00
                       5.7039597276E+00  5.7039597276E+00  2.8575295251E+00
                       5.7039597276E+00  5.7039597276E+00  8.6975332794E+00
                       8.7651849262E+00  5.7039597276E+00  5.6832842452E+00
                       5.7039597276E+00  8.7651849262E+00  5.6832842452E+00
                       5.7039597276E+00  2.6427345290E+00  5.6832842452E+00
                       2.6427345290E+00  5.7039597276E+00  5.6832842452E+00
                      -4.6378268575E-13 -4.6378268575E-13 -5.7602824806E-02
           xangst2     2.8519798640E+00  2.8519798640E+00  2.8742916802E+00
                       8.5559395919E+00  8.5559395919E+00  8.5706943916E+00
                       5.7039597279E+00  5.7039597279E+00  2.6952721568E+00
                       5.7039597279E+00  5.7039597279E+00  8.5352758982E+00
                       8.7651849259E+00  5.7039597279E+00  5.7095211854E+00
                       5.7039597279E+00  8.7651849259E+00  5.7095211854E+00
                       5.7039597279E+00  2.6427345299E+00  5.7095211854E+00
                       2.6427345299E+00  5.7039597279E+00  5.7095211854E+00
                      -3.8811018971E-13 -3.8811018971E-13  5.7602823434E-02
            xcart1     5.3894608791E+00  5.3894608791E+00  5.3330169757E+00
                       1.6168382637E+01  1.6168382637E+01  1.6097658057E+01
                       1.0778921758E+01  1.0778921758E+01  5.3999482191E+00
                       1.0778921758E+01  1.0778921758E+01  1.6435955930E+01
                       1.6563799015E+01  1.0778921758E+01  1.0739850759E+01
                       1.0778921758E+01  1.6563799015E+01  1.0739850759E+01
                       1.0778921758E+01  4.9940445018E+00  1.0739850759E+01
                       4.9940445018E+00  1.0778921758E+01  1.0739850759E+01
                      -8.7642226124E-13 -8.7642226124E-13 -1.0885356336E-01
            xcart2     5.3894608794E+00  5.3894608794E+00  5.4316241015E+00
                       1.6168382638E+01  1.6168382638E+01  1.6196265169E+01
                       1.0778921759E+01  1.0778921759E+01  5.0933262299E+00
                       1.0778921759E+01  1.0778921759E+01  1.6129333916E+01
                       1.6563799014E+01  1.0778921759E+01  1.0789431390E+01
                       1.0778921759E+01  1.6563799014E+01  1.0789431390E+01
                       1.0778921759E+01  4.9940445034E+00  1.0789431390E+01
                       4.9940445034E+00  1.0778921759E+01  1.0789431390E+01
                      -7.3342196793E-13 -7.3342196793E-13  1.0885356077E-01
             xred1     2.4770992991E-01  2.4770992991E-01  2.5229007009E-01
                       7.4770992991E-01  7.4770992991E-01  7.5229007009E-01
                       2.5081877687E-01  2.5081877687E-01  7.4918122313E-01
                       7.6342331365E-01  7.6342331365E-01  2.3657668635E-01
                       2.3050641812E-01  7.6719064185E-01  7.6949358188E-01
                       7.6719064185E-01  2.3050641812E-01  7.6949358188E-01
                       2.3050641812E-01  7.6719064185E-01  2.3280935815E-01
                       7.6719064185E-01  2.3050641812E-01  2.3280935815E-01
                      -5.0560702646E-03 -5.0560702646E-03  5.0560702646E-03
             xred2     2.5229007022E-01  2.5229007022E-01  2.4770992978E-01
                       7.5229007022E-01  7.5229007022E-01  7.4770992978E-01
                       2.3657668649E-01  2.3657668649E-01  7.6342331351E-01
                       7.4918122283E-01  7.4918122283E-01  2.5081877717E-01
                       2.3280935822E-01  7.6949358182E-01  7.6719064178E-01
                       7.6949358182E-01  2.3280935822E-01  7.6719064178E-01
                       2.3280935822E-01  7.6949358182E-01  2.3050641818E-01
                       7.6949358182E-01  2.3280935822E-01  2.3050641818E-01
                       5.0560701509E-03  5.0560701509E-03 -5.0560701509E-03
            znucl       55.00000   53.00000   40.00000   35.00000

- Timing analysis has been suppressed with timopt=0

 Suggested references for the acknowledgment of ABINIT usage.

 Calculation completed.
.Delivered   0 WARNINGs and   0 COMMENTs to log file.