.Version 9.2.2 of ABINIT

 ABINIT is a project of the Universite Catholique de Louvain,
 Corning Inc. and other collaborators, see ~abinit/doc/developers/contributors.txt .
 acknowledgments of the ABINIT effort.

.Starting date : Mon 12 Dec 2022.
- ( at 09h08 )

- The starting date is more than 2 years after the initial release
- of this version of ABINIT, namely Nov 2020.
- Note that the use beyond 3 years after the release will not be supported.
- Action: please, switch to a more recent version of ABINIT.

- input  file    -> Cs2TiI6.in
- output file    -> Cs2TiI6.out
- root for input  files -> Cs2TiI6i
- root for output files -> Cs2TiI6o

- inpspheads : Reading pseudopotential header in XML form from
-   ../../../Psps_for_tests/ATOMICDATA/Cs.GGA_PBE-JTH.xml
- inpspheads : Reading pseudopotential header in XML form from
-   ../../../Psps_for_tests/ATOMICDATA/I.GGA_PBE-JTH.xml
- inpspheads : Reading pseudopotential header in XML form from
-   ../../../Psps_for_tests/ATOMICDATA/Zr.GGA_PBE-JTH.xml
- inpspheads : Reading pseudopotential header in XML form from
-   ../../../Psps_for_tests/ATOMICDATA/Cl.GGA_PBE-JTH.xml

 DATASET    1 : space group Im m 2 (# 44); Bravais oI (body-center ortho.)
     intxc =       0    ionmov =       0      iscf =      17    lmnmax =      18
     lnmax =       6     mgfft =      60  mpssoang =       3    mqgrid =    3532
     natom =       9  nloc_mem =       2    nspden =       1   nspinor =       1
    nsppol =       1      nsym =       4    n1xccc =       1    ntypat =       4
    occopt =       1   xclevel =       2
-    mband =          42        mffmem =           1         mkmem =          47
       mpw =        7367          nfft =      216000          nkpt =         280
Pmy_natom=         2
 PAW method is used; the additional fine FFT grid is defined by:
   mgfftf=        90    nfftf =    729000
  Rough estimation (10% accuracy) of disk space for files :

[...]

 DATASET   10 : space group Im m 2 (# 44); Bravais oI (body-center ortho.)
     intxc =       0    ionmov =       0      iscf =      17    lmnmax =      18
     lnmax =       6     mgfft =      54  mpssoang =       3    mqgrid =    3201
     natom =       9  nloc_mem =       2    nspden =       1   nspinor =       1
    nsppol =       1      nsym =       4    n1xccc =       1    ntypat =       4
    occopt =       1   xclevel =       2
-    mband =          42        mffmem =           1         mkmem =          47
       mpw =        5540          nfft =      157464          nkpt =         280
Pmy_natom=         2
 PAW method is used; the additional fine FFT grid is defined by:
   mgfftf=        80    nfftf =    512000
  Rough estimation (10% accuracy) of disk space for files :

------------- Echo of variables that govern the present computation ------------
-
- outvars: echo of selected default values
-   iomode0 =  0 , fftalg0 =112 , wfoptalg0 = 10
-
- outvars: echo of global parameters not present in the input file
-  max_nthreads =    0
-
 -outvars: echo values of preprocessed input variables --------
            acell1     1.4999264538E+01  1.5344769320E+01  1.4999264538E+01 Bohr
            acell2     1.4849864192E+01  1.5182096942E+01  1.4849864192E+01 Bohr
            acell3     1.4701097942E+01  1.5023902435E+01  1.4701097942E+01 Bohr
            acell4     1.4548849465E+01  1.4862656094E+01  1.4548849465E+01 Bohr
            acell5     1.4396909584E+01  1.4704349196E+01  1.4396909584E+01 Bohr
            acell6     1.4242119652E+01  1.4547501748E+01  1.4242119652E+01 Bohr
            acell7     1.4089479221E+01  1.4382606310E+01  1.4089479221E+01 Bohr
            acell8     1.3934675920E+01  1.4224450569E+01  1.3934675920E+01 Bohr
            acell9     1.3780173011E+01  1.4063669666E+01  1.3780173011E+01 Bohr
            acell10    1.3625420036E+01  1.3901937490E+01  1.3625420036E+01 Bohr
              amu      1.32905430E+02  1.26904470E+02  9.12240000E+01
                       3.54527000E+01
           diemac      1.20000000E+01
             ecut      1.60000000E+01 Hartree
-          fftalg         112
           istwfk        2    0    0    0    0    0    3    0    0    0
                         0    0    0    0    0    0    0    0    0    0
                         0    0    0    0    0    0    0    0    0    0
                         0    0    0    0    0    0    0    0    0    0
                         0    0    0    0    0    0    0    0    0    0
                       outvar_i_n : Printing only first  50 k-points.
              ixc     -101130
           jdtset        1    2    3    4    5    6    7    8    9   10
              kpt      0.00000000E+00  0.00000000E+00  0.00000000E+00
                       8.33333333E-02  0.00000000E+00  0.00000000E+00
                       1.66666667E-01  0.00000000E+00  0.00000000E+00
                       2.50000000E-01  0.00000000E+00  0.00000000E+00
                       3.33333333E-01  0.00000000E+00  0.00000000E+00
                       4.16666667E-01  0.00000000E+00  0.00000000E+00
                       5.00000000E-01  0.00000000E+00  0.00000000E+00
                       0.00000000E+00  8.33333333E-02  0.00000000E+00
                       8.33333333E-02  8.33333333E-02  0.00000000E+00
                       1.66666667E-01  8.33333333E-02  0.00000000E+00
                       2.50000000E-01  8.33333333E-02  0.00000000E+00
                       3.33333333E-01  8.33333333E-02  0.00000000E+00
                       4.16666667E-01  8.33333333E-02  0.00000000E+00
                       5.00000000E-01  8.33333333E-02  0.00000000E+00
                      -4.16666667E-01  8.33333333E-02  0.00000000E+00
                      -3.33333333E-01  8.33333333E-02  0.00000000E+00
                      -2.50000000E-01  8.33333333E-02  0.00000000E+00
                      -1.66666667E-01  8.33333333E-02  0.00000000E+00
                      -8.33333333E-02  8.33333333E-02  0.00000000E+00
                       0.00000000E+00  1.66666667E-01  0.00000000E+00
                       8.33333333E-02  1.66666667E-01  0.00000000E+00
                       1.66666667E-01  1.66666667E-01  0.00000000E+00
                       2.50000000E-01  1.66666667E-01  0.00000000E+00
                       3.33333333E-01  1.66666667E-01  0.00000000E+00
                       4.16666667E-01  1.66666667E-01  0.00000000E+00
                       5.00000000E-01  1.66666667E-01  0.00000000E+00
                      -4.16666667E-01  1.66666667E-01  0.00000000E+00
                      -3.33333333E-01  1.66666667E-01  0.00000000E+00
                      -2.50000000E-01  1.66666667E-01  0.00000000E+00
                      -1.66666667E-01  1.66666667E-01  0.00000000E+00
                      -8.33333333E-02  1.66666667E-01  0.00000000E+00
                       0.00000000E+00  2.50000000E-01  0.00000000E+00
                       8.33333333E-02  2.50000000E-01  0.00000000E+00
                       1.66666667E-01  2.50000000E-01  0.00000000E+00
                       2.50000000E-01  2.50000000E-01  0.00000000E+00
                       3.33333333E-01  2.50000000E-01  0.00000000E+00
                       4.16666667E-01  2.50000000E-01  0.00000000E+00
                       5.00000000E-01  2.50000000E-01  0.00000000E+00
                      -4.16666667E-01  2.50000000E-01  0.00000000E+00
                      -3.33333333E-01  2.50000000E-01  0.00000000E+00
                      -2.50000000E-01  2.50000000E-01  0.00000000E+00
                      -1.66666667E-01  2.50000000E-01  0.00000000E+00
                      -8.33333333E-02  2.50000000E-01  0.00000000E+00
                       0.00000000E+00  3.33333333E-01  0.00000000E+00
                       8.33333333E-02  3.33333333E-01  0.00000000E+00
                       1.66666667E-01  3.33333333E-01  0.00000000E+00
                       2.50000000E-01  3.33333333E-01  0.00000000E+00
                       3.33333333E-01  3.33333333E-01  0.00000000E+00
                       4.16666667E-01  3.33333333E-01  0.00000000E+00
                       5.00000000E-01  3.33333333E-01  0.00000000E+00
                       outvar_i_n : Printing only first  50 k-points.
         kptrlatt       12    0    0      0   12    0      0    0   12
          kptrlen1     1.78058435E+02
          kptrlen2     1.76242579E+02
          kptrlen3     1.74348556E+02
          kptrlen4     1.72652822E+02
          kptrlen5     1.70910729E+02
          kptrlen6     1.69288754E+02
          kptrlen7     1.67652728E+02
          kptrlen8     1.66047672E+02
          kptrlen9     1.64458356E+02
          kptrlen10    1.62893366E+02
P           mkmem          47
            natom           9
            nband          42
           ndtset          10
            ngfft1         60      60      60
            ngfft2         60      60      60
            ngfft3         60      60      60
            ngfft4         54      54      54
            ngfft5         54      54      54
            ngfft6         54      54      54
            ngfft7         54      54      54
            ngfft8         54      54      54
            ngfft9         54      54      54
            ngfft10        54      54      54
          ngfftdg1         90      90      90
          ngfftdg2         90      90      90
          ngfftdg3         90      90      90
          ngfftdg4         90      90      90
          ngfftdg5         90      90      90
          ngfftdg6         90      90      90
          ngfftdg7         90      90      90
          ngfftdg8         90      90      90
          ngfftdg9         90      90      90
          ngfftdg10        80      80      80
             nkpt         280
            nstep        2500
             nsym           4
           ntypat           4
              occ      2.000000  2.000000  2.000000  2.000000  2.000000  2.000000
                       2.000000  2.000000  2.000000  2.000000  2.000000  2.000000
                       2.000000  2.000000  2.000000  2.000000  2.000000  2.000000
                       2.000000  2.000000  2.000000  2.000000  2.000000  2.000000
                       2.000000  2.000000  2.000000  2.000000  2.000000  2.000000
                       2.000000  2.000000  2.000000  2.000000  2.000000  2.000000
                       0.000000  0.000000  0.000000  0.000000  0.000000  0.000000
        pawecutdg      4.00000000E+01 Hartree
            prtwf           0
            rprim1     1.1940469407E-02  7.0263085328E-01  7.1145436200E-01
                       7.0710678119E-01  0.0000000000E+00  7.0710678119E-01
                       7.1145436200E-01  7.0263085328E-01  1.1940469407E-02
            rprim2     1.1790348225E-02  7.0295521909E-01  7.1113637766E-01
                       7.0710678119E-01  0.0000000000E+00  7.0710678119E-01
                       7.1113637766E-01  7.0295521909E-01  1.1790348225E-02
            rprim3     1.1901019452E-02  7.0336189485E-01  7.1073230587E-01
                       7.0710678119E-01  0.0000000000E+00  7.0710678119E-01
                       7.1073230587E-01  7.0336189485E-01  1.1901019452E-02
[...]
                       8.7941836385E-02 -3.6306786751E-18 -8.7941836385E-02
           xangst7     2.7439916834E+00  2.5388928314E+00  2.6377608766E+00
                       8.1257442434E+00  7.9383321169E+00  8.0195134366E+00
                       5.2923821853E+00  5.2386124741E+00  2.8507865366E+00
                       5.4463036588E+00  5.2386124741E+00  8.1445056762E+00
                       7.9127185834E+00  5.2386124741E+00  5.4711229346E+00
                       5.4120133734E+00  8.0194797793E+00  5.3514917467E+00
                       5.4120133732E+00  2.4577451690E+00  5.3514917465E+00
                       2.6189994437E+00  5.2386124741E+00  5.3172014611E+00
                       8.9853935295E-02 -1.4320974454E-18 -8.9853935295E-02
           xangst8     2.7112427535E+00  2.5102043846E+00  2.6113303333E+00
                       8.0338158402E+00  7.8445745611E+00  7.9339034200E+00
                       5.2341877267E+00  5.1773894729E+00  2.8301236972E+00
                       5.3800574509E+00  5.1773894729E+00  8.0309291356E+00
                       7.8150224763E+00  5.1773894729E+00  5.4109584468E+00
                       5.3497894690E+00  7.9007924541E+00  5.2953567046E+00
                       5.3497894689E+00  2.4539864916E+00  5.2953567045E+00
                       2.6142170379E+00  5.1773894729E+00  5.2650887226E+00
                       9.2462470620E-02 -4.4754009168E-18 -9.2462470620E-02
           xangst9     2.6771742501E+00  2.4828745094E+00  2.5852370675E+00
                       7.9395855678E+00  7.7504139155E+00  7.8476483852E+00
                       5.1756310529E+00  5.1166442125E+00  2.8068332033E+00
                       5.3110976550E+00  5.1166442125E+00  7.9159393104E+00
                       7.7179894320E+00  5.1166442125E+00  5.3491915824E+00
                       5.2864235156E+00  7.7839403785E+00  5.2383991196E+00
                       5.2864235157E+00  2.4493480464E+00  5.2383991197E+00
                       2.6088833249E+00  5.1166442125E+00  5.2137249803E+00
                       9.6082227179E-02  2.2874310700E-18 -9.6082227179E-02
           xangst10    2.6426533055E+00  2.4563213304E+00  2.5592402915E+00
                       7.8445469026E+00  7.6546863364E+00  7.7611338886E+00
                       5.1175899327E+00  5.0555038334E+00  2.7813697390E+00
                       5.2405216487E+00  5.0555038334E+00  7.8009208624E+00
                       7.6224174551E+00  5.0555038334E+00  5.2861972615E+00
                       5.2220174528E+00  7.6671551295E+00  5.1817697414E+00
                       5.2220174528E+00  2.4438525372E+00  5.1817697413E+00
                       2.6028663318E+00  5.0555038334E+00  5.1632655454E+00
                       1.0051829453E-01 -2.2671720379E-17 -1.0051829453E-01
            xcart1     5.5166982755E+00  5.1648011935E+00  5.3336921663E+00
                       1.6367088717E+01  1.5913090888E+01  1.6184082608E+01
                       1.0709603509E+01  1.0538946041E+01  5.5400464949E+00
                       1.1058883558E+01  1.0538946041E+01  1.6706076328E+01
                       1.6160734389E+01  1.0538946041E+01  1.0991177375E+01
                       1.0913570266E+01  1.6415479609E+01  1.0787210618E+01
                       1.0913570266E+01  4.6624124723E+00  1.0787210618E+01
                       4.9947045558E+00  1.0538946041E+01  1.0641897326E+01
                       1.6826999830E-01 -3.2142541163E-18 -1.6826999830E-01
            xcart2     5.4732239486E+00  5.0899292160E+00  5.2621397517E+00
                       1.6208587649E+01  1.5787649857E+01  1.5997503452E+01
                       1.0582590239E+01  1.0438789537E+01  5.5247113537E+00
                       1.0923378791E+01  1.0438789537E+01  1.6485088749E+01
                       1.5946016047E+01  1.0438789537E+01  1.0888137162E+01
                       1.0799720831E+01  1.6215318272E+01  1.0671006570E+01
                       1.0799720831E+01  4.6622608012E+00  1.0671006570E+01
                       4.9856386511E+00  1.0438789537E+01  1.0547348609E+01
                       1.6403261508E-01 -1.2491217586E-18 -1.6403261508E-01
            xcart3     5.4216490355E+00  5.0265556514E+00  5.2018542562E+00
                       1.6045152327E+01  1.5653828558E+01  1.5825357548E+01
                       1.0461820020E+01  1.0340192105E+01  5.5089847344E+00
                       1.0805064128E+01  1.0340192105E+01  1.6264411445E+01
                       1.5738021849E+01  1.0340192105E+01  1.0785186563E+01
                       1.0685626503E+01  1.6020197397E+01  1.0561380081E+01
                       1.0685626503E+01  4.6601868131E+00  1.0561380081E+01
                       4.9825951380E+00  1.0340192105E+01  1.0441942456E+01
                       1.6247083063E-01  9.6347916636E-18 -1.6247083063E-01
            xcart4     5.3628111403E+00  4.9687502572E+00  5.1466737703E+00
                       1.5872296051E+01  1.5495135361E+01  1.5656158681E+01
                       1.0343807379E+01  1.0231942809E+01  5.4827232684E+00
                       1.0674710560E+01  1.0231942809E+01  1.6044448264E+01
                       1.5536246553E+01  1.0231942809E+01  1.0675162442E+01
                       1.0574212265E+01  1.5805867891E+01  1.0444757556E+01
                       1.0574212265E+01  4.6580177276E+00  1.0444757556E+01
                       4.9745215572E+00  1.0231942809E+01  1.0344259261E+01
                       1.6306151420E-01 -4.4088834045E-17 -1.6306151420E-01
            xcart5     5.3075916767E+00  4.9078231343E+00  5.0899533527E+00
                       1.5705136706E+01  1.5341018787E+01  1.5487498382E+01
                       1.0228208920E+01  1.0124420960E+01  5.4573396526E+00
                       1.0553281310E+01  1.0124420960E+01  1.5827165844E+01
                       1.5337750406E+01  1.0124420960E+01  1.0566881139E+01
                       1.0458450216E+01  1.5594305683E+01  1.0336639843E+01
                       1.0458450216E+01  4.6545362382E+00  1.0336639843E+01
                       4.9679242146E+00  1.0124420960E+01  1.0241808749E+01
                       1.6356657025E-01  1.3703953724E-18 -1.6356657025E-01
            xcart6     5.2477751664E+00  4.8502912971E+00  5.0388619690E+00
                       1.5534412302E+01  1.5167287340E+01  1.5325499104E+01
                       1.0116139480E+01  1.0008789319E+01  5.4249662886E+00
                       1.0426806186E+01  1.0008789319E+01  1.5613365624E+01
                       1.5148307982E+01  1.0008789319E+01  1.0457134790E+01
                       1.0346780666E+01  1.5367321354E+01  1.0226493604E+01
                       1.0346780666E+01  4.6502572833E+00  1.0226493605E+01
                       4.9599086470E+00  1.0008789319E+01  1.0146468084E+01
                       1.6618598639E-01 -6.8609883725E-18 -1.6618598639E-01
            xcart7     5.1853927925E+00  4.7978121320E+00  4.9846456608E+00
                       1.5355431246E+01  1.5001273653E+01  1.5154684114E+01
                       1.0001152921E+01  9.8995428924E+00  5.3872058175E+00
                       1.0292022352E+01  9.8995428924E+00  1.5390885216E+01
                       1.4952871089E+01  9.8995428924E+00  1.0338923986E+01
                       1.0227223103E+01  1.5154620511E+01  1.0112853804E+01
                       1.0227223103E+01  4.6444652738E+00  1.0112853803E+01
                       4.9491916908E+00  9.8995428924E+00  1.0048054555E+01
                       1.6979932967E-01 -2.7062719674E-18 -1.6979932967E-01
            xcart8     5.1235062839E+00  4.7435988244E+00  4.9346991723E+00
                       1.5181711740E+01  1.4824097550E+01  1.4992904629E+01
                       9.8911813316E+00  9.7838481870E+00  5.3481587100E+00
                       1.0166835161E+01  9.7838481870E+00  1.5176256659E+01
                       1.4768252202E+01  9.7838481870E+00  1.0225229581E+01
                       1.0109636965E+01  1.4930333971E+01  1.0006773948E+01
                       1.0109636965E+01  4.6373624029E+00  1.0006773948E+01
                       4.9401542536E+00  9.7838481870E+00  9.9495757510E+00
                       1.7472874704E-01 -8.4572820675E-18 -1.7472874704E-01
            xcart9     5.0591261428E+00  4.6919528451E+00  4.8853900462E+00
                       1.5003642332E+01  1.4646159717E+01  1.4829906235E+01
                       9.7805252549E+00  9.6690562810E+00  5.3041460549E+00
                       1.0036520033E+01  9.6690562810E+00  1.4958957381E+01
                       1.4584886323E+01  9.6690562810E+00  1.0108507123E+01
                       9.9898926669E+00  1.4709515550E+01  9.8991397108E+00
                       9.9898926672E+00  4.6285970118E+00  9.8991397110E+00
                       4.9300749968E+00  9.6690562810E+00  9.8525123450E+00
                       1.8156909561E-01  4.3226182702E-18 -1.8156909561E-01
            xcart10    4.9938910116E+00  4.6417746087E+00  4.8362632592E+00
                       1.4824045283E+01  1.4465260809E+01  1.4666417530E+01
                       9.6708434332E+00  9.5535177088E+00  5.2560270811E+00
                       9.9031507095E+00  9.5535177088E+00  1.4741604014E+01
                       1.4404281461E+01  9.5535177088E+00  9.9894651086E+00
                       9.8681828469E+00  1.4488823413E+01  9.7921256948E+00
                       9.8681828469E+00  4.6182120045E+00  9.7921256948E+00
                       4.9187045276E+00  9.5535177088E+00  9.7571578322E+00
                       1.8995204802E-01 -4.2843342478E-17 -1.8995204802E-01
             xred1     2.3631298656E-01  2.5496595326E-01  2.5375510691E-01
                       7.4624489309E-01  7.4503404674E-01  7.6368701344E-01
                       2.5364747106E-01  2.4880485136E-01  7.4635252894E-01
                       7.6911401045E-01  7.7944519759E-01  2.3088598955E-01
                       2.5364747106E-01  7.5119514864E-01  7.4635252894E-01
                       7.7277921589E-01  2.2119918131E-01  7.8482242148E-01
                       2.1517757852E-01  7.7880081869E-01  2.2722078411E-01
                       7.6911401045E-01  2.2055480241E-01  2.3088598955E-01
                      -1.6037637079E-02 -4.2231718286E-19  1.6037637079E-02
             xred2     2.3363607616E-01  2.5620117648E-01  2.5396157088E-01
                       7.4603842912E-01  7.4379882352E-01  7.6636392384E-01
                       2.5648605606E-01  2.5019822533E-01  7.4351394394E-01
                       7.6777112654E-01  7.7655048800E-01  2.3222887346E-01
                       2.5648605606E-01  7.4980177467E-01  7.4351394394E-01
                       7.7048874704E-01  2.2331424467E-01  7.8288276362E-01
                       2.1711723638E-01  7.7668575533E-01  2.2951125296E-01
                       7.6777112654E-01  2.2344951200E-01  2.3222887346E-01
                      -1.5794853907E-02 -5.7133765077E-20  1.5794853907E-02
             xred3     2.3236202321E-01  2.5694089624E-01  2.5375618431E-01
                       7.4624381569E-01  7.4305910376E-01  7.6763797679E-01
                       2.5895297348E-01  2.5167316827E-01  7.4104702652E-01
                       7.6569820349E-01  7.7403714339E-01  2.3430179651E-01
                       2.5895297348E-01  7.4832683173E-01  7.4104702652E-01
                       7.6860977577E-01  2.2534333820E-01  7.8070354783E-01
                       2.1929645217E-01  7.7465666180E-01  2.3139022423E-01
                       7.6569820349E-01  2.2596285661E-01  2.3430179651E-01
                      -1.5814420774E-02 -1.8941252644E-18  1.5814420774E-02
             xred4     2.3218341217E-01  2.5719419323E-01  2.5342820137E-01
                       7.4657179863E-01  7.4280580677E-01  7.6781658783E-01
                       2.6109474445E-01  2.5296414536E-01  7.3890525555E-01
                       7.6390379781E-01  7.7119259657E-01  2.3609620219E-01
                       2.6109474445E-01  7.4703585464E-01  7.3890525555E-01
                       7.6601638223E-01  2.2762137232E-01  7.7874087312E-01
                       2.2125912688E-01  7.7237862768E-01  2.3398361777E-01
                       7.6390379781E-01  2.2880740343E-01  2.3609620219E-01
                      -1.6027804429E-02 -1.9988911819E-18  1.6027804429E-02
             xred5     2.3157031035E-01  2.5762450251E-01  2.5318068464E-01
                       7.4681931536E-01  7.4237549750E-01  7.6842968965E-01
                       2.6313852117E-01  2.5429096620E-01  7.3686147883E-01
                       7.6183490262E-01  7.6859018543E-01  2.3816509738E-01
                       2.6313852117E-01  7.4570903380E-01  7.3686147883E-01
                       7.6408563870E-01  2.2986678726E-01  7.7618078677E-01
                       2.2381921323E-01  7.7013321274E-01  2.3591436130E-01
                       7.6183490262E-01  2.3140981457E-01  2.3816509738E-01
                      -1.6241325237E-02 -1.2942422735E-18  1.6241325237E-02
             xred6     2.3183021597E-01  2.5769840174E-01  2.5277298055E-01
                       7.4722701945E-01  7.4230159826E-01  7.6816978403E-01
                       2.6486374011E-01  2.5540264347E-01  7.3513625989E-01
                       7.5996656655E-01  7.6572812220E-01  2.4003343345E-01
                       2.6486374011E-01  7.4459735653E-01  7.3513625989E-01
                       7.6166215592E-01  2.3230868066E-01  7.7372048276E-01
                       2.2627951724E-01  7.6769131934E-01  2.3833784408E-01
                       7.5996656655E-01  2.3427187780E-01  2.4003343345E-01
                      -1.6659521910E-02 -7.8665112685E-19  1.6659521910E-02
             xred7     2.3216466927E-01  2.5767506721E-01  2.5248519630E-01
                       7.4751480370E-01  7.4232493279E-01  7.6783533073E-01
                       2.6647776727E-01  2.5655361623E-01  7.3352223273E-01
                       7.5806490923E-01  7.6267504718E-01  2.4193509077E-01
                       2.6647776727E-01  7.4344638377E-01  7.3352223273E-01
                       7.5963172835E-01  2.3457978435E-01  7.7120870294E-01
                       2.2879129706E-01  7.6542021564E-01  2.4036827165E-01
                       7.5806490923E-01  2.3732495282E-01  2.4193509077E-01
                      -1.7187851396E-02  2.3041306384E-19  1.7187851396E-02
             xred8     2.3277156874E-01  2.5758010888E-01  2.5206821350E-01
                       7.4793178650E-01  7.4241989112E-01  7.6722843126E-01
                       2.6784483128E-01  2.5755760348E-01  7.3215516872E-01
                       7.5598884042E-01  7.5982174110E-01  2.4401115958E-01
                       2.6784483128E-01  7.4244239652E-01  7.3215516872E-01
                       7.5775283036E-01  2.3699071747E-01  7.6826573470E-01
                       2.3173426530E-01  7.6300928253E-01  2.4224716964E-01
                       7.5598884042E-01  2.4017825890E-01  2.4401115958E-01
                      -1.7857794305E-02 -8.1448880395E-19  1.7857794305E-02
             xred9     2.3366326898E-01  2.5737276169E-01  2.5159120765E-01
                       7.4840879235E-01  7.4262723831E-01  7.6633673102E-01
                       2.6903978695E-01  2.5844168903E-01  7.3096021305E-01
                       7.5397472553E-01  7.5674678079E-01  2.4602527447E-01
                       2.6903978695E-01  7.4155831097E-01  7.3096021305E-01
                       7.5596654993E-01  2.3935102234E-01  7.6533140539E-01
                       2.3466859461E-01  7.6064897766E-01  2.4403345007E-01
                       7.5397472553E-01  2.4325321921E-01  2.4602527447E-01
                      -1.8736230838E-02  2.8293060013E-19  1.8736230838E-02
             xred10    2.3472437405E-01  2.5706463576E-01  2.5114635443E-01
                       7.4885364557E-01  7.4293536424E-01  7.6527562595E-01
                       2.7002771905E-01  2.5923887372E-01  7.2997228095E-01
                       7.5203996135E-01  7.5352838036E-01  2.4796003865E-01
                       2.7002771905E-01  7.4076112628E-01  7.2997228095E-01
                       7.5433593119E-01  2.4170217428E-01  7.6225972025E-01
                       2.3774027975E-01  7.5829782572E-01  2.4566406881E-01
                       7.5203996135E-01  2.4647161964E-01  2.4796003865E-01
                      -1.9789591353E-02  3.4126502102E-19  1.9789591353E-02
            znucl       55.00000   53.00000   40.00000   17.00000

- Timing analysis has been suppressed with timopt=0

 Suggested references for the acknowledgment of ABINIT usage.

 Calculation completed.
.Delivered   0 WARNINGs and   5 COMMENTs to log file.