.Version 9.2.2 of ABINIT

 ABINIT is a project of the Universite Catholique de Louvain,
 Corning Inc. and other collaborators, see ~abinit/doc/developers/contributors.txt .
 acknowledgments of the ABINIT effort.

.Starting date : Sun 27 Nov 2022.
- ( at 01h50 )

- input  file    -> Cs2TiI6.in
- output file    -> Cs2TiI6.out
- root for input  files -> Cs2TiI6i
- root for output files -> Cs2TiI6o

- inpspheads : Reading pseudopotential header in XML form from
-   ../../../Psps_for_tests/ATOMICDATA/Cs.GGA_PBE-JTH.xml
- inpspheads : Reading pseudopotential header in XML form from
-   ../../../Psps_for_tests/ATOMICDATA/I.GGA_PBE-JTH.xml
- inpspheads : Reading pseudopotential header in XML form from
-   ../../../Psps_for_tests/ATOMICDATA/Zr.GGA_PBE-JTH.xml
- inpspheads : Reading pseudopotential header in XML form from
-   ../../../Psps_for_tests/ATOMICDATA/Br.GGA_PBE-JTH.xml

 DATASET    1 : space group I4 m m (#107); Bravais tI (body-center tetrag.)
     intxc =       0    ionmov =       2      iscf =      17    lmnmax =      18
     lnmax =       6     mgfft =      60  mpssoang =       3    mqgrid =    3785
     natom =       9  nloc_mem =       2    nspden =       1   nspinor =       1
    nsppol =       1      nsym =       8    n1xccc =       1    ntypat =       4
    occopt =       1   xclevel =       2
-    mband =          42        mffmem =           1         mkmem =           4
       mpw =        9369          nfft =      216000          nkpt =          20
Pmy_natom=         2
 PAW method is used; the additional fine FFT grid is defined by:
   mgfftf=        96    nfftf =    884736
  Rough estimation (10% accuracy) of disk space for files :

[...]

 DATASET   13 : space group I4 m m (#107); Bravais tI (body-center tetrag.)
     intxc =       0    ionmov =       2      iscf =      17    lmnmax =      18
     lnmax =       6     mgfft =      60  mpssoang =       3    mqgrid =    3751
     natom =       9  nloc_mem =       2    nspden =       1   nspinor =       1
    nsppol =       1      nsym =       8    n1xccc =       1    ntypat =       4
    occopt =       1   xclevel =       2
-    mband =          42        mffmem =           1         mkmem =           4
       mpw =        9104          nfft =      216000          nkpt =          20
Pmy_natom=         2
 PAW method is used; the additional fine FFT grid is defined by:
   mgfftf=        96    nfftf =    884736
  Rough estimation (10% accuracy) of disk space for files :

------------- Echo of variables that govern the present computation ------------
-
- outvars: echo of selected default values
-   iomode0 =  0 , fftalg0 =112 , wfoptalg0 = 10
-
- outvars: echo of global parameters not present in the input file
-  max_nthreads =    0
-
 -outvars: echo values of preprocessed input variables --------
            acell1     1.4155877206E+01  1.4155877206E+01  1.4156859666E+01 Bohr
            acell2     1.4141707158E+01  1.4141707158E+01  1.4142688636E+01 Bohr
            acell3     1.4127537111E+01  1.4127537111E+01  1.4128517605E+01 Bohr
            acell4     1.4113367064E+01  1.4113367064E+01  1.4114346574E+01 Bohr
            acell5     1.4099197017E+01  1.4099197017E+01  1.4100175544E+01 Bohr
            acell6     1.4085026969E+01  1.4085026969E+01  1.4086004513E+01 Bohr
            acell7     1.4070856922E+01  1.4070856922E+01  1.4071833482E+01 Bohr
            acell8     1.4063771899E+01  1.4063771899E+01  1.4064747967E+01 Bohr
            acell9     1.4056686875E+01  1.4056686875E+01  1.4057662451E+01 Bohr
            acell10    1.4049601851E+01  1.4049601851E+01  1.4050576936E+01 Bohr
            acell11    1.4042516828E+01  1.4042516828E+01  1.4043491421E+01 Bohr
            acell12    1.4035431804E+01  1.4035431804E+01  1.4036405905E+01 Bohr
            acell13    1.4028346780E+01  1.4028346780E+01  1.4029320390E+01 Bohr
              amu      1.32905430E+02  1.26904470E+02  9.12240000E+01
                       7.99040000E+01
           diemac      1.20000000E+01
          dilatmx      1.15000000E+00
             ecut      1.60000000E+01 Hartree
           ecutsm      5.00000000E-01 Hartree
-          fftalg         112
          getxred1          0
          getxred2         -1
          getxred3         -1
          getxred4         -1
          getxred5         -1
          getxred6         -1
          getxred7         -1
          getxred8         -1
          getxred9         -1
          getxred10        -1
          getxred11        -1
          getxred12        -1
          getxred13        -1
           ionmov           2
              ixc     -101130
           jdtset        1    2    3    4    5    6    7    8    9   10
                        11   12   13
              kpt     -1.25000000E-01 -2.50000000E-01  0.00000000E+00
                      -1.25000000E-01  5.00000000E-01  0.00000000E+00
                      -2.50000000E-01 -3.75000000E-01  0.00000000E+00
                      -1.25000000E-01 -3.75000000E-01  1.25000000E-01
                      -1.25000000E-01  2.50000000E-01  0.00000000E+00
                      -2.50000000E-01  3.75000000E-01  0.00000000E+00
                      -1.25000000E-01  3.75000000E-01  1.25000000E-01
                      -3.75000000E-01  5.00000000E-01  0.00000000E+00
                      -2.50000000E-01  5.00000000E-01  1.25000000E-01
                      -1.25000000E-01  5.00000000E-01  2.50000000E-01
                      -1.25000000E-01  0.00000000E+00  0.00000000E+00
                      -1.25000000E-01  1.25000000E-01  1.25000000E-01
                      -1.25000000E-01  2.50000000E-01  2.50000000E-01
                      -1.25000000E-01  3.75000000E-01  3.75000000E-01
                      -3.75000000E-01  0.00000000E+00  0.00000000E+00
                      -2.50000000E-01  0.00000000E+00  1.25000000E-01
                      -3.75000000E-01  1.25000000E-01  1.25000000E-01
                      -2.50000000E-01  1.25000000E-01  2.50000000E-01
                      -3.75000000E-01  2.50000000E-01  2.50000000E-01
                      -2.50000000E-01  2.50000000E-01  3.75000000E-01
         kptrlatt        4   -4    4     -4    4    4     -4   -4    4
          kptrlen1     8.00721761E+01
          kptrlen2     7.99920238E+01
          kptrlen3     7.99118715E+01
          kptrlen4     7.98317191E+01
          kptrlen5     7.97515668E+01
          kptrlen6     7.96714145E+01
          kptrlen7     7.95912621E+01
          kptrlen8     7.95511860E+01
          kptrlen9     7.95111098E+01
          kptrlen10    7.94710336E+01
          kptrlen11    7.94309575E+01
          kptrlen12    7.93908813E+01
          kptrlen13    7.93508052E+01
P           mkmem           4
            natom           9
            nband          42
           ndtset          13
            ngfft          60      60      60
          ngfftdg          96      96      96
             nkpt          20
            nstep        2500
             nsym           8
            ntime        1000
           ntypat           4
              occ      2.000000  2.000000  2.000000  2.000000  2.000000  2.000000
                       2.000000  2.000000  2.000000  2.000000  2.000000  2.000000
                       2.000000  2.000000  2.000000  2.000000  2.000000  2.000000
                       2.000000  2.000000  2.000000  2.000000  2.000000  2.000000
                       2.000000  2.000000  2.000000  2.000000  2.000000  2.000000
                       2.000000  2.000000  2.000000  2.000000  2.000000  2.000000
                       0.000000  0.000000  0.000000  0.000000  0.000000  0.000000
          optcell           3
        optforces           1
        pawecutdg      4.00000000E+01 Hartree
            prtwf           0
            rprim      0.0000000000E+00  7.0715585650E-01  7.0705770247E-01
                       7.0715585650E-01  0.0000000000E+00  7.0705770247E-01
                       7.0710678119E-01  7.0710678119E-01  0.0000000000E+00
           shiftk      5.00000000E-01  5.00000000E-01  5.00000000E-01
          spgroup         107
           symrel      1  0  0   0  1  0   0  0  1       1  0 -1   0  1 -1   0  0 -1
                       0  1 -1   1  0 -1   0  0 -1       0  1  0   1  0  0   0  0  1
                       1  0  0   1  0 -1   1 -1  0       0  1  0   0  1 -1  -1  1  0
                       0  1 -1   0  1  0  -1  1  0       1  0 -1   1  0  0   1 -1  0
           toldff      1.00000000E-08
           tolmxf      1.00000000E-05
            typat      1  1  4  2  4  4  4  4  3
           useylm           1
              wtk        0.03125    0.03125    0.03125    0.06250    0.03125    0.03125
                         0.06250    0.03125    0.06250    0.06250    0.03125    0.06250
                         0.06250    0.06250    0.03125    0.06250    0.06250    0.06250
                         0.06250    0.06250
           xangst1     2.6486407993E+00  2.6486407993E+00  2.6697371248E+00
                       7.9459223979E+00  7.9459223979E+00  7.9662834546E+00
                       5.2972815987E+00  5.2972815987E+00  2.6756778654E+00
                       5.2972815986E+00  5.2972815986E+00  7.8136973187E+00
                       7.9821108762E+00  5.2972815987E+00  5.2955250293E+00
                       5.2972815987E+00  7.9821108762E+00  5.2955250293E+00
                       5.2972815986E+00  2.6124523210E+00  5.2955250293E+00
                       2.6124523210E+00  5.2972815986E+00  5.2955250293E+00
                      -1.4882015031E-12 -1.4882015031E-12  6.4874757931E-02
           xangst2     2.6459895072E+00  2.6459895072E+00  2.6670647152E+00
                       7.9379685217E+00  7.9379685217E+00  7.9583091969E+00
                       5.2919790145E+00  5.2919790145E+00  2.6729995092E+00
                       5.2919790144E+00  5.2919790144E+00  7.8058757999E+00
                       7.9741207753E+00  5.2919790145E+00  5.2902242035E+00
                       5.2919790145E+00  7.9741207753E+00  5.2902242035E+00
                       5.2919790144E+00  2.6098372536E+00  5.2902242035E+00
                       2.6098372536E+00  5.2919790144E+00  5.2902242035E+00
                      -1.4867088688E-12 -1.4867088688E-12  6.4809818233E-02
           xangst3     2.6433382151E+00  2.6433382151E+00  2.6643923057E+00
                       7.9300146454E+00  7.9300146454E+00  7.9503349392E+00
                       5.2866764303E+00  5.2866764303E+00  2.6703211530E+00
                       5.2866764302E+00  5.2866764302E+00  7.7980542811E+00
                       7.9661306743E+00  5.2866764303E+00  5.2849233776E+00
                       5.2866764303E+00  7.9661306743E+00  5.2849233776E+00
                       5.2866764302E+00  2.6072221862E+00  5.2849233776E+00
                       2.6072221862E+00  5.2866764302E+00  5.2849233776E+00
                      -1.4852229043E-12 -1.4852229043E-12  6.4744878535E-02
           xangst4     2.6406869230E+00  2.6406869230E+00  2.6617198961E+00
                       7.9220607691E+00  7.9220607691E+00  7.9423606815E+00
                       5.2813738461E+00  5.2813738461E+00  2.6676427968E+00
[...]
                      -2.8296284193E-12 -2.8296353582E-12  1.2335639185E-01
            xcart3     4.9948713018E+00  4.9948713018E+00  5.0355695050E+00
                       1.4984613905E+01  1.4984613905E+01  1.5025809386E+01
                       9.9897426037E+00  9.9897426037E+00  5.0588355095E+00
                       9.9897426035E+00  9.9897426035E+00  1.4730928611E+01
                       1.5041725214E+01  9.9897426037E+00  9.9867701253E+00
                       9.9897426037E+00  1.5041725214E+01  9.9867701253E+00
                       9.9897426035E+00  4.9377599936E+00  9.9867701253E+00
                       4.9377599936E+00  9.9897426035E+00  9.9867701253E+00
                      -2.8367038260E-12 -2.8367038260E-12  1.2369553612E-01
            xcart4     4.9898341956E+00  4.9898341956E+00  5.0303189994E+00
                       1.4969502587E+01  1.4969502587E+01  1.5010647407E+01
                       9.9796683913E+00  9.9796683913E+00  5.0581293434E+00
                       9.9796683911E+00  9.9796683911E+00  1.4714003934E+01
                       1.5022872184E+01  9.9796683913E+00  9.9763369840E+00
                       9.9796683913E+00  1.5022872184E+01  9.9763369840E+00
                       9.9796683911E+00  4.9364645983E+00  9.9763369840E+00
                       4.9364645983E+00  9.9796683911E+00  9.9763369840E+00
                      -2.8483506206E-12 -2.8483644983E-12  1.2417963914E-01
            xcart5     4.9841247852E+00  4.9841247852E+00  5.0255545065E+00
                       1.4952374356E+01  1.4952374356E+01  1.4998661425E+01
                       9.9682495705E+00  9.9682495705E+00  5.0573606411E+00
                       9.9682495703E+00  9.9682495703E+00  1.4702535011E+01
                       1.5001282553E+01  9.9682495705E+00  9.9689845289E+00
                       9.9682495705E+00  1.5001282553E+01  9.9689845289E+00
                       9.9682495702E+00  4.9352165878E+00  9.9689845289E+00
                       4.9352165878E+00  9.9682495702E+00  9.9689845289E+00
                      -2.8617265411E-12 -2.8625453306E-12  1.2480564837E-01
            xcart6     4.9786394491E+00  4.9786394491E+00  5.0207224633E+00
                       1.4935918347E+01  1.4935918347E+01  1.4985712022E+01
                       9.9572788983E+00  9.9572788983E+00  5.0566953857E+00
                       9.9572788981E+00  9.9572788981E+00  1.4689048567E+01
                       1.4980550124E+01  9.9572788983E+00  9.9606295743E+00
                       9.9572788983E+00  1.4980550124E+01  9.9606295743E+00
                       9.9572788981E+00  4.9340076729E+00  9.9606295743E+00
                       4.9340076729E+00  9.9572788981E+00  9.9606295743E+00
                      -2.8721368492E-12 -2.8721229714E-12  1.2521973403E-01
            xcart7     4.9743118760E+00  4.9743118760E+00  5.0148613241E+00
                       1.4922935628E+01  1.4922935628E+01  1.4967099719E+01
                       9.9486237520E+00  9.9486237520E+00  5.0562860820E+00
                       9.9486237518E+00  9.9486237518E+00  1.4666694043E+01
                       1.4964527679E+01  9.9486237520E+00  9.9467704620E+00
                       9.9486237520E+00  1.4964527679E+01  9.9467704620E+00
                       9.9486237518E+00  4.9327198250E+00  9.9467704620E+00
                       4.9327198250E+00  9.9486237518E+00  9.9467704620E+00
                      -2.8870035947E-12 -2.8870174725E-12  1.2588414144E-01
            xcart8     4.9715805882E+00  4.9715805882E+00  5.0123414662E+00
                       1.4914741765E+01  1.4914741765E+01  1.4960475450E+01
                       9.9431611766E+00  9.9431611766E+00  5.0560701376E+00
                       9.9431611764E+00  9.9431611764E+00  1.4660132311E+01
                       1.4954254248E+01  9.9431611766E+00  9.9424146479E+00
                       9.9431611766E+00  1.4954254248E+01  9.9424146479E+00
                       9.9431611764E+00  4.9320681050E+00  9.9424146479E+00
                       4.9320681050E+00  9.9431611764E+00  9.9424146479E+00
                      -2.8971059865E-12 -2.8959957635E-12  1.2639391748E-01
            xcart9     4.9687578705E+00  4.9687578705E+00  5.0107850780E+00
                       1.4906273611E+01  1.4906273611E+01  1.4955180739E+01
                       9.9375157410E+00  9.9375157410E+00  5.0554164087E+00
                       9.9375157408E+00  9.9375157408E+00  1.4653644719E+01
                       1.4943731173E+01  9.9375157411E+00  9.9384866281E+00
                       9.9375157411E+00  1.4943731173E+01  9.9384866281E+00
                       9.9375157408E+00  4.9313003092E+00  9.9384866281E+00
                       4.9313003092E+00  9.9375157408E+00  9.9384866281E+00
                      -2.8930300077E-12 -2.8938626749E-12  1.2619183255E-01
            xcart10    4.9660371749E+00  4.9660371749E+00  5.0086753709E+00
                       1.4898111525E+01  1.4898111525E+01  1.4948924517E+01
                       9.9320743498E+00  9.9320743498E+00  5.0545625191E+00
                       9.9320743496E+00  9.9320743496E+00  1.4646792886E+01
                       1.4933497432E+01  9.9320743498E+00  9.9341915054E+00
                       9.9320743498E+00  1.4933497432E+01  9.9341915054E+00
                       9.9320743496E+00  4.9306512674E+00  9.9341915054E+00
                       4.9306512674E+00  9.9320743496E+00  9.9341915054E+00
                      -2.8952172148E-12 -2.8952172148E-12  1.2627185355E-01
            xcart11    4.9636179797E+00  4.9636179797E+00  5.0059096076E+00
                       1.4890853939E+01  1.4890853939E+01  1.4940805309E+01
                       9.9272359595E+00  9.9272359595E+00  5.0543361006E+00
                       9.9272359593E+00  9.9272359593E+00  1.4637510909E+01
                       1.4924543048E+01  9.9272359595E+00  9.9284985212E+00
                       9.9272359595E+00  1.4924543048E+01  9.9284985212E+00
                       9.9272359593E+00  4.9299288707E+00  9.9284985212E+00
                       4.9299288707E+00  9.9272359593E+00  9.9284985212E+00
                      -2.9017445477E-12 -2.9017584255E-12  1.2660960269E-01
            xcart12    4.9609249559E+00  4.9609249559E+00  5.0034425261E+00
                       1.4882774868E+01  1.4882774868E+01  1.4934080995E+01
                       9.9218499119E+00  9.9218499119E+00  5.0540359372E+00
                       9.9218499117E+00  9.9218499117E+00  1.4630508405E+01
                       1.4914425224E+01  9.9218499119E+00  9.9240394056E+00
                       9.9218499119E+00  1.4914425224E+01  9.9240394056E+00
                       9.9218499117E+00  4.9292745998E+00  9.9240394056E+00
                       4.9292745998E+00  9.9218499117E+00  9.9240394056E+00
                      -2.9069603466E-12 -2.9069603466E-12  1.2688226624E-01
            xcart13    4.9582749691E+00  4.9582749691E+00  5.0007240439E+00
                       1.4874824907E+01  1.4874824907E+01  1.4926933048E+01
                       9.9165499383E+00  9.9165499383E+00  5.0536943154E+00
                       9.9165499380E+00  9.9165499380E+00  1.4623191547E+01
                       1.4904535876E+01  9.9165499383E+00  9.9194812734E+00
                       9.9165499383E+00  1.4904535876E+01  9.9194812734E+00
                       9.9165499380E+00  4.9285640003E+00  9.9194812734E+00
                       4.9285640003E+00  9.9165499380E+00  9.9194812734E+00
                      -2.9152366915E-12 -2.9153199582E-12  1.2720398773E-01
             xred1     2.5203510860E-01  2.5203510860E-01  2.4796489140E-01
                       7.5203510860E-01  7.5203510860E-01  7.4796489140E-01
                       2.5276467033E-01  2.5276467033E-01  7.4723532967E-01
                       7.3751840098E-01  7.3751840098E-01  2.6248159902E-01
                       2.4665605449E-01  7.5309625326E-01  7.5334394551E-01
                       7.5309625326E-01  2.4665605449E-01  7.5334394551E-01
                       2.4665605449E-01  7.5309625326E-01  2.4690374674E-01
                       7.5309625326E-01  2.4665605449E-01  2.4690374674E-01
                       6.1420960096E-03  6.1420960096E-03 -6.1420960096E-03
             xred2     2.5205896392E-01  2.5205896392E-01  2.4794103608E-01
                       7.5205896392E-01  7.5205896392E-01  7.4794103608E-01
                       2.5300038274E-01  2.5300038274E-01  7.4699961726E-01
                       7.3736733927E-01  7.3736733927E-01  2.6263266073E-01
                       2.4678702149E-01  7.5288609799E-01  7.5321297851E-01
                       7.5288609799E-01  2.4678702149E-01  7.5321297851E-01
                       2.4678702149E-01  7.5288609799E-01  2.4711390201E-01
                       7.5288609799E-01  2.4678702149E-01  2.4711390201E-01
                       6.1681111808E-03  6.1681111808E-03 -6.1681111808E-03
             xred3     2.5202445411E-01  2.5202445411E-01  2.4797554589E-01
                       7.5202445411E-01  7.5202445411E-01  7.4797554589E-01
                       2.5318889084E-01  2.5318889084E-01  7.4681110916E-01
                       7.3726601094E-01  7.3726601094E-01  2.6273398906E-01
                       2.4696784524E-01  7.5268484020E-01  7.5303215476E-01
                       7.5268484020E-01  2.4696784524E-01  7.5303215476E-01
                       2.4696784524E-01  7.5268484020E-01  2.4731515980E-01
                       7.5268484020E-01  2.4696784524E-01  2.4731515980E-01
                       6.1908191192E-03  6.1908191192E-03 -6.1908191192E-03
             xred4     2.5201169712E-01  2.5201169712E-01  2.4798830288E-01
                       7.5201169712E-01  7.5201169712E-01  7.4798830288E-01
                       2.5340495508E-01  2.5340495508E-01  7.4659504492E-01
                       7.3715028872E-01  7.3715028872E-01  2.6284971128E-01
                       2.4712611910E-01  7.5247395184E-01  7.5287388090E-01
                       7.5247395184E-01  2.4712611910E-01  7.5287388090E-01
                       2.4712611910E-01  7.5247395184E-01  2.4752604816E-01
                       7.5247395184E-01  2.4712611910E-01  2.4752604816E-01
                       6.2212200878E-03  6.2212200878E-03 -6.2212200878E-03
             xred5     2.5195531080E-01  2.5195531080E-01  2.4804468920E-01
                       7.5195531080E-01  7.5195531080E-01  7.4804468920E-01
                       2.5354990589E-01  2.5354990589E-01  7.4645009411E-01
                       7.3710906397E-01  7.3710906397E-01  2.6289093603E-01
                       2.4734012583E-01  7.5224652359E-01  7.5265987417E-01
                       7.5224652359E-01  2.4734012583E-01  7.5265987417E-01
                       2.4734012583E-01  7.5224652359E-01  2.4775347641E-01
                       7.5224652359E-01  2.4734012583E-01  2.4775347641E-01
                       6.2571097146E-03  6.2571097146E-03 -6.2571097146E-03
             xred6     2.5191809955E-01  2.5191809955E-01  2.4808190045E-01
                       7.5191809955E-01  7.5191809955E-01  7.4808190045E-01
                       2.5372306494E-01  2.5372306494E-01  7.4627693506E-01
                       7.3703281275E-01  7.3703281275E-01  2.6296718725E-01
                       2.4754007157E-01  7.5202239818E-01  7.5245992843E-01
                       7.5202239818E-01  2.4754007157E-01  7.5245992843E-01
                       2.4754007157E-01  7.5202239818E-01  2.4797760182E-01
                       7.5202239818E-01  2.4754007157E-01  2.4797760182E-01
                       6.2829837047E-03  6.2829837047E-03 -6.2829837047E-03
             xred7     2.5194640267E-01  2.5194640267E-01  2.4805359733E-01
                       7.5194640267E-01  7.5194640267E-01  7.4805359733E-01
                       2.5402758061E-01  2.5402758061E-01  7.4597241939E-01
                       7.3685403532E-01  7.3685403532E-01  2.6314596468E-01
                       2.4763494937E-01  7.5181563325E-01  7.5236505063E-01
                       7.5181563325E-01  2.4763494937E-01  7.5236505063E-01
                       2.4763494937E-01  7.5181563325E-01  2.4818436675E-01
                       7.5181563325E-01  2.4763494937E-01  2.4818436675E-01
                       6.3244134863E-03  6.3244134863E-03 -6.3244134863E-03
             xred8     2.5192370117E-01  2.5192370117E-01  2.4807629883E-01
                       7.5192370117E-01  7.5192370117E-01  7.4807629883E-01
                       2.5412153403E-01  2.5412153403E-01  7.4587846597E-01
                       7.3682825011E-01  7.3682825011E-01  2.6317174989E-01
                       2.4772562468E-01  7.5169945982E-01  7.5227437532E-01
                       7.5169945982E-01  2.4772562468E-01  7.5227437532E-01
                       2.4772562468E-01  7.5169945982E-01  2.4830054018E-01
                       7.5169945982E-01  2.4772562468E-01  2.4830054018E-01
                       6.3526445099E-03  6.3526445099E-03 -6.3526445099E-03
             xred9     2.5194015045E-01  2.5194015045E-01  2.4805984955E-01
                       7.5194015045E-01  7.5194015045E-01  7.4805984955E-01
                       2.5418419484E-01  2.5418419484E-01  7.4581580516E-01
                       7.3677904712E-01  7.3677904712E-01  2.6322095288E-01
                       2.4781824214E-01  7.5158755050E-01  7.5218175786E-01
                       7.5158755050E-01  2.4781824214E-01  7.5218175786E-01
                       2.4781824214E-01  7.5158755050E-01  2.4841244950E-01
                       7.5158755050E-01  2.4781824214E-01  2.4841244950E-01
                       6.3448718677E-03  6.3448718677E-03 -6.3448718677E-03
             xred10    2.5193912634E-01  2.5193912634E-01  2.4806087366E-01
                       7.5193912634E-01  7.5193912634E-01  7.4806087366E-01
                       2.5424727514E-01  2.5424727514E-01  7.4575272486E-01
                       7.3674173910E-01  7.3674173910E-01  2.6325826090E-01
                       2.4791390173E-01  7.5147669296E-01  7.5208609827E-01
                       7.5147669296E-01  2.4791390173E-01  7.5208609827E-01
                       2.4791390173E-01  7.5147669296E-01  2.4852330704E-01
                       7.5147669296E-01  2.4791390173E-01  2.4852330704E-01
                       6.3515436937E-03  6.3515436937E-03 -6.3515436937E-03
             xred11    2.5193569001E-01  2.5193569001E-01  2.4806430999E-01
                       7.5193569001E-01  7.5193569001E-01  7.4806430999E-01
                       2.5437288183E-01  2.5437288183E-01  7.4562711817E-01
                       7.3667159416E-01  7.3667159416E-01  2.6332840584E-01
                       2.4798124284E-01  7.5137484697E-01  7.5201875716E-01
                       7.5137484697E-01  2.4798124284E-01  7.5201875716E-01
                       2.4798124284E-01  7.5137484697E-01  2.4862515303E-01
                       7.5137484697E-01  2.4798124284E-01  2.4862515303E-01
                       6.3719643612E-03  6.3719643612E-03 -6.3719643612E-03
             xred12    2.5191947838E-01  2.5191947838E-01  2.4808052162E-01
                       7.5191947838E-01  7.5191947838E-01  7.4808052162E-01
                       2.5446681767E-01  2.5446681767E-01  7.4553318233E-01
                       7.3663483221E-01  7.3663483221E-01  2.6336516779E-01
                       2.4807275964E-01  7.5126272485E-01  7.5192724036E-01
                       7.5126272485E-01  2.4807275964E-01  7.5192724036E-01
                       2.4807275964E-01  7.5126272485E-01  2.4873727515E-01
                       7.5126272485E-01  2.4807275964E-01  2.4873727515E-01
                       6.3884244018E-03  6.3884244018E-03 -6.3884244018E-03
             xred13    2.5189496018E-01  2.5189496018E-01  2.4810503982E-01
                       7.5189496018E-01  7.5189496018E-01  7.4810503982E-01
                       2.5456316269E-01  2.5456316269E-01  7.4543683731E-01
                       7.3659498508E-01  7.3659498508E-01  2.6340501492E-01
                       2.4816306309E-01  7.5115916243E-01  7.5183693691E-01
                       7.5115916243E-01  2.4816306309E-01  7.5183693691E-01
                       2.4816306309E-01  7.5115916243E-01  2.4884083757E-01
                       7.5115916243E-01  2.4816306309E-01  2.4884083757E-01
                       6.4074808255E-03  6.4074808255E-03 -6.4074808255E-03
            znucl       55.00000   53.00000   40.00000   35.00000

- Timing analysis has been suppressed with timopt=0

 Suggested references for the acknowledgment of ABINIT usage.

 Calculation completed.
.Delivered   0 WARNINGs and 190 COMMENTs to log file.