.Version 9.2.2 of ABINIT

 ABINIT is a project of the Universite Catholique de Louvain,
 Corning Inc. and other collaborators, see ~abinit/doc/developers/contributors.txt .
 acknowledgments of the ABINIT effort.

.Starting date : Wed 26 Oct 2022.
- ( at 15h30 )

- input  file    -> Cs2TiI6.in
- output file    -> Cs2TiI6.out
- root for input  files -> Cs2TiI6i
- root for output files -> Cs2TiI6o

- inpspheads : Reading pseudopotential header in XML form from
-   ../../../Psps_for_tests/ATOMICDATA/Cs.GGA_PBE-JTH.xml
- inpspheads : Reading pseudopotential header in XML form from
-   ../../../Psps_for_tests/ATOMICDATA/I.GGA_PBE-JTH.xml
- inpspheads : Reading pseudopotential header in XML form from
-   ../../../Psps_for_tests/ATOMICDATA/Hf.GGA_PBE-JTH.xml
- inpspheads : Reading pseudopotential header in XML form from
-   ../../../Psps_for_tests/ATOMICDATA/Cl.GGA_PBE-JTH.xml

 DATASET    1 : space group I4 m m (#107); Bravais tI (body-center tetrag.)
     intxc =       0    ionmov =       0      iscf =      17    lmnmax =      18
     lnmax =       6     mgfft =      54  mpssoang =       3    mqgrid =    3405
     natom =       9  nloc_mem =       2    nspden =       1   nspinor =       1
    nsppol =       1      nsym =       8    n1xccc =       1    ntypat =       4
    occopt =       1   xclevel =       2
-    mband =          42        mffmem =           1         mkmem =          41
       mpw =        6833          nfft =      157464          nkpt =         163
Pmy_natom=         3
 PAW method is used; the additional fine FFT grid is defined by:
   mgfftf=        90    nfftf =    729000
  Rough estimation (10% accuracy) of disk space for files :

[...]

 DATASET   10 : space group I4 m m (#107); Bravais tI (body-center tetrag.)
     intxc =       0    ionmov =       0      iscf =      17    lmnmax =      18
     lnmax =       6     mgfft =      50  mpssoang =       3    mqgrid =    3095
     natom =       9  nloc_mem =       2    nspden =       1   nspinor =       1
    nsppol =       1      nsym =       8    n1xccc =       1    ntypat =       4
    occopt =       1   xclevel =       2
-    mband =          42        mffmem =           1         mkmem =          41
       mpw =        5140          nfft =      125000          nkpt =         163
Pmy_natom=         3
 PAW method is used; the additional fine FFT grid is defined by:
   mgfftf=        80    nfftf =    512000
  Rough estimation (10% accuracy) of disk space for files :

------------- Echo of variables that govern the present computation ------------
-
- outvars: echo of selected default values
-   iomode0 =  0 , fftalg0 =112 , wfoptalg0 = 10
-
- outvars: echo of global parameters not present in the input file
-  max_nthreads =    0
-
 -outvars: echo values of preprocessed input variables --------
            acell1     1.4587718699E+01  1.4771370105E+01  1.4587718699E+01 Bohr
            acell2     1.4433016377E+01  1.4638377990E+01  1.4433016377E+01 Bohr
            acell3     1.4277239678E+01  1.4508013379E+01  1.4277239678E+01 Bohr
            acell4     1.4123819821E+01  1.4372562829E+01  1.4123819821E+01 Bohr
            acell5     1.3969209267E+01  1.4240024632E+01  1.3969209267E+01 Bohr
            acell6     1.3819655799E+01  1.4095939928E+01  1.3819655799E+01 Bohr
            acell7     1.3672704657E+01  1.3945828833E+01  1.3672704657E+01 Bohr
            acell8     1.3527063728E+01  1.3792681182E+01  1.3527063728E+01 Bohr
            acell9     1.3381590117E+01  1.3639156137E+01  1.3381590117E+01 Bohr
            acell10    1.3239947130E+01  1.3476863724E+01  1.3239947130E+01 Bohr
              amu      1.32905430E+02  1.26904470E+02  1.78490000E+02
                       3.54527000E+01
           diemac      1.20000000E+01
             ecut      1.60000000E+01 Hartree
-          fftalg         112
           istwfk        2    0    0    0    0    0    3    0    0    0
                         0    0    0    0    0    0    0    0    0    0
                         0    0    0    0    0    0    0    0    0    0
                         0    0    0    0    0    0    0    0    0    0
                         0    0    7    0    0    0    0    0    0    0
                       outvar_i_n : Printing only first  50 k-points.
              ixc     -101130
           jdtset        1    2    3    4    5    6    7    8    9   10
              kpt      0.00000000E+00  0.00000000E+00  0.00000000E+00
                       8.33333333E-02  0.00000000E+00  0.00000000E+00
                       1.66666667E-01  0.00000000E+00  0.00000000E+00
                       2.50000000E-01  0.00000000E+00  0.00000000E+00
                       3.33333333E-01  0.00000000E+00  0.00000000E+00
                       4.16666667E-01  0.00000000E+00  0.00000000E+00
                       5.00000000E-01  0.00000000E+00  0.00000000E+00
                       8.33333333E-02  8.33333333E-02  0.00000000E+00
                       1.66666667E-01  8.33333333E-02  0.00000000E+00
                       2.50000000E-01  8.33333333E-02  0.00000000E+00
                       3.33333333E-01  8.33333333E-02  0.00000000E+00
                       4.16666667E-01  8.33333333E-02  0.00000000E+00
                       5.00000000E-01  8.33333333E-02  0.00000000E+00
                      -4.16666667E-01  8.33333333E-02  0.00000000E+00
                      -3.33333333E-01  8.33333333E-02  0.00000000E+00
                      -2.50000000E-01  8.33333333E-02  0.00000000E+00
                      -1.66666667E-01  8.33333333E-02  0.00000000E+00
                      -8.33333333E-02  8.33333333E-02  0.00000000E+00
                       1.66666667E-01  1.66666667E-01  0.00000000E+00
                       2.50000000E-01  1.66666667E-01  0.00000000E+00
                       3.33333333E-01  1.66666667E-01  0.00000000E+00
                       4.16666667E-01  1.66666667E-01  0.00000000E+00
                       5.00000000E-01  1.66666667E-01  0.00000000E+00
                      -4.16666667E-01  1.66666667E-01  0.00000000E+00
                      -3.33333333E-01  1.66666667E-01  0.00000000E+00
                      -2.50000000E-01  1.66666667E-01  0.00000000E+00
                      -1.66666667E-01  1.66666667E-01  0.00000000E+00
                       2.50000000E-01  2.50000000E-01  0.00000000E+00
                       3.33333333E-01  2.50000000E-01  0.00000000E+00
                       4.16666667E-01  2.50000000E-01  0.00000000E+00
                       5.00000000E-01  2.50000000E-01  0.00000000E+00
                      -4.16666667E-01  2.50000000E-01  0.00000000E+00
                      -3.33333333E-01  2.50000000E-01  0.00000000E+00
                      -2.50000000E-01  2.50000000E-01  0.00000000E+00
                       3.33333333E-01  3.33333333E-01  0.00000000E+00
                       4.16666667E-01  3.33333333E-01  0.00000000E+00
                       5.00000000E-01  3.33333333E-01  0.00000000E+00
                      -4.16666667E-01  3.33333333E-01  0.00000000E+00
                      -3.33333333E-01  3.33333333E-01  0.00000000E+00
                       4.16666667E-01  4.16666667E-01  0.00000000E+00
                       5.00000000E-01  4.16666667E-01  0.00000000E+00
                      -4.16666667E-01  4.16666667E-01  0.00000000E+00
                       5.00000000E-01  5.00000000E-01  0.00000000E+00
                       8.33333333E-02  0.00000000E+00  8.33333333E-02
                       1.66666667E-01  0.00000000E+00  8.33333333E-02
                       2.50000000E-01  0.00000000E+00  8.33333333E-02
                       3.33333333E-01  0.00000000E+00  8.33333333E-02
                       4.16666667E-01  0.00000000E+00  8.33333333E-02
                       5.00000000E-01  0.00000000E+00  8.33333333E-02
                      -4.16666667E-01  0.00000000E+00  8.33333333E-02
                       outvar_i_n : Printing only first  50 k-points.
         kptrlatt       12    0    0      0   12    0      0    0   12
          kptrlen1     1.75052624E+02
          kptrlen2     1.73196197E+02
          kptrlen3     1.71326876E+02
          kptrlen4     1.69485838E+02
          kptrlen5     1.67630511E+02
          kptrlen6     1.65835870E+02
          kptrlen7     1.64072456E+02
          kptrlen8     1.62324765E+02
          kptrlen9     1.60579081E+02
          kptrlen10    1.58879366E+02
P           mkmem          41
            natom           9
            nband          42
           ndtset          10
            ngfft1         54      54      54
            ngfft2         54      54      54
            ngfft3         54      54      54
            ngfft4         54      54      54
            ngfft5         54      54      54
            ngfft6         54      54      54
            ngfft7         54      54      54
            ngfft8         50      50      50
            ngfft9         50      50      50
            ngfft10        50      50      50
          ngfftdg1         90      90      90
          ngfftdg2         90      90      90
          ngfftdg3         90      90      90
          ngfftdg4         90      90      90
          ngfftdg5         90      90      90
          ngfftdg6         90      90      90
          ngfftdg7         80      80      80
          ngfftdg8         80      80      80
          ngfftdg9         80      80      80
          ngfftdg10        80      80      80
             nkpt         163
            nstep        2500
             nsym           8
           ntypat           4
              occ      2.000000  2.000000  2.000000  2.000000  2.000000  2.000000
                       2.000000  2.000000  2.000000  2.000000  2.000000  2.000000
                       2.000000  2.000000  2.000000  2.000000  2.000000  2.000000
                       2.000000  2.000000  2.000000  2.000000  2.000000  2.000000
                       2.000000  2.000000  2.000000  2.000000  2.000000  2.000000
                       2.000000  2.000000  2.000000  2.000000  2.000000  2.000000
                       0.000000  0.000000  0.000000  0.000000  0.000000  0.000000
        pawecutdg      4.00000000E+01 Hartree
            prtwf           0
            rprim1     0.0000000000E+00  6.9809118266E-01  7.1600886914E-01
                       7.0710678119E-01  0.0000000000E+00  7.0710678119E-01
                       7.1600886914E-01  6.9809118266E-01  0.0000000000E+00
            rprim2     0.0000000000E+00  6.9690040447E-01  7.1716792054E-01
                       7.0710678119E-01  0.0000000000E+00  7.0710678119E-01
                       7.1716792054E-01  6.9690040447E-01  0.0000000000E+00
            rprim3     0.0000000000E+00  6.9548948148E-01  7.1853627685E-01
                       7.0710678119E-01  0.0000000000E+00  7.0710678119E-01
                       7.1853627685E-01  6.9548948148E-01  0.0000000000E+00
            rprim4     0.0000000000E+00  6.9443021237E-01  7.1956006014E-01
                       7.0710678119E-01  0.0000000000E+00  7.0710678119E-01
                       7.1956006014E-01  6.9443021237E-01  0.0000000000E+00
            rprim5     0.0000000000E+00  6.9312732431E-01  7.2081517208E-01
[...]
                       2.9287744638E-13  8.0635334005E-02  2.9287744638E-13
           xangst7     2.6091585350E+00  2.5612063916E+00  2.6091585350E+00
                       7.8274756051E+00  7.5730420782E+00  7.8274756051E+00
                       5.2183170701E+00  7.2688778731E+00  5.2183170701E+00
                       5.2183170700E+00  5.0224439987E+00  2.4444337945E+00
                       5.2183170701E+00  5.0224439987E+00  7.9922003457E+00
                       5.2183170701E+00  2.5190014396E+00  5.2183170701E+00
                       7.9922003457E+00  5.0224439987E+00  5.2183170701E+00
                       2.4444337945E+00  5.0224439987E+00  5.2183170700E+00
                      -1.0340375214E-12  8.2781715187E-02 -1.0340375214E-12
           xangst8     2.5805057741E+00  2.5321882468E+00  2.5805057741E+00
                       7.7415173224E+00  7.4924286590E+00  7.7415173224E+00
                       5.1610115483E+00  7.1826731256E+00  5.1610115483E+00
                       5.1610115483E+00  4.9679326917E+00  2.4400738347E+00
                       5.1610115482E+00  4.9679326917E+00  7.8819492618E+00
                       5.1610115482E+00  2.5181183978E+00  5.1610115482E+00
                       7.8819492618E+00  4.9679326917E+00  5.1610115482E+00
                       2.4400738347E+00  4.9679326917E+00  5.1610115483E+00
                       2.6337036948E-12  8.4784101930E-02  2.6337036948E-12
           xangst9     2.5517824055E+00  2.5028520208E+00  2.5517824055E+00
                       7.6553472165E+00  7.4117704357E+00  7.6553472165E+00
                       5.1035648110E+00  7.0985438904E+00  5.1035648110E+00
                       5.1035648110E+00  4.9132199846E+00  2.4346739984E+00
                       5.1035648110E+00  4.9132199846E+00  7.7724556236E+00
                       5.1035648110E+00  2.5174778809E+00  5.1035648110E+00
                       7.7724556236E+00  4.9132199846E+00  5.1035648110E+00
                       2.4346739984E+00  4.9132199846E+00  5.1035648110E+00
                       4.2419002149E-13  8.7823152478E-02  4.2419002149E-13
           xangst10    2.5214187291E+00  2.4765719823E+00  2.5214187291E+00
                       7.5642561872E+00  7.3404927758E+00  7.5642561872E+00
                       5.0428374582E+00  7.0282899183E+00  5.0428374582E+00
                       5.0428374582E+00  4.8644558106E+00  2.4286335430E+00
                       5.0428374581E+00  4.8644558106E+00  7.6570413732E+00
                       5.0428374581E+00  2.5165148942E+00  5.0428374581E+00
                       7.6570413732E+00  4.8644558106E+00  5.0428374581E+00
                       2.4286335430E+00  4.8644558106E+00  5.0428374582E+00
                       1.0219850529E-12  9.1673534613E-02  1.0219850529E-12
            xcart1     5.2224679844E+00  5.2210560986E+00  5.2224679844E+00
                       1.5667403953E+01  1.5404613898E+01  1.5667403953E+01
                       1.0444935969E+01  1.5021436284E+01  1.0444935969E+01
                       1.0444935969E+01  1.0225047350E+01  4.6473041654E+00
                       1.0444935969E+01  1.0225047350E+01  1.6242567772E+01
                       1.0444935969E+01  4.7709012952E+00  1.0444935969E+01
                       1.6242567772E+01  1.0225047350E+01  1.0444935969E+01
                       4.6473041654E+00  1.0225047350E+01  1.0444935969E+01
                       2.1445758690E-12  1.5026541456E-01  2.1445758690E-12
            xcart2     5.1754481711E+00  5.1643874400E+00  5.1754481711E+00
                       1.5526344513E+01  1.5222762391E+01  1.5526344513E+01
                       1.0350896342E+01  1.4785807272E+01  1.0350896342E+01
                       1.0350896342E+01  1.0095365023E+01  4.6448644837E+00
                       1.0350896342E+01  1.0095365023E+01  1.6056928201E+01
                       1.0350896342E+01  4.7657738665E+00  1.0350896342E+01
                       1.6056928201E+01  1.0095365023E+01  1.0350896342E+01
                       4.6448644837E+00  1.0095365023E+01  1.0350896342E+01
                      -1.0113961464E-12  1.4680854375E-01 -1.0113961464E-12
            xcart3     5.1293573210E+00  5.0861207388E+00  5.1293573210E+00
                       1.5388071963E+01  1.5015790759E+01  1.5388071963E+01
                       1.0258714642E+01  1.4550800598E+01  1.0258714642E+01
                       1.0258714642E+01  9.9672122778E+00  4.6416340733E+00
                       1.0258714642E+01  9.9672122778E+00  1.5875795211E+01
                       1.0258714642E+01  4.7663771972E+00  1.0258714642E+01
                       1.5875795211E+01  9.9672122778E+00  1.0258714642E+01
                       4.6416340733E+00  9.9672122778E+00  1.0258714642E+01
                       2.9393730977E-13  1.4942176031E-01  2.9393730977E-13
            xcart4     5.0814683198E+00  5.0230034478E+00  5.0814683198E+00
                       1.5244404959E+01  1.4831010646E+01  1.5244404959E+01
                       1.0162936640E+01  1.4328821107E+01  1.0162936640E+01
                       1.0162936640E+01  9.8420508555E+00  4.6377078363E+00
                       1.0162936640E+01  9.8420508555E+00  1.5688165443E+01
                       1.0162936640E+01  4.7637022853E+00  1.0162936640E+01
                       1.5688165443E+01  9.8420508555E+00  1.0162936640E+01
                       4.6377078363E+00  9.8420508555E+00  1.0162936640E+01
                       2.5884604641E-12  1.4931667497E-01  2.5884604641E-12
            xcart5     5.0346089908E+00  4.9565685260E+00  5.0346089908E+00
                       1.5103826972E+01  1.4639009168E+01  1.5103826972E+01
                       1.0069217982E+01  1.4102143145E+01  1.0069217982E+01
                       1.0069217982E+01  9.7121073706E+00  4.6322825826E+00
                       1.0069217982E+01  9.7121073706E+00  1.5506153381E+01
                       1.0069217982E+01  4.7627366754E+00  1.0069217982E+01
                       1.5506153381E+01  9.7121073706E+00  1.0069217982E+01
                       4.6322825826E+00  9.7121073706E+00  1.0069217982E+01
                       1.1126050996E-13  1.5063813892E-01  1.1126050996E-13
            xcart6     4.9836673552E+00  4.8954450333E+00  4.9836673552E+00
                       1.4951002066E+01  1.4468068768E+01  1.4951002066E+01
                       9.9673347104E+00  1.3909404959E+01  9.9673347104E+00
                       9.9673347104E+00  9.5987014438E+00  4.6264305568E+00
                       9.9673347104E+00  9.5987014438E+00  1.5308238864E+01
                       9.9673347104E+00  4.7608866475E+00  9.9673347104E+00
                       1.5308238864E+01  9.5987014438E+00  9.9673347104E+00
                       4.6264305568E+00  9.5987014438E+00  9.9673347104E+00
                       5.5345816415E-13  1.5237869790E-01  5.5345816415E-13
            xcart7     4.9305950685E+00  4.8399786499E+00  4.9305950685E+00
                       1.4791785206E+01  1.4310975521E+01  1.4791785206E+01
                       9.8611901370E+00  1.3736188474E+01  9.8611901370E+00
                       9.8611901369E+00  9.4910436754E+00  4.6193104215E+00
                       9.8611901371E+00  9.4910436754E+00  1.5103069853E+01
                       9.8611901371E+00  4.7602228492E+00  9.8611901371E+00
                       1.5103069853E+01  9.4910436754E+00  9.8611901371E+00
                       4.6193104215E+00  9.4910436754E+00  9.8611901369E+00
                      -1.9540477267E-12  1.5643477051E-01 -1.9540477267E-12
            xcart8     4.8764491974E+00  4.7851423033E+00  4.8764491974E+00
                       1.4629347592E+01  1.4158638236E+01  1.4629347592E+01
                       9.7528983950E+00  1.3573285109E+01  9.7528983950E+00
                       9.7528983950E+00  9.3880322340E+00  4.6110712916E+00
                       9.7528983947E+00  9.3880322340E+00  1.4894725498E+01
                       9.7528983947E+00  4.7585541421E+00  9.7528983947E+00
                       1.4894725498E+01  9.3880322340E+00  9.7528983947E+00
                       4.6110712916E+00  9.3880322340E+00  9.7528983950E+00
                       4.9769786984E-12  1.6021873307E-01  4.9769786984E-12
            xcart9     4.8221698971E+00  4.7297048705E+00  4.8221698971E+00
                       1.4466509691E+01  1.4006216283E+01  1.4466509691E+01
                       9.6443397942E+00  1.3414303895E+01  9.6443397942E+00
                       9.6443397943E+00  9.2846402015E+00  4.6008670798E+00
                       9.6443397942E+00  9.2846402015E+00  1.4687812509E+01
                       9.6443397942E+00  4.7573437406E+00  9.6443397942E+00
                       1.4687812509E+01  9.2846402015E+00  9.6443397942E+00
                       4.6008670798E+00  9.2846402015E+00  9.6443397943E+00
                       8.0160296892E-13  1.6596170631E-01  8.0160296892E-13
            xcart10    4.7647908643E+00  4.6800427950E+00  4.7647908643E+00
                       1.4294372593E+01  1.3871521027E+01  1.4294372593E+01
                       9.5295817286E+00  1.3281543128E+01  9.5295817286E+00
                       9.5295817286E+00  9.1924892676E+00  4.5894522734E+00
                       9.5295817285E+00  9.1924892676E+00  1.4469711184E+01
                       9.5295817285E+00  4.7555239594E+00  9.5295817285E+00
                       1.4469711184E+01  9.1924892676E+00  9.5295817285E+00
                       4.5894522734E+00  9.1924892676E+00  9.5295817286E+00
                       1.9312718619E-12  1.7323787405E-01  1.9312718619E-12
             xred1     2.5634734941E-01  2.4365265059E-01  2.5634734941E-01
                       7.5634734941E-01  7.4365265059E-01  7.5634734941E-01
                       7.3753380600E-01  2.6246619400E-01  7.3753380600E-01
                       2.2450394287E-01  2.2042977231E-01  7.7957022769E-01
                       7.7957022769E-01  7.7549605713E-01  2.2450394287E-01
                       2.3424530942E-01  7.6575469058E-01  2.3424530942E-01
                       2.2450394287E-01  7.7549605713E-01  7.7957022769E-01
                       7.7957022769E-01  2.2042977231E-01  2.2450394287E-01
                       7.3778446359E-03 -7.3778446359E-03  7.3778446359E-03
             xred2     2.5672076579E-01  2.4327923421E-01  2.5672076579E-01
                       7.5672076579E-01  7.4327923421E-01  7.5672076579E-01
                       7.3499980586E-01  2.6500019414E-01  7.3499980586E-01
                       2.2620892725E-01  2.2253138761E-01  7.7746861239E-01
                       7.7746861239E-01  7.7379107275E-01  2.2620892725E-01
                       2.3690575713E-01  7.6309424287E-01  2.3690575713E-01
                       2.2620892725E-01  7.7379107275E-01  7.7746861239E-01
                       7.7746861239E-01  2.2253138761E-01  2.2620892725E-01
                       7.2978261633E-03 -7.2978261633E-03  7.2978261633E-03
             xred3     2.5610723862E-01  2.4389276138E-01  2.5610723862E-01
                       7.5610723862E-01  7.4389276138E-01  7.5610723862E-01
                       7.3269305868E-01  2.6730694132E-01  7.3269305868E-01
                       2.2811924062E-01  2.2433842443E-01  7.7566157557E-01
                       7.7566157557E-01  7.7188075938E-01  2.2811924062E-01
                       2.4000682738E-01  7.5999317262E-01  2.4000682738E-01
                       2.2811924062E-01  7.7188075938E-01  7.7566157557E-01
                       7.7566157557E-01  2.2433842443E-01  2.2811924062E-01
                       7.5240043223E-03 -7.5240043223E-03  7.5240043223E-03
             xred4     2.5606646419E-01  2.4393353581E-01  2.5606646419E-01
                       7.5606646419E-01  7.4393353581E-01  7.5606646419E-01
                       7.3046546651E-01  2.6953453349E-01  7.3046546651E-01
                       2.2990320722E-01  2.2643220062E-01  7.7356779938E-01
                       7.7356779938E-01  7.7009679278E-01  2.2990320722E-01
                       2.4284761365E-01  7.5715238635E-01  2.4284761365E-01
                       2.2990320722E-01  7.7009679278E-01  7.7356779938E-01
                       7.7356779938E-01  2.2643220062E-01  2.2990320722E-01
                       7.6119782519E-03 -7.6119782519E-03  7.6119782519E-03
             xred5     2.5595656660E-01  2.4404343340E-01  2.5595656660E-01
                       7.5595656660E-01  7.4404343340E-01  7.5595656660E-01
                       7.2823287361E-01  2.7176712639E-01  7.2823287361E-01
                       2.3155394961E-01  2.2848997744E-01  7.7151002256E-01
                       7.7151002256E-01  7.6844605039E-01  2.3155394961E-01
                       2.4594711455E-01  7.5405288545E-01  2.4594711455E-01
                       2.3155394961E-01  7.6844605039E-01  7.7151002256E-01
                       7.7151002256E-01  2.2848997744E-01  2.3155394961E-01
                       7.7789342836E-03 -7.7789342836E-03  7.7789342836E-03
             xred6     2.5570027449E-01  2.4429972551E-01  2.5570027449E-01
                       7.5570027449E-01  7.4429972551E-01  7.5570027449E-01
                       7.2651998781E-01  2.7348001219E-01  7.2651998781E-01
                       2.3344172093E-01  2.3071752437E-01  7.6928247563E-01
                       7.6928247563E-01  7.6655827907E-01  2.3344172093E-01
                       2.4867198269E-01  7.5132801731E-01  2.4867198269E-01
                       2.3344172093E-01  7.6655827907E-01  7.6928247563E-01
                       7.6928247563E-01  2.3071752437E-01  2.3344172093E-01
                       7.9590873996E-03 -7.9590873996E-03  7.9590873996E-03
             xred7     2.5551579818E-01  2.4448420182E-01  2.5551579818E-01
                       7.5551579818E-01  7.4448420182E-01  7.5551579818E-01
                       7.2517120749E-01  2.7482879251E-01  7.2517120749E-01
                       2.3527500561E-01  2.3315835358E-01  7.6684164642E-01
                       7.6684164642E-01  7.6472499439E-01  2.3527500561E-01
                       2.5130526988E-01  7.4869473012E-01  2.5130526988E-01
                       2.3527500561E-01  7.6472499439E-01  7.6684164642E-01
                       7.6684164642E-01  2.3315835358E-01  2.3527500561E-01
                       8.2586222259E-03 -8.2586222259E-03  8.2586222259E-03
             xred8     2.5524854002E-01  2.4475145998E-01  2.5524854002E-01
                       7.5524854002E-01  7.4475145998E-01  7.5524854002E-01
                       7.2402469726E-01  2.7597530274E-01  7.2402469726E-01
                       2.3717031484E-01  2.3561952721E-01  7.6438047279E-01
                       7.6438047279E-01  7.6282968516E-01  2.3717031484E-01
                       2.5383027722E-01  7.4616972278E-01  2.5383027722E-01
                       2.3717031484E-01  7.6282968516E-01  7.6438047279E-01
                       7.6438047279E-01  2.3561952721E-01  2.3717031484E-01
                       8.5463702244E-03 -8.5463702244E-03  8.5463702244E-03
             xred9     2.5492907086E-01  2.4507092914E-01  2.5492907086E-01
                       7.5492907086E-01  7.4507092914E-01  7.5492907086E-01
                       7.2302524615E-01  2.7697475385E-01  7.2302524615E-01
                       2.3896494142E-01  2.3808866494E-01  7.6191133506E-01
                       7.6191133506E-01  7.6103505858E-01  2.3896494142E-01
                       2.5641879414E-01  7.4358120586E-01  2.5641879414E-01
                       2.3896494142E-01  7.6103505858E-01  7.6191133506E-01
                       7.6191133506E-01  2.3808866494E-01  2.3896494142E-01
                       8.9452650315E-03 -8.9452650315E-03  8.9452650315E-03
             xred10    2.5458596958E-01  2.4541403042E-01  2.5458596958E-01
                       7.5458596958E-01  7.4541403042E-01  7.5458596958E-01
                       7.2249222559E-01  2.7750777441E-01  7.2249222559E-01
                       2.4085529830E-01  2.4074530120E-01  7.5925469880E-01
                       7.5925469880E-01  7.5914470170E-01  2.4085529830E-01
                       2.5869201012E-01  7.4130798988E-01  2.5869201012E-01
                       2.4085529830E-01  7.5914470170E-01  7.5925469880E-01
                       7.5925469880E-01  2.4074530120E-01  2.4085529830E-01
                       9.4238309489E-03 -9.4238309489E-03  9.4238309489E-03
            znucl       55.00000   53.00000   72.00000   17.00000

- Timing analysis has been suppressed with timopt=0

 Suggested references for the acknowledgment of ABINIT usage.

 Calculation completed.
.Delivered   0 WARNINGs and   4 COMMENTs to log file.