.Version 9.2.2 of ABINIT

 ABINIT is a project of the Universite Catholique de Louvain,
 Corning Inc. and other collaborators, see ~abinit/doc/developers/contributors.txt .
 acknowledgments of the ABINIT effort.

.Starting date : Thu 20 Jul 2023.
- ( at 00h47 )

- The starting date is more than 2 years after the initial release
- of this version of ABINIT, namely Nov 2020.
- Note that the use beyond 3 years after the release will not be supported.
- Action: please, switch to a more recent version of ABINIT.

- input  file    -> Cs2TiI6.in
- output file    -> Cs2TiI6.out
- root for input  files -> Cs2TiI6i
- root for output files -> Cs2TiI6o

 Symmetries : space group I4 m m (#107); Bravais tI (body-center tetrag.)
     intxc =       0    ionmov =       0      iscf =      17    lmnmax =       8
     lnmax =       8     mgfft =      64  mpssoang =       4    mqgrid =    3001
     natom =       9  nloc_mem =       1    nspden =       1   nspinor =       1
    nsppol =       1      nsym =       8    n1xccc =    2501    ntypat =       4
    occopt =       1   xclevel =       2
-    mband =          42        mffmem =           1         mkmem =           1
       mpw =        9876          nfft =      262144          nkpt =           4
  Rough estimation (10% accuracy) of disk space for files :

------------- Echo of variables that govern the present computation ------------
-
- outvars: echo of selected default values
-   iomode0 =  0 , fftalg0 =112 , wfoptalg0 =  0
-
- outvars: echo of global parameters not present in the input file
-  max_nthreads =    0
-
 -outvars: echo values of preprocessed input variables --------
            acell      1.4764265814E+01  1.4764265814E+01  1.4910323255E+01 Bohr
              amu      1.32905430E+02  1.26904470E+02  9.12240000E+01
                       3.54527000E+01
           diemac      1.20000000E+01
             ecut      2.00000000E+01 Hartree
-          fftalg         112
             iscf          17
           istwfk        1    1    1    1
              ixc        -428
              kpt      0.00000000E+00  0.00000000E+00  0.00000000E+00
                       5.00000000E-01  0.00000000E+00  0.00000000E+00
                       5.00000000E-01  5.00000000E-01  0.00000000E+00
                       5.00000000E-01  0.00000000E+00  5.00000000E-01
         kptns_hf      0.00000000E+00  0.00000000E+00  0.00000000E+00
                       5.00000000E-01  0.00000000E+00  0.00000000E+00
                       0.00000000E+00  5.00000000E-01  0.00000000E+00
                       5.00000000E-01  5.00000000E-01  0.00000000E+00
                       0.00000000E+00  0.00000000E+00  5.00000000E-01
                       5.00000000E-01  0.00000000E+00  5.00000000E-01
                       0.00000000E+00  5.00000000E-01  5.00000000E-01
                       5.00000000E-01  5.00000000E-01  5.00000000E-01
         kptrlatt        2    0    0      0    2    0      0    0    2
          kptrlen      2.95285316E+01
P           mkmem           1
            natom           9
            nband          42
          nbandhf          36
            ngfft          64      64      64
             nkpt           4
           nkpthf           8
-           npkpt           4
            nstep        2500
             nsym           8
           ntypat           4
              occ      2.000000  2.000000  2.000000  2.000000  2.000000  2.000000
                       2.000000  2.000000  2.000000  2.000000  2.000000  2.000000
                       2.000000  2.000000  2.000000  2.000000  2.000000  2.000000
                       2.000000  2.000000  2.000000  2.000000  2.000000  2.000000
                       2.000000  2.000000  2.000000  2.000000  2.000000  2.000000
                       2.000000  2.000000  2.000000  2.000000  2.000000  2.000000
                       0.000000  0.000000  0.000000  0.000000  0.000000  0.000000
            rprim      0.0000000000E+00  7.1410192801E-01  7.0004173905E-01
                       7.1410192801E-01  0.0000000000E+00  7.0004173905E-01
                       7.0710678119E-01  7.0710678119E-01  0.0000000000E+00
          spgroup         107
           symrel      1  0  0   0  1  0   0  0  1       1  0 -1   0  1 -1   0  0 -1
                       0  1 -1   1  0 -1   0  0 -1       0  1  0   1  0  0   0  0  1
                       1  0  0   1  0 -1   1 -1  0       0  1  0   0  1 -1  -1  1  0
                       0  1 -1   0  1  0  -1  1  0       1  0 -1   1  0  0   1 -1  0
           toldfe      1.00000000E-08 Hartree
            typat      1  1  2  4  4  4  4  4  3
          usefock           1
              wtk        0.12500    0.50000    0.12500    0.25000
           xangst      2.7896081077E+00  2.7896081077E+00  2.6542366318E+00
                       8.3688243232E+00  8.3688243232E+00  8.1236018146E+00
                       5.5792162155E+00  5.5792162155E+00  2.8544808754E+00
                       5.5792162155E+00  5.5792162155E+00  8.3926169714E+00
                       8.6788422165E+00  5.5792162155E+00  5.4522874402E+00
                       5.5792162155E+00  8.6788422165E+00  5.4522874402E+00
                       5.5792162155E+00  2.4795902144E+00  5.4522874402E+00
                       2.4795902144E+00  5.5792162155E+00  5.4522874402E+00
                      -3.2199907278E-13 -3.2199907278E-13 -7.9164591424E-02
            xcart      5.2715953417E+00  5.2715953417E+00  5.0157803260E+00
                       1.5814786025E+01  1.5814786025E+01  1.5351382642E+01
                       1.0543190683E+01  1.0543190683E+01  5.3941871061E+00
                       1.0543190683E+01  1.0543190683E+01  1.5859747614E+01
                       1.6400634940E+01  1.0543190683E+01  1.0303330060E+01
                       1.0543190683E+01  1.6400634940E+01  1.0303330060E+01
                       1.0543190683E+01  4.6857464270E+00  1.0303330060E+01
                       4.6857464270E+00  1.0543190683E+01  1.0303330060E+01
                      -6.0849006259E-13 -6.0849006259E-13 -1.4959939721E-01
             xred      2.4264576812E-01  2.4264576812E-01  2.5735423188E-01
                       7.4264576812E-01  7.4264576812E-01  7.5735423188E-01
                       2.6095175400E-01  2.6095175400E-01  7.3904824600E-01
                       7.6723867313E-01  7.6723867313E-01  2.3276132687E-01
                       2.2065549836E-01  7.7622206566E-01  7.7934450164E-01
                       7.7622206566E-01  2.2065549836E-01  7.7934450164E-01
                       2.2065549836E-01  7.7622206566E-01  2.2377793434E-01
                       7.7622206566E-01  2.2065549836E-01  2.2377793434E-01
                      -7.2370913971E-03 -7.2370913971E-03  7.2370913971E-03
            znucl       55.00000   53.00000   40.00000   17.00000

 chkinp: Checking input parameters for consistency.

== DATASET  1 ==================================================================
-   mpi_nproc: 4, omp_nthreads: -1 (-1 if OMP is not activated)

--- !DatasetInfo
iteration_state: {dtset: 1, }
dimensions: {natom: 9, nkpt: 4, mband: 42, nsppol: 1, nspinor: 1, nspden: 1, mpw: 9876, }
cutoff_energies: {ecut:  20.0, pawecutdg:  -1.0, }
electrons: {nelect:   7.20000000E+01, charge:   0.00000000E+00, occopt:   1.00000000E+00, tsmear:   1.00000000E-02, }
meta: {optdriver: 0, ionmov: 0, optcell: 0, iscf: 17, paral_kgb: 0, }
...

 Real(R)+Recip(G) space primitive vectors, cartesian coordinates (Bohr,Bohr^-1):
 R(1)=  0.0000000 10.5431907 10.3356023  G(1)= -0.0474240  0.0474240  0.0483765
 R(2)= 10.5431907  0.0000000 10.3356023  G(2)=  0.0474240 -0.0474240  0.0483765
 R(3)= 10.5431907 10.5431907  0.0000000  G(3)=  0.0474240  0.0474240 -0.0483765
 Unit cell volume ucvol=  2.2977877E+03 bohr^3
 Angles (23,13,12)=  5.96722113E+01  5.96722113E+01  6.06555775E+01 degrees

 getcut: wavevector=  0.0000  0.0000  0.0000  ngfft=  64  64  64
         ecut(hartree)=     20.000   => boxcut(ratio)=   2.13213

--- Pseudopotential description ------------------------------------------------
- pspini: atom type   1  psp file is ../../../Psps_for_tests/ONCVPSP-PBE-PDv0.4/Cs-sp.psp8
- pspatm: opening atomic psp file    ../../../Psps_for_tests/ONCVPSP-PBE-PDv0.4/Cs-sp.psp8
- Cs    ONCVPSP-3.2.3.1  r_core=   2.27353   1.85623   2.01788   1.90105
- 55.00000   9.00000    170703                znucl, zion, pspdat
    8   32    3    4       600   0.00000      pspcod,pspxc,lmax,lloc,mmax,r2well
    5.99000000000000    5.00000000000000    0.00000000000000   rchrg,fchrg,qchrg
     nproj     2     2     2     2
     extension_switch     1
  pspatm : epsatm=   22.81663475
         --- l  ekb(1:nproj) -->
             0    6.176104    0.756334
             1    6.263084    0.786397
             2    3.737592    0.906929
             3   -9.272327   -2.535859
 pspatm: atomic psp has been read  and splines computed

- pspini: atom type   2  psp file is ../../../Psps_for_tests/ONCVPSP-PBE-PDv0.4/I.psp8
- pspatm: opening atomic psp file    ../../../Psps_for_tests/ONCVPSP-PBE-PDv0.4/I.psp8
- I     ONCVPSP-3.2.3.1  r_core=   2.02042   2.17032   2.27639
- 53.00000   7.00000    170510                znucl, zion, pspdat
    8   32    2    4       600   0.00000      pspcod,pspxc,lmax,lloc,mmax,r2well
    5.99000000000000    4.00000000000000    0.00000000000000   rchrg,fchrg,qchrg
     nproj     2     2     2
     extension_switch     1
  pspatm : epsatm=   19.17050482
         --- l  ekb(1:nproj) -->
             0    5.955518    0.916455
             1    4.011347    0.742302
             2    4.134838    0.711910
 pspatm: atomic psp has been read  and splines computed

- pspini: atom type   3  psp file is ../../../Psps_for_tests/ONCVPSP-PBE-PDv0.4/Zr-sp.psp8
- pspatm: opening atomic psp file    ../../../Psps_for_tests/ONCVPSP-PBE-PDv0.4/Zr-sp.psp8
- Zr    ONCVPSP-3.2.3.1  r_core=   1.56507   1.56507   1.51006
- 40.00000  12.00000    170510                znucl, zion, pspdat
    8   32    2    4       600   0.00000      pspcod,pspxc,lmax,lloc,mmax,r2well
    5.99000000000000    5.00000000000000    0.00000000000000   rchrg,fchrg,qchrg
     nproj     2     2     2
     extension_switch     1
  pspatm : epsatm=   18.79873988
         --- l  ekb(1:nproj) -->
             0   10.621766    0.898805
             1    5.849837    0.750341
             2    1.531478    0.503023
 pspatm: atomic psp has been read  and splines computed

- pspini: atom type   4  psp file is ../../../Psps_for_tests/ONCVPSP-PBE-PDv0.4/Cl.psp8
- pspatm: opening atomic psp file    ../../../Psps_for_tests/ONCVPSP-PBE-PDv0.4/Cl.psp8
- Cl    ONCVPSP-3.2.3.1  r_core=   1.56009   1.35202   1.75774
- 17.00000   7.00000    170504                znucl, zion, pspdat
    8   32    2    4       600   0.00000      pspcod,pspxc,lmax,lloc,mmax,r2well
    5.99000000000000    8.00000000000000    0.00000000000000   rchrg,fchrg,qchrg
     nproj     2     2     2
     extension_switch     1
  pspatm : epsatm=    9.12776994
         --- l  ekb(1:nproj) -->
             0    8.139296    0.698720
             1    3.821713    1.107519
             2   -2.938609   -0.805455
 pspatm: atomic psp has been read  and splines computed

   9.30537820E+03                                ecore*ucvol(ha*bohr**3)

_setup2: Arith. and geom. avg. npw (full set) are    9810.125    9810.081

--- !BeginCycle
iteration_state: {dtset: 1, }
solver: {iscf: 17, nstep: 2500, nline: 4, wfoptalg: 0, }
tolerances: {toldfe: 1.00E-08, }
...

     iter   Etot(hartree)      deltaE(h)  residm     nres2
 ETOT  1  -187.15343592094    -1.872E+02 2.004E-02 4.477E+00
 ETOT  2  -192.95705066570    -5.804E+00 8.456E-03 4.128E+00
 ETOT  3  -192.94884999581     8.201E-03 4.593E-03 1.349E+00
 ETOT  4  -192.92741832444     2.143E-02 2.516E-03 6.995E-02
 ETOT  5  -192.92911296291    -1.695E-03 1.378E-03 5.458E-02
 ETOT  6  -192.92904983367     6.313E-05 3.349E-03 4.979E-03
 ETOT  7  -192.92902140443     2.843E-05 4.004E-03 1.050E-03
 ETOT  8  -192.92902344271    -2.038E-06 1.237E-03 1.125E-04
 ETOT  9  -192.92902360904    -1.663E-07 6.968E-04 4.873E-06
 ETOT 10  -192.92902380708    -1.980E-07 8.969E-04 1.522E-06
 ETOT 11  -192.92902382237    -1.528E-08 5.498E-04 6.086E-07
 ETOT 12  -192.92902384564    -2.327E-08 1.058E-03 7.707E-08
 ETOT 13  -192.92902385406    -8.423E-09 8.503E-04 9.220E-09
 ETOT 14  -192.92902385439    -3.281E-10 7.920E-04 4.025E-09

 At SCF step   14, etot is converged :
  for the second time, diff in etot=  3.281E-10 < toldfe=  1.000E-08

 Cartesian components of stress tensor (hartree/bohr^3)
  sigma(1 1)=  6.76434339E-05  sigma(3 2)= -7.44386560E-15
  sigma(2 2)=  6.76434339E-05  sigma(3 1)= -7.44393697E-15
  sigma(3 3)=  6.48035231E-05  sigma(2 1)=  1.45948087E-14

--- !ResultsGS
iteration_state: {dtset: 1, }
comment   : Summary of ground state results
lattice_vectors:
- [  0.0000000,  10.5431907,  10.3356023, ]
- [ 10.5431907,   0.0000000,  10.3356023, ]
- [ 10.5431907,  10.5431907,   0.0000000, ]
lattice_lengths: [  14.76427,   14.76427,   14.91032, ]
lattice_angles: [ 59.672,  59.672,  60.656, ] # degrees, (23, 13, 12)
lattice_volume:   2.2977877E+03
convergence: {deltae: -3.281E-10, res2:  4.025E-09, residm:  7.920E-04, diffor: null, }
etotal    :  -1.92929024E+02
entropy   :   0.00000000E+00
fermie    :  -2.46778009E-03
cartesian_stress_tensor: # hartree/bohr^3
- [  6.76434339E-05,   1.45948087E-14,  -7.44393697E-15, ]
- [  1.45948087E-14,   6.76434339E-05,  -7.44386560E-15, ]
- [ -7.44393697E-15,  -7.44386560E-15,   6.48035231E-05, ]
pressure_GPa:  -1.9623E+00
xred      :
- [  2.4265E-01,   2.4265E-01,   2.5735E-01, Cs]
- [  7.4265E-01,   7.4265E-01,   7.5735E-01, Cs]
- [  2.6095E-01,   2.6095E-01,   7.3905E-01,  I]
- [  7.6724E-01,   7.6724E-01,   2.3276E-01, Cl]
- [  2.2066E-01,   7.7622E-01,   7.7934E-01, Cl]
- [  7.7622E-01,   2.2066E-01,   7.7934E-01, Cl]
- [  2.2066E-01,   7.7622E-01,   2.2378E-01, Cl]
- [  7.7622E-01,   2.2066E-01,   2.2378E-01, Cl]
- [ -7.2371E-03,  -7.2371E-03,   7.2371E-03, Zr]
cartesian_forces: # hartree/bohr
- [ -4.68451473E-20,  -1.87309284E-19,  -2.71872189E-05, ]
- [ -4.85987331E-20,  -1.85555698E-19,  -2.71872189E-05, ]
- [ -1.44573303E-19,  -8.95811286E-20,  -1.99711078E-03, ]
- [ -4.32818164E-20,  -1.90872615E-19,   3.48157174E-03, ]
- [  3.45974596E-03,   1.37958107E-14,  -1.26929736E-04, ]
- [  1.37955122E-14,   3.45974596E-03,  -1.26929736E-04, ]
- [ -1.37951699E-14,  -3.45974596E-03,  -1.26929736E-04, ]
- [ -3.45974596E-03,  -1.37956341E-14,  -1.26929736E-04, ]
- [ -3.76598144E-20,  -1.96494617E-19,  -9.22367579E-04, ]
force_length_stats: {min:   2.71872189E-05, max:   3.48157174E-03, mean:   2.25596875E-03, }
...

 Integrated electronic density in atomic spheres:
 Atom  Sphere_radius  Integrated_density
    1        2.00000          4.44884170
    2        2.00000          4.44884170
    3        2.00000          2.86128435
    4        2.00000          5.10791831
    5        2.00000          5.08952383
    6        2.00000          5.08952383
    7        2.00000          5.08952383
    8        2.00000          5.08952383
    9        2.00000          8.15231371

 ----iterations are completed or convergence reached----

 Mean square residual over all n,k,spin=   83.610E-07; max=  79.199E-05
 reduced coordinates (array xred) for    9 atoms
       0.242645768120      0.242645768120      0.257354231880
       0.742645768120      0.742645768120      0.757354231880
       0.260951754000      0.260951754000      0.739048246000
       0.767238673130      0.767238673130      0.232761326870
       0.220655498360      0.776222065660      0.779344501640
       0.776222065660      0.220655498360      0.779344501640
       0.220655498360      0.776222065660      0.223777934340
       0.776222065660      0.220655498360      0.223777934340
      -0.007237091397     -0.007237091397      0.007237091397
 rms dE/dt=  2.3000E-02; max dE/dt=  3.7922E-02; dE/dt below (all hartree)
    1       0.000414119138      0.000414119138      0.000000000000
    2       0.000414119138      0.000414119138      0.000000000000
    3       0.020774465631      0.020774465631      0.000000000000
    4      -0.035851018061     -0.035851018061      0.000000000000
    5       0.001445018130     -0.035031743267     -0.036476761397
    6      -0.035031743267      0.001445018130     -0.036476761397
    7       0.037921779526      0.001445018130      0.036476761397
    8       0.001445018130      0.037921779526      0.036476761397
    9       0.009666347340      0.009666347340      0.000000000000

 cartesian coordinates (angstrom) at end:
    1      2.78960810773322     2.78960810773322     2.65423663181781
    2      8.36882432320030     8.36882432320030     8.12360181461622
    3      5.57921621545645     5.57921621545645     2.85448087543555
    4      5.57921621547898     5.57921621547898     8.39261697142735
    5      8.67884221651857     5.57921621545466     5.45228744016388
    6      5.57921621545466     8.67884221651857     5.45228744016388
    7      5.57921621547938     2.47959021441547     5.45228744016388
    8      2.47959021441547     5.57921621547938     5.45228744016388
    9     -0.00000000000032    -0.00000000000032    -0.07916459142406

 cartesian forces (hartree/bohr) at end:
    1     -0.00000000000000    -0.00000000000000    -0.00002718721887
    2     -0.00000000000000    -0.00000000000000    -0.00002718721887
    3     -0.00000000000000    -0.00000000000000    -0.00199711077718
    4     -0.00000000000000    -0.00000000000000     0.00348157173777
    5      0.00345974596230     0.00000000000001    -0.00012692973604
    6      0.00000000000001     0.00345974596230    -0.00012692973604
    7     -0.00000000000001    -0.00345974596230    -0.00012692973601
    8     -0.00345974596230    -0.00000000000001    -0.00012692973601
    9     -0.00000000000000    -0.00000000000000    -0.00092236757876
 frms,max,avg= 1.5504581E-03 3.4815717E-03   0.000E+00  0.000E+00 -1.288E-05 h/b

 cartesian forces (eV/Angstrom) at end:
    1     -0.00000000000000    -0.00000000000000    -0.00139802288681
    2     -0.00000000000000    -0.00000000000000    -0.00139802288681
    3     -0.00000000000000    -0.00000000000000    -0.10269555658615
    4     -0.00000000000000    -0.00000000000000     0.17902960190805
    5      0.17790727550256     0.00000000000071    -0.00652698890740
    6      0.00000000000071     0.17790727550256    -0.00652698890740
    7     -0.00000000000071    -0.17790727550256    -0.00652698890595
    8     -0.17790727550256    -0.00000000000071    -0.00652698890595
    9     -0.00000000000000    -0.00000000000000    -0.04743004392158
 frms,max,avg= 7.9727753E-02 1.7902960E-01   0.000E+00  0.000E+00 -6.623E-04 e/A
 length scales= 14.764265814000 14.764265814000 14.910323255000 bohr
              =  7.812912970333  7.812912970333  7.890203239255 angstroms
 prteigrs : about to open file Cs2TiI6o_EIG
 Fermi (or HOMO) energy (hartree) =  -0.00247   Average Vxc (hartree)=  -0.23669
 Eigenvalues (hartree) for nkpt=   4  k points:
 kpt#   1, nband= 42, wtk=  0.12500, kpt=  0.0000  0.0000  0.0000 (reduced coord)
  -1.92652   -1.06709   -1.06709   -1.06611   -0.78691   -0.78660   -0.56858   -0.55625
  -0.55571   -0.55095   -0.55095   -0.42242   -0.26935   -0.26935   -0.26925   -0.26618
  -0.26618   -0.26581   -0.14926   -0.12768   -0.11855   -0.11653   -0.11222   -0.11222
  -0.10329   -0.10329   -0.09378   -0.07029   -0.06606   -0.06606   -0.05639   -0.05639
  -0.04860   -0.02112   -0.00247   -0.00247    0.13395    0.13395    0.13954    0.20401
   0.22509    0.23162
 prteigrs : prtvol=0 or 1, do not print more k-points.

--- !EnergyTerms
iteration_state     : {dtset: 1, }
comment             : Components of total free energy in Hartree
kinetic             :  5.53547652857420E+01
hartree             :  4.74399580520136E+01
xc                  : -4.46469695208312E+01
Ewald energy        : -1.17478701314744E+02
psp_core            :  4.04971182572259E+00
local_psp           : -1.57075172588834E+02
non_local_psp+x     :  1.94274128945198E+01
total_energy        : -1.92928995366412E+02
...

--- !EnergyTermsDC
iteration_state     : {dtset: 1, }
comment             : '"Double-counting" decomposition of free energy'
band_energy         : -2.59570607583922E+01
Ewald energy        : -1.17478701314744E+02
psp_core            :  4.04971182572259E+00
xc_dc               : -5.35429736069783E+01
total_energy_dc     : -1.92929023854392E+02
...

 Cartesian components of stress tensor (hartree/bohr^3)
  sigma(1 1)=  6.76434339E-05  sigma(3 2)= -7.44386560E-15
  sigma(2 2)=  6.76434339E-05  sigma(3 1)= -7.44393697E-15
  sigma(3 3)=  6.48035231E-05  sigma(2 1)=  1.45948087E-14

-Cartesian components of stress tensor (GPa)         [Pressure= -1.9623E+00 GPa]
- sigma(1 1)=  1.99013820E+00  sigma(3 2)= -2.19006050E-10
- sigma(2 2)=  1.99013820E+00  sigma(3 1)= -2.19008150E-10
- sigma(3 3)=  1.90658515E+00  sigma(2 1)=  4.29394023E-10

== END DATASET(S) ==============================================================

 -outvars: echo values of variables after computation  --------
            acell      1.4764265814E+01  1.4764265814E+01  1.4910323255E+01 Bohr
              amu      1.32905430E+02  1.26904470E+02  9.12240000E+01
                       3.54527000E+01
           diemac      1.20000000E+01
             ecut      2.00000000E+01 Hartree
           etotal     -1.9292902385E+02
            fcart     -4.6845147290E-20 -1.8730928401E-19 -2.7187218871E-05
                      -4.8598733056E-20 -1.8555569825E-19 -2.7187218871E-05
                      -1.4457330274E-19 -8.9581128557E-20 -1.9971107772E-03
                      -4.3281816365E-20 -1.9087261494E-19  3.4815717378E-03
                       3.4597459623E-03  1.3795810716E-14 -1.2692973604E-04
                       1.3795512184E-14  3.4597459623E-03 -1.2692973604E-04
                      -1.3795169890E-14 -3.4597459623E-03 -1.2692973601E-04
                      -3.4597459623E-03 -1.3795634109E-14 -1.2692973601E-04
                      -3.7659814447E-20 -1.9649461685E-19 -9.2236757876E-04
-          fftalg         112
             iscf          17
           istwfk        1    1    1    1
              ixc        -428
              kpt      0.00000000E+00  0.00000000E+00  0.00000000E+00
                       5.00000000E-01  0.00000000E+00  0.00000000E+00
                       5.00000000E-01  5.00000000E-01  0.00000000E+00
                       5.00000000E-01  0.00000000E+00  5.00000000E-01
         kptns_hf      0.00000000E+00  0.00000000E+00  0.00000000E+00
                       5.00000000E-01  0.00000000E+00  0.00000000E+00
                       0.00000000E+00  5.00000000E-01  0.00000000E+00
                       5.00000000E-01  5.00000000E-01  0.00000000E+00
                       0.00000000E+00  0.00000000E+00  5.00000000E-01
                       5.00000000E-01  0.00000000E+00  5.00000000E-01
                       0.00000000E+00  5.00000000E-01  5.00000000E-01
                       5.00000000E-01  5.00000000E-01  5.00000000E-01
         kptrlatt        2    0    0      0    2    0      0    0    2
          kptrlen      2.95285316E+01
P           mkmem           1
            natom           9
            nband          42
          nbandhf          36
            ngfft          64      64      64
             nkpt           4
           nkpthf           8
-           npkpt           4
            nstep        2500
             nsym           8
           ntypat           4
              occ      2.000000  2.000000  2.000000  2.000000  2.000000  2.000000
                       2.000000  2.000000  2.000000  2.000000  2.000000  2.000000
                       2.000000  2.000000  2.000000  2.000000  2.000000  2.000000
                       2.000000  2.000000  2.000000  2.000000  2.000000  2.000000
                       2.000000  2.000000  2.000000  2.000000  2.000000  2.000000
                       2.000000  2.000000  2.000000  2.000000  2.000000  2.000000
                       0.000000  0.000000  0.000000  0.000000  0.000000  0.000000
            rprim      0.0000000000E+00  7.1410192801E-01  7.0004173905E-01
                       7.1410192801E-01  0.0000000000E+00  7.0004173905E-01
                       7.0710678119E-01  7.0710678119E-01  0.0000000000E+00
          spgroup         107
           strten      6.7643433859E-05  6.7643433859E-05  6.4803523082E-05
                      -7.4438655983E-15 -7.4439369662E-15  1.4594808654E-14
           symrel      1  0  0   0  1  0   0  0  1       1  0 -1   0  1 -1   0  0 -1
                       0  1 -1   1  0 -1   0  0 -1       0  1  0   1  0  0   0  0  1
                       1  0  0   1  0 -1   1 -1  0       0  1  0   0  1 -1  -1  1  0
                       0  1 -1   0  1  0  -1  1  0       1  0 -1   1  0  0   1 -1  0
           toldfe      1.00000000E-08 Hartree
            typat      1  1  2  4  4  4  4  4  3
          usefock           1
              wtk        0.12500    0.50000    0.12500    0.25000
           xangst      2.7896081077E+00  2.7896081077E+00  2.6542366318E+00
                       8.3688243232E+00  8.3688243232E+00  8.1236018146E+00
                       5.5792162155E+00  5.5792162155E+00  2.8544808754E+00
                       5.5792162155E+00  5.5792162155E+00  8.3926169714E+00
                       8.6788422165E+00  5.5792162155E+00  5.4522874402E+00
                       5.5792162155E+00  8.6788422165E+00  5.4522874402E+00
                       5.5792162155E+00  2.4795902144E+00  5.4522874402E+00
                       2.4795902144E+00  5.5792162155E+00  5.4522874402E+00
                      -3.2199907278E-13 -3.2199907278E-13 -7.9164591424E-02
            xcart      5.2715953417E+00  5.2715953417E+00  5.0157803260E+00
                       1.5814786025E+01  1.5814786025E+01  1.5351382642E+01
                       1.0543190683E+01  1.0543190683E+01  5.3941871061E+00
                       1.0543190683E+01  1.0543190683E+01  1.5859747614E+01
                       1.6400634940E+01  1.0543190683E+01  1.0303330060E+01
                       1.0543190683E+01  1.6400634940E+01  1.0303330060E+01
                       1.0543190683E+01  4.6857464270E+00  1.0303330060E+01
                       4.6857464270E+00  1.0543190683E+01  1.0303330060E+01
                      -6.0849006259E-13 -6.0849006259E-13 -1.4959939721E-01
             xred      2.4264576812E-01  2.4264576812E-01  2.5735423188E-01
                       7.4264576812E-01  7.4264576812E-01  7.5735423188E-01
                       2.6095175400E-01  2.6095175400E-01  7.3904824600E-01
                       7.6723867313E-01  7.6723867313E-01  2.3276132687E-01
                       2.2065549836E-01  7.7622206566E-01  7.7934450164E-01
                       7.7622206566E-01  2.2065549836E-01  7.7934450164E-01
                       2.2065549836E-01  7.7622206566E-01  2.2377793434E-01
                       7.7622206566E-01  2.2065549836E-01  2.2377793434E-01
                      -7.2370913971E-03 -7.2370913971E-03  7.2370913971E-03
            znucl       55.00000   53.00000   40.00000   17.00000

- Timing analysis has been suppressed with timopt=0

 Suggested references for the acknowledgment of ABINIT usage.

 Calculation completed.
.Delivered   0 WARNINGs and   0 COMMENTs to log file.