.Version 9.2.2 of ABINIT

 ABINIT is a project of the Universite Catholique de Louvain,
 Corning Inc. and other collaborators, see ~abinit/doc/developers/contributors.txt .
 acknowledgments of the ABINIT effort.

.Starting date : Sun 11 Dec 2022.
- ( at 14h35 )

- The starting date is more than 2 years after the initial release
- of this version of ABINIT, namely Nov 2020.
- Note that the use beyond 3 years after the release will not be supported.
- Action: please, switch to a more recent version of ABINIT.

- input  file    -> Cs2TiI6.in
- output file    -> Cs2TiI6.out
- root for input  files -> Cs2TiI6i
- root for output files -> Cs2TiI6o

- inpspheads : Reading pseudopotential header in XML form from
-   ../../../Psps_for_tests/ATOMICDATA/Cs.GGA_PBE-JTH.xml
- inpspheads : Reading pseudopotential header in XML form from
-   ../../../Psps_for_tests/ATOMICDATA/I.GGA_PBE-JTH.xml
- inpspheads : Reading pseudopotential header in XML form from
-   ../../../Psps_for_tests/ATOMICDATA/Zr.GGA_PBE-JTH.xml
- inpspheads : Reading pseudopotential header in XML form from
-   ../../../Psps_for_tests/ATOMICDATA/Cl.GGA_PBE-JTH.xml

 DATASET    1 : space group I4 m m (#107); Bravais tI (body-center tetrag.)
     intxc =       0    ionmov =       2      iscf =      17    lmnmax =      18
     lnmax =       6     mgfft =      64  mpssoang =       3    mqgrid =    3906
     natom =       9  nloc_mem =       2    nspden =       1   nspinor =       1
    nsppol =       1      nsym =       8    n1xccc =       1    ntypat =       4
    occopt =       1   xclevel =       2
-    mband =          42        mffmem =           1         mkmem =           5
       mpw =       10281          nfft =      262144          nkpt =          20
Pmy_natom=         3
 PAW method is used; the additional fine FFT grid is defined by:
   mgfftf=       100    nfftf =   1000000
  Rough estimation (10% accuracy) of disk space for files :

[...]

 DATASET   10 : space group I4 m m (#107); Bravais tI (body-center tetrag.)
     intxc =       0    ionmov =       2      iscf =      17    lmnmax =      18
     lnmax =       6     mgfft =      64  mpssoang =       3    mqgrid =    3871
     natom =       9  nloc_mem =       2    nspden =       1   nspinor =       1
    nsppol =       1      nsym =       8    n1xccc =       1    ntypat =       4
    occopt =       1   xclevel =       2
-    mband =          42        mffmem =           1         mkmem =           5
       mpw =        9999          nfft =      262144          nkpt =          20
Pmy_natom=         3
 PAW method is used; the additional fine FFT grid is defined by:
   mgfftf=        96    nfftf =    884736
  Rough estimation (10% accuracy) of disk space for files :

------------- Echo of variables that govern the present computation ------------
-
- outvars: echo of selected default values
-   iomode0 =  0 , fftalg0 =112 , wfoptalg0 = 10
-
- outvars: echo of global parameters not present in the input file
-  max_nthreads =    0
-
 -outvars: echo values of preprocessed input variables --------
            acell1     1.4535500856E+01  1.4535500856E+01  1.4774325976E+01 Bohr
            acell2     1.4520950805E+01  1.4520950805E+01  1.4759536861E+01 Bohr
            acell3     1.4506400754E+01  1.4506400754E+01  1.4744747746E+01 Bohr
            acell4     1.4491850703E+01  1.4491850703E+01  1.4729958631E+01 Bohr
            acell5     1.4477300652E+01  1.4477300652E+01  1.4715169516E+01 Bohr
            acell6     1.4462750602E+01  1.4462750602E+01  1.4700380400E+01 Bohr
            acell7     1.4448200551E+01  1.4448200551E+01  1.4685591285E+01 Bohr
            acell8     1.4433650500E+01  1.4433650500E+01  1.4670802170E+01 Bohr
            acell9     1.4419100449E+01  1.4419100449E+01  1.4656013055E+01 Bohr
            acell10    1.4404550398E+01  1.4404550398E+01  1.4641223940E+01 Bohr
              amu      1.32905430E+02  1.26904470E+02  9.12240000E+01
                       3.54527000E+01
           diemac      1.20000000E+01
          dilatmx      1.15000000E+00
             ecut      1.60000000E+01 Hartree
           ecutsm      5.00000000E-01 Hartree
-          fftalg         112
           ionmov           2
              ixc     -101130
           jdtset        1    2    3    4    5    6    7    8    9   10
              kpt     -1.25000000E-01 -2.50000000E-01  0.00000000E+00
                      -1.25000000E-01  5.00000000E-01  0.00000000E+00
                      -2.50000000E-01 -3.75000000E-01  0.00000000E+00
                      -1.25000000E-01 -3.75000000E-01  1.25000000E-01
                      -1.25000000E-01  2.50000000E-01  0.00000000E+00
                      -2.50000000E-01  3.75000000E-01  0.00000000E+00
                      -1.25000000E-01  3.75000000E-01  1.25000000E-01
                      -3.75000000E-01  5.00000000E-01  0.00000000E+00
                      -2.50000000E-01  5.00000000E-01  1.25000000E-01
                      -1.25000000E-01  5.00000000E-01  2.50000000E-01
                      -1.25000000E-01  0.00000000E+00  0.00000000E+00
                      -1.25000000E-01  1.25000000E-01  1.25000000E-01
                      -1.25000000E-01  2.50000000E-01  2.50000000E-01
                      -1.25000000E-01  3.75000000E-01  3.75000000E-01
                      -3.75000000E-01  0.00000000E+00  0.00000000E+00
                      -2.50000000E-01  0.00000000E+00  1.25000000E-01
                      -3.75000000E-01  1.25000000E-01  1.25000000E-01
                      -2.50000000E-01  1.25000000E-01  2.50000000E-01
                      -3.75000000E-01  2.50000000E-01  2.50000000E-01
                      -2.50000000E-01  2.50000000E-01  3.75000000E-01
         kptrlatt        4   -4    4     -4    4    4     -4   -4    4
          kptrlen1     8.08516394E+01
          kptrlen2     8.07707068E+01
          kptrlen3     8.06897742E+01
          kptrlen4     8.06088417E+01
          kptrlen5     8.05279091E+01
          kptrlen6     8.04469765E+01
          kptrlen7     8.03660440E+01
          kptrlen8     8.02851114E+01
          kptrlen9     8.02041788E+01
          kptrlen10    8.01232462E+01
P           mkmem           5
            natom           9
            nband          42
           ndtset          10
            ngfft          64      64      64
          ngfftdg1        100     100     100
          ngfftdg2        100     100     100
          ngfftdg3        100     100     100
          ngfftdg4        100     100     100
          ngfftdg5        100     100     100
          ngfftdg6        100     100     100
          ngfftdg7        100     100     100
          ngfftdg8        100     100     100
          ngfftdg9         96      96      96
          ngfftdg10        96      96      96
             nkpt          20
            nstep        2500
             nsym           8
            ntime        1000
           ntypat           4
              occ      2.000000  2.000000  2.000000  2.000000  2.000000  2.000000
                       2.000000  2.000000  2.000000  2.000000  2.000000  2.000000
                       2.000000  2.000000  2.000000  2.000000  2.000000  2.000000
                       2.000000  2.000000  2.000000  2.000000  2.000000  2.000000
                       2.000000  2.000000  2.000000  2.000000  2.000000  2.000000
                       2.000000  2.000000  2.000000  2.000000  2.000000  2.000000
                       0.000000  0.000000  0.000000  0.000000  0.000000  0.000000
          optcell           3
        optforces           1
        pawecutdg      4.00000000E+01 Hartree
            prtwf           0
            rprim      0.0000000000E+00  7.1872487836E-01  6.9529457730E-01
                       7.1872487836E-01  0.0000000000E+00  6.9529457730E-01
                       7.0710678119E-01  7.0710678119E-01  0.0000000000E+00
           shiftk      5.00000000E-01  5.00000000E-01  5.00000000E-01
          spgroup         107
           symrel      1  0  0   0  1  0   0  0  1       1  0 -1   0  1 -1   0  0 -1
                       0  1 -1   1  0 -1   0  0 -1       0  1  0   1  0  0   0  0  1
                       1  0  0   1  0 -1   1 -1  0       0  1  0   0  1 -1  -1  1  0
                       0  1 -1   0  1  0  -1  1  0       1  0 -1   1  0  0   1 -1  0
           toldff      1.00000000E-08
           tolmxf      1.00000000E-05
            typat      1  1  4  2  2  2  2  2  3
           useylm           1
              wtk        0.03125    0.03125    0.03125    0.06250    0.03125    0.03125
                         0.06250    0.03125    0.06250    0.06250    0.03125    0.06250
                         0.06250    0.06250    0.03125    0.06250    0.06250    0.06250
                         0.06250    0.06250
           xangst1     2.7641640508E+00  2.7641640508E+00  2.6881991171E+00
                       8.2924921525E+00  8.2924921525E+00  8.0363047223E+00
                       5.5283281017E+00  5.5283281017E+00  2.5568788415E+00
                       5.5283281016E+00  5.5283281016E+00  7.9872112895E+00
                       8.2279569592E+00  5.5283281017E+00  5.3478562624E+00
                       5.5283281017E+00  8.2279569592E+00  5.3478562624E+00
                       5.5283281016E+00  2.8286992441E+00  5.3478562624E+00
                       2.8286992441E+00  5.5283281016E+00  5.3478562624E+00
                      -2.3448693589E-12 -2.3448693589E-12  1.2482582138E-01
           xangst2     2.7613971199E+00  2.7613971199E+00  2.6855082271E+00
                       8.2841913596E+00  8.2841913596E+00  8.0282603732E+00
                       5.5227942398E+00  5.5227942398E+00  2.5543194032E+00
                       5.5227942397E+00  5.5227942397E+00  7.9792160830E+00
                       8.2197207661E+00  5.5227942398E+00  5.3425030529E+00
                       5.5227942398E+00  8.2197207661E+00  5.3425030529E+00
                       5.5227942397E+00  2.8258677133E+00  5.3425030529E+00
                       2.8258677133E+00  5.5227942397E+00  5.3425030529E+00
                      -2.3425106773E-12 -2.3425106773E-12  1.2470087061E-01
           xangst3     2.7586301889E+00  2.7586301889E+00  2.6828173370E+00
                       8.2758905666E+00  8.2758905666E+00  8.0202160241E+00
                       5.5172603778E+00  5.5172603778E+00  2.5517599649E+00
                       5.5172603777E+00  5.5172603777E+00  7.9712208765E+00
                       8.2114845729E+00  5.5172603778E+00  5.3371498435E+00
                       5.5172603778E+00  8.2114845729E+00  5.3371498435E+00
                       5.5172603777E+00  2.8230361826E+00  5.3371498435E+00
                       2.8230361826E+00  5.5172603777E+00  5.3371498435E+00
                      -2.3401813709E-12 -2.3401813709E-12  1.2457591984E-01
           xangst4     2.7558632579E+00  2.7558632579E+00  2.6801264470E+00
                       8.2675897737E+00  8.2675897737E+00  8.0121716750E+00
                       5.5117265158E+00  5.5117265158E+00  2.5492005266E+00
                       5.5117265157E+00  5.5117265157E+00  7.9632256700E+00
[...]
                      -2.4319898685E-12 -2.4320779942E-12  1.2939307081E-01
           xangst7     2.7487661661E+00  2.7487661661E+00  2.6673022590E+00
                       8.2462984982E+00  8.2462984982E+00  7.9786323262E+00
                       5.4975323322E+00  5.4975323322E+00  2.5624754821E+00
                       5.4975323321E+00  5.4975323321E+00  7.9230591415E+00
                       8.1719831755E+00  5.4975323322E+00  5.3072577723E+00
                       5.4975323322E+00  8.1719831755E+00  5.3072577723E+00
                       5.4975323321E+00  2.8230814888E+00  5.3072577723E+00
                       2.8230814888E+00  5.4975323321E+00  5.3072577723E+00
                      -2.4479573137E-12 -2.4480160642E-12  1.3014023918E-01
           xangst8     2.7461858585E+00  2.7461858585E+00  2.6638019521E+00
                       8.2385575755E+00  8.2385575755E+00  7.9690574279E+00
                       5.4923717171E+00  5.4923717171E+00  2.5628951268E+00
                       5.4923717170E+00  5.4923717170E+00  7.9127636724E+00
                       8.1629076071E+00  5.4923717171E+00  5.3006422613E+00
                       5.4923717171E+00  8.1629076071E+00  5.3006422613E+00
                       5.4923717170E+00  2.8218358269E+00  5.3006422613E+00
                       2.8218358269E+00  5.4923717170E+00  5.3006422613E+00
                      -2.4636483945E-12 -2.4630462021E-12  1.3095658190E-01
           xangst9     2.7440844277E+00  2.7440844277E+00  2.6587928288E+00
                       8.2322532830E+00  8.2322532830E+00  7.9561244784E+00
                       5.4881688554E+00  5.4881688554E+00  2.5642490086E+00
                       5.4881688553E+00  5.4881688553E+00  7.8991560074E+00
                       8.1557651422E+00  5.4881688554E+00  5.2919916053E+00
                       5.4881688554E+00  8.1557651422E+00  5.2919916053E+00
                       5.4881688553E+00  2.8205725685E+00  5.2919916053E+00
                       2.8205725685E+00  5.4881688553E+00  5.2919916053E+00
                      -2.4895134211E-12 -2.4893371697E-12  1.3236445213E-01
           xangst10    2.7415640367E+00  2.7415640367E+00  2.6551329529E+00
                       8.2246921101E+00  8.2246921101E+00  7.9461594142E+00
                       5.4831280735E+00  5.4831280735E+00  2.5647458102E+00
                       5.4831280734E+00  5.4831280734E+00  7.8884465797E+00
                       8.1469376937E+00  5.4831280735E+00  5.2851232141E+00
                       5.4831280735E+00  8.1469376937E+00  5.2851232141E+00
                       5.4831280734E+00  2.8193184531E+00  5.2851232141E+00
                       2.8193184531E+00  5.4831280734E+00  5.2851232141E+00
                      -2.5057623896E-12 -2.5056008258E-12  1.3323407684E-01
            xcart1     5.2236868149E+00  5.2236868149E+00  5.0791362578E+00
                       1.5671060445E+01  1.5671060445E+01  1.5184918785E+01
                       1.0447373630E+01  1.0447373630E+01  4.8376316484E+00
                       1.0447373630E+01  1.0447373630E+01  1.5090264966E+01
                       1.5546277613E+01  1.0447373630E+01  1.0104202001E+01
                       1.0447373630E+01  1.5546277613E+01  1.0104202001E+01
                       1.0447373630E+01  5.3484696462E+00  1.0104202001E+01
                       5.3484696462E+00  1.0447373630E+01  1.0104202001E+01
                      -4.4594078669E-12 -4.4593801113E-12  2.3750055695E-01
            xcart2     5.2188765719E+00  5.2188765719E+00  5.0720603189E+00
                       1.5656629716E+01  1.5656629716E+01  1.5166107208E+01
                       1.0437753144E+01  1.0437753144E+01  4.8384884203E+00
                       1.0437753144E+01  1.0437753144E+01  1.5070411406E+01
                       1.5529187424E+01  1.0437753144E+01  1.0091558333E+01
                       1.0437753144E+01  1.5529187424E+01  1.0091558333E+01
                       1.0437753144E+01  5.3463188636E+00  1.0091558333E+01
                       5.3463188636E+00  1.0437753144E+01  1.0091558333E+01
                      -4.4931195196E-12 -4.4921064411E-12  2.3907442354E-01
            xcart3     5.2138929152E+00  5.2138929152E+00  5.0657933185E+00
                       1.5641678746E+01  1.5641678746E+01  1.5148775645E+01
                       1.0427785830E+01  1.0427785830E+01  4.8394437607E+00
                       1.0427785830E+01  1.0427785830E+01  1.5051483123E+01
                       1.5511520774E+01  1.0427785830E+01  1.0079469569E+01
                       1.0427785830E+01  1.5511520774E+01  1.0079469569E+01
                       1.0427785830E+01  5.3440508870E+00  1.0079469569E+01
                       5.3440508870E+00  1.0427785830E+01  1.0079469569E+01
                      -4.5167561467E-12 -4.5160345017E-12  2.4048448970E-01
            xcart4     5.2089324913E+00  5.2089324913E+00  5.0594148410E+00
                       1.5626797474E+01  1.5626797474E+01  1.5131242895E+01
                       1.0417864983E+01  1.0417864983E+01  4.8403471968E+00
                       1.0417864983E+01  1.0417864983E+01  1.5032463180E+01
                       1.5493956891E+01  1.0417864983E+01  1.0067305900E+01
                       1.0417864983E+01  1.5493956891E+01  1.0067305900E+01
                       1.0417864983E+01  5.3417730744E+00  1.0067305900E+01
                       5.3417730744E+00  1.0417864983E+01  1.0067305900E+01
                      -4.5464933919E-12 -4.5447725462E-12  2.4193271684E-01
            xcart5     5.2042672899E+00  5.2042672899E+00  5.0531073757E+00
                       1.5612801870E+01  1.5612801870E+01  1.5112639927E+01
                       1.0408534580E+01  1.0408534580E+01  4.8407582056E+00
                       1.0408534580E+01  1.0408534580E+01  1.5010974782E+01
                       1.5477564835E+01  1.0408534580E+01  1.0053925607E+01
                       1.0408534580E+01  1.5477564835E+01  1.0053925607E+01
                       1.0408534580E+01  5.3395043247E+00  1.0053925607E+01
                       5.3395043247E+00  1.0408534580E+01  1.0053925607E+01
                      -4.5719771516E-12 -4.5718383738E-12  2.4307768788E-01
            xcart6     5.1993096153E+00  5.1993096153E+00  5.0468351517E+00
                       1.5597928846E+01  1.5597928846E+01  1.5095203304E+01
                       1.0398619231E+01  1.0398619231E+01  4.8415306759E+00
                       1.0398619230E+01  1.0398619230E+01  1.4991947569E+01
                       1.5460049990E+01  1.0398619231E+01  1.0041727763E+01
                       1.0398619231E+01  1.5460049990E+01  1.0041727763E+01
                       1.0398619230E+01  5.3371884706E+00  1.0041727763E+01
                       5.3371884706E+00  1.0398619230E+01  1.0041727763E+01
                      -4.5957948094E-12 -4.5959613429E-12  2.4451746732E-01
            xcart7     5.1944152572E+00  5.1944152572E+00  5.0404707832E+00
                       1.5583245772E+01  1.5583245772E+01  1.5077430012E+01
                       1.0388830515E+01  1.0388830515E+01  4.8423768835E+00
                       1.0388830514E+01  1.0388830514E+01  1.4972411912E+01
                       1.5442810164E+01  1.0388830514E+01  1.0029263706E+01
                       1.0388830514E+01  1.5442810164E+01  1.0029263706E+01
                       1.0388830514E+01  5.3348508646E+00  1.0029263706E+01
                       5.3348508646E+00  1.0388830514E+01  1.0029263706E+01
                      -4.6259689079E-12 -4.6260799302E-12  2.4592941091E-01
            xcart8     5.1895391826E+00  5.1895391826E+00  5.0338561617E+00
                       1.5568617548E+01  1.5568617548E+01  1.5059336076E+01
                       1.0379078365E+01  1.0379078365E+01  4.8431698969E+00
                       1.0379078365E+01  1.0379078365E+01  1.4952956295E+01
                       1.5425659825E+01  1.0379078365E+01  1.0016762202E+01
                       1.0379078365E+01  1.5425659825E+01  1.0016762202E+01
                       1.0379078365E+01  5.3324969049E+00  1.0016762202E+01
                       5.3324969049E+00  1.0379078365E+01  1.0016762202E+01
                      -4.6556207532E-12 -4.6544827746E-12  2.4747207509E-01
            xcart9     5.1855680538E+00  5.1855680538E+00  5.0243902904E+00
                       1.5556704161E+01  1.5556704161E+01  1.5034896343E+01
                       1.0371136108E+01  1.0371136108E+01  4.8457283629E+00
                       1.0371136108E+01  1.0371136108E+01  1.4927241535E+01
                       1.5412162523E+01  1.0371136108E+01  1.0000414832E+01
                       1.0371136108E+01  1.5412162523E+01  1.0000414832E+01
                       1.0371136108E+01  5.3301096924E+00  1.0000414832E+01
                       5.3301096924E+00  1.0371136108E+01  1.0000414832E+01
                      -4.7044985700E-12 -4.7041655031E-12  2.5013256425E-01
            xcart10    5.1808052051E+00  5.1808052051E+00  5.0174741274E+00
                       1.5542415615E+01  1.5542415615E+01  1.5016065101E+01
                       1.0361610410E+01  1.0361610410E+01  4.8466671817E+00
                       1.0361610410E+01  1.0361610410E+01  1.4907003650E+01
                       1.5395481063E+01  1.0361610410E+01  9.9874354532E+00
                       1.0361610410E+01  1.5395481063E+01  9.9874354532E+00
                       1.0361610410E+01  5.3277397577E+00  9.9874354532E+00
                       5.3277397577E+00  1.0361610410E+01  9.9874354532E+00
                      -4.7352046704E-12 -4.7348993591E-12  2.5177591680E-01
             xred1     2.5129851371E-01  2.5129851371E-01  2.4870148629E-01
                       7.5129851371E-01  7.5129851371E-01  7.4870148629E-01
                       2.3934968101E-01  2.3934968101E-01  7.6065031899E-01
                       7.4661536231E-01  7.4661536231E-01  2.5338463769E-01
                       2.5589377220E-01  7.4394982957E-01  7.4410622780E-01
                       7.4394982957E-01  2.5589377220E-01  7.4410622780E-01
                       2.5589377220E-01  7.4394982957E-01  2.5605017043E-01
                       7.4394982957E-01  2.5589377220E-01  2.5605017043E-01
                       1.1750725702E-02  1.1750725702E-02 -1.1750725702E-02
             xred2     2.5124018021E-01  2.5124018021E-01  2.4875981979E-01
                       7.5124018021E-01  7.5124018021E-01  7.4875981979E-01
                       2.3967039551E-01  2.3967039551E-01  7.6032960449E-01
                       7.4649997034E-01  7.4649997034E-01  2.5350002966E-01
                       2.5598160343E-01  7.4377185963E-01  7.4401839657E-01
                       7.4377185963E-01  2.5598160343E-01  7.4401839657E-01
                       2.5598160343E-01  7.4377185963E-01  2.5622814037E-01
                       7.4377185963E-01  2.5598160343E-01  2.5622814037E-01
                       1.1842347582E-02  1.1842347582E-02 -1.1842347582E-02
             xred3     2.5120510750E-01  2.5120510750E-01  2.4879489250E-01
                       7.5120510750E-01  7.5120510750E-01  7.4879489250E-01
                       2.3998077176E-01  2.3998077176E-01  7.6001922824E-01
                       7.4638051695E-01  7.4638051695E-01  2.5361948305E-01
                       2.5606672844E-01  7.4358488676E-01  7.4393327156E-01
                       7.4358488676E-01  2.5606672844E-01  7.4393327156E-01
                       2.5606672844E-01  7.4358488676E-01  2.5641511324E-01
                       7.4358488676E-01  2.5606672844E-01  2.5641511324E-01
                       1.1925265855E-02  1.1925265855E-02 -1.1925265855E-02
             xred4     2.5116666082E-01  2.5116666082E-01  2.4883333918E-01
                       7.5116666082E-01  7.5116666082E-01  7.4883333918E-01
                       2.4029139353E-01  2.4029139353E-01  7.5970860647E-01
                       7.4626289786E-01  7.4626289786E-01  2.5373710214E-01
                       2.5615111936E-01  7.4339989026E-01  7.4384888064E-01
                       7.4339989026E-01  2.5615111936E-01  7.4384888064E-01
                       2.5615111936E-01  7.4339989026E-01  2.5660010974E-01
                       7.4339989026E-01  2.5615111936E-01  2.5660010974E-01
                       1.2010367709E-02  1.2010367709E-02 -1.2010367709E-02
             xred5     2.5116014835E-01  2.5116014835E-01  2.4883985165E-01
                       7.5116014835E-01  7.5116014835E-01  7.4883985165E-01
                       2.4060552422E-01  2.4060552422E-01  7.5939447578E-01
                       7.4610697394E-01  7.4610697394E-01  2.5389302606E-01
                       2.5621776124E-01  7.4322486260E-01  7.4378223876E-01
                       7.4322486260E-01  2.5621776124E-01  7.4378223876E-01
                       2.5621776124E-01  7.4322486260E-01  2.5677513740E-01
                       7.4322486260E-01  2.5621776124E-01  2.5677513740E-01
                       1.2081957419E-02  1.2081957419E-02 -1.2081957419E-02
             xred6     2.5112710218E-01  2.5112710218E-01  2.4887289782E-01
                       7.5112710218E-01  7.5112710218E-01  7.4887289782E-01
                       2.4091129039E-01  2.4091129039E-01  7.5908870961E-01
                       7.4598916666E-01  7.4598916666E-01  2.5401083334E-01
                       2.5629925003E-01  7.4303990739E-01  7.4370074997E-01
                       7.4303990739E-01  2.5629925003E-01  7.4370074997E-01
                       2.5629925003E-01  7.4303990739E-01  2.5696009261E-01
                       7.4303990739E-01  2.5629925003E-01  2.5696009261E-01
                       1.2167023720E-02  1.2167023720E-02 -1.2167023720E-02
             xred7     2.5109550953E-01  2.5109550953E-01  2.4890449047E-01
                       7.5109550953E-01  7.5109550953E-01  7.4890449047E-01
                       2.4122728674E-01  2.4122728674E-01  7.5877271326E-01
                       7.4586394003E-01  7.4586394003E-01  2.5413605997E-01
                       2.5637561172E-01  7.4285766980E-01  7.4362438828E-01
                       7.4285766980E-01  2.5637561172E-01  7.4362438828E-01
                       2.5637561172E-01  7.4285766980E-01  2.5714233020E-01
                       7.4285766980E-01  2.5637561172E-01  2.5714233020E-01
                       1.2251191089E-02  1.2251191089E-02 -1.2251191089E-02
             xred8     2.5105312687E-01  2.5105312687E-01  2.4894687313E-01
                       7.5105312687E-01  7.5105312687E-01  7.4894687313E-01
                       2.4154304524E-01  2.4154304524E-01  7.5845695476E-01
                       7.4574765612E-01  7.4574765612E-01  2.5425234388E-01
                       2.5645204382E-01  7.4267840060E-01  7.4354795618E-01
                       7.4267840060E-01  2.5645204382E-01  7.4354795618E-01
                       2.5645204382E-01  7.4267840060E-01  2.5732159940E-01
                       7.4267840060E-01  2.5645204382E-01  2.5732159940E-01
                       1.2342156047E-02  1.2342156047E-02 -1.2342156047E-02
             xred9     2.5095585897E-01  2.5095585897E-01  2.4904414103E-01
                       7.5095585897E-01  7.5095585897E-01  7.4904414103E-01
                       2.4203213790E-01  2.4203213790E-01  7.5796786210E-01
                       7.4557876776E-01  7.4557876776E-01  2.5442123224E-01
                       2.5646442579E-01  7.4252751116E-01  7.4353557421E-01
                       7.4252751116E-01  2.5646442579E-01  7.4353557421E-01
                       2.5646442579E-01  7.4252751116E-01  2.5747248884E-01
                       7.4252751116E-01  2.5646442579E-01  2.5747248884E-01
                       1.2493502473E-02  1.2493502473E-02 -1.2493502473E-02
             xred10    2.5090906011E-01  2.5090906011E-01  2.4909093989E-01
                       7.5090906011E-01  7.5090906011E-01  7.4909093989E-01
                       2.4236750930E-01  2.4236750930E-01  7.5763249070E-01
                       7.4545521908E-01  7.4545521908E-01  2.5454478092E-01
                       2.5653247915E-01  7.4235181159E-01  7.4346752085E-01
                       7.4235181159E-01  2.5653247915E-01  7.4346752085E-01
                       2.5653247915E-01  7.4235181159E-01  2.5764818841E-01
                       7.4235181159E-01  2.5653247915E-01  2.5764818841E-01
                       1.2590569885E-02  1.2590569885E-02 -1.2590569885E-02
            znucl       55.00000   53.00000   40.00000   17.00000

- Timing analysis has been suppressed with timopt=0

 Suggested references for the acknowledgment of ABINIT usage.

 Calculation completed.
.Delivered   0 WARNINGs and 241 COMMENTs to log file.