.Version 9.2.2 of ABINIT

 ABINIT is a project of the Universite Catholique de Louvain,
 Corning Inc. and other collaborators, see ~abinit/doc/developers/contributors.txt .
 acknowledgments of the ABINIT effort.

.Starting date : Wed  9 Nov 2022.
- ( at 10h04 )

- input  file    -> Cs2TiI6.in
- output file    -> Cs2TiI6.out
- root for input  files -> Cs2TiI6i
- root for output files -> Cs2TiI6o

- inpspheads : Reading pseudopotential header in XML form from
-   ../../../Psps_for_tests/ATOMICDATA/Cs.GGA_PBE-JTH.xml
- inpspheads : Reading pseudopotential header in XML form from
-   ../../../Psps_for_tests/ATOMICDATA/I.GGA_PBE-JTH.xml
- inpspheads : Reading pseudopotential header in XML form from
-   ../../../Psps_for_tests/ATOMICDATA/Hf.GGA_PBE-JTH.xml
- inpspheads : Reading pseudopotential header in XML form from
-   ../../../Psps_for_tests/ATOMICDATA/Cl.GGA_PBE-JTH.xml

 DATASET    1 : space group I4 m m (#107); Bravais tI (body-center tetrag.)
     intxc =       0    ionmov =       0      iscf =      17    lmnmax =      18
     lnmax =       6     mgfft =      60  mpssoang =       3    mqgrid =    3506
     natom =       9  nloc_mem =       2    nspden =       1   nspinor =       1
    nsppol =       1      nsym =       8    n1xccc =       1    ntypat =       4
    occopt =       1   xclevel =       2
-    mband =          42        mffmem =           1         mkmem =          41
       mpw =        7459          nfft =      216000          nkpt =         163
Pmy_natom=         3
 PAW method is used; the additional fine FFT grid is defined by:
   mgfftf=        90    nfftf =    729000
  Rough estimation (10% accuracy) of disk space for files :

[...]

 DATASET   10 : space group I4 m m (#107); Bravais tI (body-center tetrag.)
     intxc =       0    ionmov =       0      iscf =      17    lmnmax =      18
     lnmax =       6     mgfft =      60  mpssoang =       3    mqgrid =    3474
     natom =       9  nloc_mem =       2    nspden =       1   nspinor =       1
    nsppol =       1      nsym =       8    n1xccc =       1    ntypat =       4
    occopt =       1   xclevel =       2
-    mband =          42        mffmem =           1         mkmem =          41
       mpw =        7258          nfft =      216000          nkpt =         163
Pmy_natom=         3
 PAW method is used; the additional fine FFT grid is defined by:
   mgfftf=        90    nfftf =    729000
  Rough estimation (10% accuracy) of disk space for files :

------------- Echo of variables that govern the present computation ------------
-
- outvars: echo of selected default values
-   iomode0 =  0 , fftalg0 =112 , wfoptalg0 = 10
-
- outvars: echo of global parameters not present in the input file
-  max_nthreads =    0
-
 -outvars: echo values of preprocessed input variables --------
            acell1     1.5016898283E+01  1.5213950364E+01  1.5016898283E+01 Bohr
            acell2     1.5001643827E+01  1.5199210972E+01  1.5001643827E+01 Bohr
            acell3     1.4986413866E+01  1.5184417815E+01  1.4986413866E+01 Bohr
            acell4     1.4971025748E+01  1.5169973244E+01  1.4971025748E+01 Bohr
            acell5     1.4954716948E+01  1.5157560504E+01  1.4954716948E+01 Bohr
            acell6     1.4939338447E+01  1.5143096797E+01  1.4939338447E+01 Bohr
            acell7     1.4923654167E+01  1.5129309649E+01  1.4923654167E+01 Bohr
            acell8     1.4908282824E+01  1.5114831375E+01  1.4908282824E+01 Bohr
            acell9     1.4892723123E+01  1.5100770659E+01  1.4892723123E+01 Bohr
            acell10    1.4877187468E+01  1.5086657673E+01  1.4877187468E+01 Bohr
              amu      1.32905430E+02  1.26904470E+02  1.78490000E+02
                       3.54527000E+01
           diemac      1.20000000E+01
             ecut      1.60000000E+01 Hartree
-          fftalg         112
           istwfk        2    0    0    0    0    0    3    0    0    0
                         0    0    0    0    0    0    0    0    0    0
                         0    0    0    0    0    0    0    0    0    0
                         0    0    0    0    0    0    0    0    0    0
                         0    0    7    0    0    0    0    0    0    0
                       outvar_i_n : Printing only first  50 k-points.
              ixc     -101130
           jdtset        1    2    3    4    5    6    7    8    9   10
              kpt      0.00000000E+00  0.00000000E+00  0.00000000E+00
                       8.33333333E-02  0.00000000E+00  0.00000000E+00
                       1.66666667E-01  0.00000000E+00  0.00000000E+00
                       2.50000000E-01  0.00000000E+00  0.00000000E+00
                       3.33333333E-01  0.00000000E+00  0.00000000E+00
                       4.16666667E-01  0.00000000E+00  0.00000000E+00
                       5.00000000E-01  0.00000000E+00  0.00000000E+00
                       8.33333333E-02  8.33333333E-02  0.00000000E+00
                       1.66666667E-01  8.33333333E-02  0.00000000E+00
                       2.50000000E-01  8.33333333E-02  0.00000000E+00
                       3.33333333E-01  8.33333333E-02  0.00000000E+00
                       4.16666667E-01  8.33333333E-02  0.00000000E+00
                       5.00000000E-01  8.33333333E-02  0.00000000E+00
                      -4.16666667E-01  8.33333333E-02  0.00000000E+00
                      -3.33333333E-01  8.33333333E-02  0.00000000E+00
                      -2.50000000E-01  8.33333333E-02  0.00000000E+00
                      -1.66666667E-01  8.33333333E-02  0.00000000E+00
                      -8.33333333E-02  8.33333333E-02  0.00000000E+00
                       1.66666667E-01  1.66666667E-01  0.00000000E+00
                       2.50000000E-01  1.66666667E-01  0.00000000E+00
                       3.33333333E-01  1.66666667E-01  0.00000000E+00
                       4.16666667E-01  1.66666667E-01  0.00000000E+00
                       5.00000000E-01  1.66666667E-01  0.00000000E+00
                      -4.16666667E-01  1.66666667E-01  0.00000000E+00
                      -3.33333333E-01  1.66666667E-01  0.00000000E+00
                      -2.50000000E-01  1.66666667E-01  0.00000000E+00
                      -1.66666667E-01  1.66666667E-01  0.00000000E+00
                       2.50000000E-01  2.50000000E-01  0.00000000E+00
                       3.33333333E-01  2.50000000E-01  0.00000000E+00
                       4.16666667E-01  2.50000000E-01  0.00000000E+00
                       5.00000000E-01  2.50000000E-01  0.00000000E+00
                      -4.16666667E-01  2.50000000E-01  0.00000000E+00
                      -3.33333333E-01  2.50000000E-01  0.00000000E+00
                      -2.50000000E-01  2.50000000E-01  0.00000000E+00
                       3.33333333E-01  3.33333333E-01  0.00000000E+00
                       4.16666667E-01  3.33333333E-01  0.00000000E+00
                       5.00000000E-01  3.33333333E-01  0.00000000E+00
                      -4.16666667E-01  3.33333333E-01  0.00000000E+00
                      -3.33333333E-01  3.33333333E-01  0.00000000E+00
                       4.16666667E-01  4.16666667E-01  0.00000000E+00
                       5.00000000E-01  4.16666667E-01  0.00000000E+00
                      -4.16666667E-01  4.16666667E-01  0.00000000E+00
                       5.00000000E-01  5.00000000E-01  0.00000000E+00
                       8.33333333E-02  0.00000000E+00  8.33333333E-02
                       1.66666667E-01  0.00000000E+00  8.33333333E-02
                       2.50000000E-01  0.00000000E+00  8.33333333E-02
                       3.33333333E-01  0.00000000E+00  8.33333333E-02
                       4.16666667E-01  0.00000000E+00  8.33333333E-02
                       5.00000000E-01  0.00000000E+00  8.33333333E-02
                      -4.16666667E-01  0.00000000E+00  8.33333333E-02
                       outvar_i_n : Printing only first  50 k-points.
         kptrlatt       12    0    0      0   12    0      0    0   12
          kptrlen1     1.80202779E+02
          kptrlen2     1.80019726E+02
          kptrlen3     1.79836966E+02
          kptrlen4     1.79652309E+02
          kptrlen5     1.79456603E+02
          kptrlen6     1.79272061E+02
          kptrlen7     1.79083850E+02
          kptrlen8     1.78899394E+02
          kptrlen9     1.78712677E+02
          kptrlen10    1.78526250E+02
P           mkmem          41
            natom           9
            nband          42
           ndtset          10
            ngfft          60      60      60
          ngfftdg          90      90      90
             nkpt         163
            nstep        2500
             nsym           8
           ntypat           4
              occ      2.000000  2.000000  2.000000  2.000000  2.000000  2.000000
                       2.000000  2.000000  2.000000  2.000000  2.000000  2.000000
                       2.000000  2.000000  2.000000  2.000000  2.000000  2.000000
                       2.000000  2.000000  2.000000  2.000000  2.000000  2.000000
                       2.000000  2.000000  2.000000  2.000000  2.000000  2.000000
                       2.000000  2.000000  2.000000  2.000000  2.000000  2.000000
                       0.000000  0.000000  0.000000  0.000000  0.000000  0.000000
        pawecutdg      4.00000000E+01 Hartree
            prtwf           0
            rprim1     0.0000000000E+00  6.9770472514E-01  7.1638545247E-01
                       7.0710678119E-01  0.0000000000E+00  7.0710678119E-01
                       7.1638545247E-01  6.9770472514E-01  0.0000000000E+00
            rprim2     0.0000000000E+00  6.9767010811E-01  7.1641916519E-01
                       7.0710678119E-01  0.0000000000E+00  7.0710678119E-01
                       7.1641916519E-01  6.9767010811E-01  0.0000000000E+00
            rprim3     0.0000000000E+00  6.9763922510E-01  7.1644923867E-01
                       7.0710678119E-01  0.0000000000E+00  7.0710678119E-01
                       7.1644923867E-01  6.9763922510E-01  0.0000000000E+00
            rprim4     0.0000000000E+00  6.9758359217E-01  7.1650340678E-01
                       7.0710678119E-01  0.0000000000E+00  7.0710678119E-01
                       7.1650340678E-01  6.9758359217E-01  0.0000000000E+00
            rprim5     0.0000000000E+00  6.9738379657E-01  7.1669787239E-01
                       7.0710678119E-01  0.0000000000E+00  7.0710678119E-01
                       7.1669787239E-01  6.9738379657E-01  0.0000000000E+00
            rprim6     0.0000000000E+00  6.9732914788E-01  7.1675104431E-01
                       7.0710678119E-01  0.0000000000E+00  7.0710678119E-01
                       7.1675104431E-01  6.9732914788E-01  0.0000000000E+00
            rprim7     0.0000000000E+00  6.9722632225E-01  7.1685106930E-01
                       7.0710678119E-01  0.0000000000E+00  7.0710678119E-01
                       7.1685106930E-01  6.9722632225E-01  0.0000000000E+00
            rprim8     0.0000000000E+00  6.9717243757E-01  7.1690347488E-01
                       7.0710678119E-01  0.0000000000E+00  7.0710678119E-01
                       7.1690347488E-01  6.9717243757E-01  0.0000000000E+00
[...]
                       8.2622289402E-13 -9.1820487571E-02  8.2622289402E-13
           xangst7     2.8305787969E+00  2.7358981839E+00  2.8305787969E+00
                       8.4917363908E+00  8.2420740939E+00  8.4917363908E+00
                       5.6611575939E+00  8.5031208441E+00  5.6611575939E+00
                       5.6611575939E+00  5.4971947713E+00  2.8401861159E+00
                       5.6611575939E+00  5.4971947713E+00  8.4821290718E+00
                       5.6611575939E+00  2.7493949102E+00  5.6611575939E+00
                       8.4821290718E+00  5.4971947713E+00  5.6611575939E+00
                       2.8401861159E+00  5.4971947713E+00  5.6611575939E+00
                       2.3935783941E-13 -9.2507106943E-02  2.3935783941E-13
           xangst8     2.8278700219E+00  2.7336981895E+00  2.8278700219E+00
                       8.4836100656E+00  8.2337776431E+00  8.4836100656E+00
                       5.6557400436E+00  8.4900355202E+00  5.6557400436E+00
                       5.6557400436E+00  5.4915143330E+00  2.8393266610E+00
                       5.6557400438E+00  5.4915143330E+00  8.4721534264E+00
                       5.6557400438E+00  2.7477463062E+00  5.6557400438E+00
                       8.4721534264E+00  5.4915143330E+00  5.6557400438E+00
                       2.8393266610E+00  5.4915143330E+00  5.6557400436E+00
                       3.5340940704E-12 -9.3412277381E-02  3.5340940704E-12
           xangst9     2.8252393689E+00  2.7308832500E+00  2.8252393689E+00
                       8.4757181068E+00  8.2245625013E+00  8.4757181068E+00
                       5.6504787379E+00  8.4765198686E+00  5.6504787379E+00
                       5.6504787379E+00  5.4856259796E+00  2.8384697330E+00
                       5.6504787379E+00  5.4856259796E+00  8.4624877428E+00
                       5.6504787379E+00  2.7462303094E+00  5.6504787379E+00
                       8.4624877428E+00  5.4856259796E+00  5.6504787379E+00
                       2.8384697330E+00  5.4856259796E+00  5.6504787379E+00
                      -1.1522013703E-12 -9.4088665143E-02 -1.1522013703E-12
           xangst10    2.8225989365E+00  2.7287051284E+00  2.8225989365E+00
                       8.4677968095E+00  8.2160224012E+00  8.4677968095E+00
                       5.6451978730E+00  8.4627217756E+00  5.6451978730E+00
                       5.6451978730E+00  5.4797417915E+00  2.8375822713E+00
                       5.6451978730E+00  5.4797417915E+00  8.4528134747E+00
                       5.6451978730E+00  2.7444687725E+00  5.6451978730E+00
                       8.4528134747E+00  5.4797417915E+00  5.6451978730E+00
                       2.8375822713E+00  5.4797417915E+00  5.6451978730E+00
                       1.3979417741E-12 -9.5259263622E-02  1.3979417741E-12
            xcart1     5.3789437356E+00  5.2025884596E+00  5.3789437356E+00
                       1.6136831207E+01  1.5679949349E+01  1.6136831207E+01
                       1.0757887471E+01  1.6218671744E+01  1.0757887471E+01
                       1.0757887471E+01  1.0455614459E+01  5.3762305081E+00
                       1.0757887471E+01  1.0455614459E+01  1.6139544434E+01
                       1.0757887471E+01  5.2112386626E+00  1.0757887471E+01
                       1.6139544434E+01  1.0455614459E+01  1.0757887471E+01
                       5.3762305081E+00  1.0455614459E+01  1.0757887471E+01
                      -7.2872138499E-13 -1.6882922305E-01 -7.2872138499E-13
            xcart2     5.3737325735E+00  5.1975544880E+00  5.3737325735E+00
                       1.6121197721E+01  1.5663752959E+01  1.6121197721E+01
                       1.0747465147E+01  1.6195264972E+01  1.0747465147E+01
                       1.0747465147E+01  1.0445350462E+01  5.3747230832E+00
                       1.0747465147E+01  1.0445350462E+01  1.6120207211E+01
                       1.0747465147E+01  5.2086831960E+00  1.0747465147E+01
                       1.6120207211E+01  1.0445350462E+01  1.0747465147E+01
                       5.3747230832E+00  1.0445350462E+01  1.0747465147E+01
                       1.7539007486E-13 -1.7003679407E-01  1.7539007486E-13
            xcart3     5.3685024025E+00  5.1923006072E+00  5.3685024025E+00
                       1.6105507208E+01  1.5647410764E+01  1.6105507208E+01
                       1.0737004805E+01  1.6172280567E+01  1.0737004805E+01
                       1.0737004805E+01  1.0435099764E+01  5.3732158165E+00
                       1.0737004805E+01  1.0435099764E+01  1.6100793794E+01
                       1.0737004805E+01  5.2062596007E+00  1.0737004805E+01
                       1.6100793794E+01  1.0435099764E+01  1.0737004805E+01
                       5.3732158165E+00  1.0435099764E+01  1.0737004805E+01
                       5.8803124688E-12 -1.7089221416E-01  5.8803124688E-12
            xcart4     5.3633954757E+00  5.1869198176E+00  5.3633954757E+00
                       1.6090186427E+01  1.5630461737E+01  1.6090186427E+01
                       1.0726790951E+01  1.6148323689E+01  1.0726790951E+01
                       1.0726790951E+01  1.0424327641E+01  5.3716880915E+00
                       1.0726790951E+01  1.0424327641E+01  1.6081893811E+01
                       1.0726790951E+01  5.2038248620E+00  1.0726790951E+01
                       1.6081893811E+01  1.0424327641E+01  1.0726790951E+01
                       5.3716880915E+00  1.0424327641E+01  1.0726790951E+01
                      -1.0678835104E-12 -1.7179069744E-01 -1.0678835104E-12
            xcart5     5.3590069094E+00  5.1796786518E+00  5.3590069094E+00
                       1.6077020728E+01  1.5608855934E+01  1.6077020728E+01
                       1.0718013819E+01  1.6119394089E+01  1.0718013819E+01
                       1.0718013819E+01  1.0410629327E+01  5.3703165396E+00
                       1.0718013819E+01  1.0410629327E+01  1.6065711098E+01
                       1.0718013819E+01  5.2014760409E+00  1.0718013819E+01
                       1.6065711098E+01  1.0410629327E+01  1.0718013819E+01
                       5.3703165396E+00  1.0410629327E+01  1.0718013819E+01
                      -1.2381790269E-12 -1.7199095229E-01 -1.2381790269E-12
            xcart6     5.3538932166E+00  5.1754245411E+00  5.3538932166E+00
                       1.6061679650E+01  1.5593060690E+01  1.6061679650E+01
                       1.0707786433E+01  1.6094753094E+01  1.0707786433E+01
                       1.0707786433E+01  1.0399808487E+01  5.3687444742E+00
                       1.0707786433E+01  1.0399808487E+01  1.6046828392E+01
                       1.0707786433E+01  5.1984831765E+00  1.0707786433E+01
                       1.6046828392E+01  1.0399808487E+01  1.0707786433E+01
                       5.3687444742E+00  1.0399808487E+01  1.0707786433E+01
                       1.5613349944E-12 -1.7351557490E-01  1.5613349944E-12
            xcart7     5.3490187238E+00  5.1700982950E+00  5.3490187238E+00
                       1.6047056171E+01  1.5575262804E+01  1.6047056171E+01
                       1.0698037447E+01  1.6068569670E+01  1.0698037447E+01
                       1.0698037447E+01  1.0388192617E+01  5.3671739256E+00
                       1.0698037448E+01  1.0388192617E+01  1.6028900969E+01
                       1.0698037448E+01  5.1956034114E+00  1.0698037448E+01
                       1.6028900969E+01  1.0388192617E+01  1.0698037448E+01
                       5.3671739256E+00  1.0388192617E+01  1.0698037447E+01
                       4.5232076424E-13 -1.7481309747E-01  4.5232076424E-13
            xcart8     5.3438998807E+00  5.1659409081E+00  5.3438998807E+00
                       1.6031699642E+01  1.5559584784E+01  1.6031699642E+01
                       1.0687799761E+01  1.6043841992E+01  1.0687799761E+01
                       1.0687799761E+01  1.0377458144E+01  5.3655497911E+00
                       1.0687799762E+01  1.0377458144E+01  1.6010049732E+01
                       1.0687799762E+01  5.1924880014E+00  1.0687799762E+01
                       1.6010049732E+01  1.0377458144E+01  1.0687799762E+01
                       5.3655497911E+00  1.0377458144E+01  1.0687799761E+01
                       6.6784699208E-12 -1.7652362170E-01  6.6784699208E-12
            xcart9     5.3389286672E+00  5.1606214433E+00  5.3389286672E+00
                       1.6016786001E+01  1.5542170690E+01  1.6016786001E+01
                       1.0677857334E+01  1.6018301112E+01  1.0677857334E+01
                       1.0677857334E+01  1.0366330769E+01  5.3639304319E+00
                       1.0677857334E+01  1.0366330769E+01  1.5991784237E+01
                       1.0677857334E+01  5.1896231825E+00  1.0677857334E+01
                       1.5991784237E+01  1.0366330769E+01  1.0677857334E+01
                       5.3639304319E+00  1.0366330769E+01  1.0677857334E+01
                      -2.1773450397E-12 -1.7780180933E-01 -2.1773450397E-12
            xcart10    5.3339389730E+00  5.1565053900E+00  5.3339389730E+00
                       1.6001816919E+01  1.5526032240E+01  1.6001816919E+01
                       1.0667877946E+01  1.5992226495E+01  1.0667877946E+01
                       1.0667877946E+01  1.0355211265E+01  5.3622533722E+00
                       1.0667877946E+01  1.0355211265E+01  1.5973502520E+01
                       1.0667877946E+01  5.1862943604E+00  1.0667877946E+01
                       1.5973502520E+01  1.0355211265E+01  1.0667877946E+01
                       5.3622533722E+00  1.0355211265E+01  1.0667877946E+01
                       2.6417271028E-12 -1.8001391987E-01  2.6417271028E-12
             xred1     2.4827762042E-01  2.5172237958E-01  2.4827762042E-01
                       7.4827762042E-01  7.5172237958E-01  7.4827762042E-01
                       7.7398649888E-01  2.2601350112E-01  7.7398649888E-01
                       2.4883611405E-01  2.5091167775E-01  7.4908832225E-01
                       7.4908832225E-01  7.5116388595E-01  2.4883611405E-01
                       2.4869042490E-01  7.5130957510E-01  2.4869042490E-01
                       2.4883611405E-01  7.5116388595E-01  7.4908832225E-01
                       7.4908832225E-01  2.5091167775E-01  2.4883611405E-01
                      -8.0568582508E-03  8.0568582508E-03 -8.0568582508E-03
             xred2     2.4830192656E-01  2.5169807344E-01  2.4830192656E-01
                       7.4830192656E-01  7.5169807344E-01  7.4830192656E-01
                       7.7369376366E-01  2.2630623634E-01  7.7369376366E-01
                       2.4905011254E-01  2.5104204963E-01  7.4895795037E-01
                       7.4895795037E-01  7.5094988746E-01  2.4905011254E-01
                       2.4883357652E-01  7.5116642348E-01  2.4883357652E-01
                       2.4905011254E-01  7.5094988746E-01  7.4895795037E-01
                       7.4895795037E-01  2.5104204963E-01  2.4905011254E-01
                      -8.1231401519E-03  8.1231401519E-03 -8.1231401519E-03
             xred3     2.4831400767E-01  2.5168599233E-01  2.4831400767E-01
                       7.4831400767E-01  7.5168599233E-01  7.4831400767E-01
                       7.7341512067E-01  2.2658487933E-01  7.7341512067E-01
                       2.4926252683E-01  2.5117646096E-01  7.4882353904E-01
                       7.4882353904E-01  7.5073747317E-01  2.4926252683E-01
                       2.4898157565E-01  7.5101842435E-01  2.4898157565E-01
                       2.4926252683E-01  7.5073747317E-01  7.4882353904E-01
                       7.4882353904E-01  2.5117646096E-01  2.4926252683E-01
                      -8.1726644483E-03  8.1726644483E-03 -8.1726644483E-03
             xred4     2.4833145007E-01  2.5166854993E-01  2.4833145007E-01
                       7.4833145007E-01  7.5166854993E-01  7.4833145007E-01
                       7.7312485615E-01  2.2687514385E-01  7.7312485615E-01
                       2.4946662562E-01  2.5130644956E-01  7.4869355044E-01
                       7.4869355044E-01  7.5053337438E-01  2.4946662562E-01
                       2.4914080405E-01  7.5085919595E-01  2.4914080405E-01
                       2.4946662562E-01  7.5053337438E-01  7.4869355044E-01
                       7.4869355044E-01  2.5130644956E-01  2.4946662562E-01
                      -8.2247334649E-03  8.2247334649E-03 -8.2247334649E-03
             xred5     2.4832633063E-01  2.5167366937E-01  2.4832633063E-01
                       7.4832633063E-01  7.5167366937E-01  7.4832633063E-01
                       7.7280276541E-01  2.2719723459E-01  7.7280276541E-01
                       2.4963836531E-01  2.5141683301E-01  7.4858316699E-01
                       7.4858316699E-01  7.5036163469E-01  2.4963836531E-01
                       2.4937135022E-01  7.5062864978E-01  2.4937135022E-01
                       2.4963836531E-01  7.5036163469E-01  7.4858316699E-01
                       7.4858316699E-01  2.5141683301E-01  2.4963836531E-01
                      -8.2456625120E-03  8.2456625120E-03 -8.2456625120E-03
             xred6     2.4839725956E-01  2.5160274044E-01  2.4839725956E-01
                       7.4839725956E-01  7.5160274044E-01  7.4839725956E-01
                       7.7247625391E-01  2.2752374609E-01  7.7247625391E-01
                       2.4983783120E-01  2.5154912750E-01  7.4845087250E-01
                       7.4845087250E-01  7.5016216880E-01  2.4983783120E-01
                       2.4950397106E-01  7.5049602894E-01  2.4950397106E-01
                       2.4983783120E-01  7.5016216880E-01  7.4845087250E-01
                       7.4845087250E-01  2.5154912750E-01  2.4983783120E-01
                      -8.3279725080E-03  8.3279725080E-03 -8.3279725080E-03
             xred7     2.4843904632E-01  2.5156095368E-01  2.4843904632E-01
                       7.4843904632E-01  7.5156095368E-01  7.4843904632E-01
                       7.7214395100E-01  2.2785604900E-01  7.7214395100E-01
                       2.5003297817E-01  2.5166408093E-01  7.4833591907E-01
                       7.4833591907E-01  7.4996702183E-01  2.5003297817E-01
                       2.4966464522E-01  7.5033535478E-01  2.4966464522E-01
                       2.5003297817E-01  7.4996702183E-01  7.4833591907E-01
                       7.4833591907E-01  2.5166408093E-01  2.5003297817E-01
                      -8.4003043542E-03  8.4003043542E-03 -8.4003043542E-03
             xred8     2.4851442716E-01  2.5148557284E-01  2.4851442716E-01
                       7.4851442716E-01  7.5148557284E-01  7.4851442716E-01
                       7.7181026127E-01  2.2818973873E-01  7.7181026127E-01
                       2.5023419682E-01  2.5179146897E-01  7.4820853103E-01
                       7.4820853103E-01  7.4976580318E-01  2.5023419682E-01
                       2.4979151023E-01  7.5020848977E-01  2.4979151023E-01
                       2.5023419682E-01  7.4976580318E-01  7.4820853103E-01
                       7.4820853103E-01  2.5179146897E-01  2.5023419682E-01
                      -8.4919025415E-03  8.4919025415E-03 -8.4919025415E-03
             xred9     2.4854775143E-01  2.5145224857E-01  2.4854775143E-01
                       7.4854775143E-01  7.5145224857E-01  7.4854775143E-01
                       7.7147932022E-01  2.2852067978E-01  7.7147932022E-01
                       2.5043777154E-01  2.5190368742E-01  7.4809631258E-01
                       7.4809631258E-01  7.4956222846E-01  2.5043777154E-01
                       2.4994454388E-01  7.5005545612E-01  2.4994454388E-01
                       2.5043777154E-01  7.4956222846E-01  7.4809631258E-01
                       7.4809631258E-01  2.5190368742E-01  2.5043777154E-01
                      -8.5633562535E-03  8.5633562535E-03 -8.5633562535E-03
             xred10    2.4863744820E-01  2.5136255180E-01  2.4863744820E-01
                       7.4863744820E-01  7.5136255180E-01  7.4863744820E-01
                       7.7111649963E-01  2.2888350037E-01  7.7111649963E-01
                       2.5063681491E-01  2.5201735862E-01  7.4798264138E-01
                       7.4798264138E-01  7.4936318509E-01  2.5063681491E-01
                       2.5007381896E-01  7.4992618104E-01  2.5007381896E-01
                       2.5063681491E-01  7.4936318509E-01  7.4798264138E-01
                       7.4798264138E-01  2.5201735862E-01  2.5063681491E-01
                      -8.6799485874E-03  8.6799485874E-03 -8.6799485874E-03
            znucl       55.00000   53.00000   72.00000   17.00000

- Timing analysis has been suppressed with timopt=0

 Suggested references for the acknowledgment of ABINIT usage.

 Calculation completed.
.Delivered   0 WARNINGs and   5 COMMENTs to log file.