.Version 9.2.2 of ABINIT

 ABINIT is a project of the Universite Catholique de Louvain,
 Corning Inc. and other collaborators, see ~abinit/doc/developers/contributors.txt .
 acknowledgments of the ABINIT effort.

.Starting date : Mon  3 Oct 2022.
- ( at 11h05 )

- input  file    -> Cs2TiI6.in
- output file    -> Cs2TiI6.out
- root for input  files -> Cs2TiI6i
- root for output files -> Cs2TiI6o

- inpspheads : Reading pseudopotential header in XML form from
-   ../../../Psps_for_tests/ATOMICDATA/Cs.GGA_PBE-JTH.xml
- inpspheads : Reading pseudopotential header in XML form from
-   ../../../Psps_for_tests/ATOMICDATA/I.GGA_PBE-JTH.xml
- inpspheads : Reading pseudopotential header in XML form from
-   ../../../Psps_for_tests/ATOMICDATA/Hf.GGA_PBE-JTH.xml
- inpspheads : Reading pseudopotential header in XML form from
-   ../../../Psps_for_tests/ATOMICDATA/Br.GGA_PBE-JTH.xml

 Symmetries : space group I4/m m m (#139); Bravais tI (body-center tetrag.)
     intxc =       0    ionmov =       0      iscf =      17    lmnmax =      18
     lnmax =       6     mgfft =      60  mpssoang =       3    mqgrid =    3582
     natom =       9  nloc_mem =       2    nspden =       1   nspinor =       1
    nsppol =       1      nsym =      16    n1xccc =       1    ntypat =       4
    occopt =       1   xclevel =       2
-    mband =          42        mffmem =           1         mkmem =          28
       mpw =        7940          nfft =      216000          nkpt =         163
Pmy_natom=         2
 PAW method is used; the additional fine FFT grid is defined by:
   mgfftf=        90    nfftf =    729000
  Rough estimation (10% accuracy) of disk space for files :

------------- Echo of variables that govern the present computation ------------
-
- outvars: echo of selected default values
-   iomode0 =  0 , fftalg0 =112 , wfoptalg0 = 10
-
- outvars: echo of global parameters not present in the input file
-  max_nthreads =    0
-
 -outvars: echo values of preprocessed input variables --------
            acell      1.5406919125E+01  1.5404955636E+01  1.5406919125E+01 Bohr
              amu      1.32905430E+02  1.26904470E+02  1.78490000E+02
                       7.99040000E+01
           diemac      1.20000000E+01
             ecut      1.60000000E+01 Hartree
-          fftalg         112
           istwfk        2    0    0    0    0    0    3    0    0    0
                         0    0    0    0    0    0    0    0    0    0
                         0    0    0    0    0    0    0    0    0    0
                         0    0    0    0    0    0    0    0    0    0
                         0    0    7    0    0    0    0    0    0    0
                       outvar_i_n : Printing only first  50 k-points.
              ixc     -101130
              kpt      0.00000000E+00  0.00000000E+00  0.00000000E+00
                       8.33333333E-02  0.00000000E+00  0.00000000E+00
                       1.66666667E-01  0.00000000E+00  0.00000000E+00
                       2.50000000E-01  0.00000000E+00  0.00000000E+00
                       3.33333333E-01  0.00000000E+00  0.00000000E+00
                       4.16666667E-01  0.00000000E+00  0.00000000E+00
                       5.00000000E-01  0.00000000E+00  0.00000000E+00
                       8.33333333E-02  8.33333333E-02  0.00000000E+00
                       1.66666667E-01  8.33333333E-02  0.00000000E+00
                       2.50000000E-01  8.33333333E-02  0.00000000E+00
                       3.33333333E-01  8.33333333E-02  0.00000000E+00
                       4.16666667E-01  8.33333333E-02  0.00000000E+00
                       5.00000000E-01  8.33333333E-02  0.00000000E+00
                      -4.16666667E-01  8.33333333E-02  0.00000000E+00
                      -3.33333333E-01  8.33333333E-02  0.00000000E+00
                      -2.50000000E-01  8.33333333E-02  0.00000000E+00
                      -1.66666667E-01  8.33333333E-02  0.00000000E+00
                      -8.33333333E-02  8.33333333E-02  0.00000000E+00
                       1.66666667E-01  1.66666667E-01  0.00000000E+00
                       2.50000000E-01  1.66666667E-01  0.00000000E+00
                       3.33333333E-01  1.66666667E-01  0.00000000E+00
                       4.16666667E-01  1.66666667E-01  0.00000000E+00
                       5.00000000E-01  1.66666667E-01  0.00000000E+00
                      -4.16666667E-01  1.66666667E-01  0.00000000E+00
                      -3.33333333E-01  1.66666667E-01  0.00000000E+00
                      -2.50000000E-01  1.66666667E-01  0.00000000E+00
                      -1.66666667E-01  1.66666667E-01  0.00000000E+00
                       2.50000000E-01  2.50000000E-01  0.00000000E+00
                       3.33333333E-01  2.50000000E-01  0.00000000E+00
                       4.16666667E-01  2.50000000E-01  0.00000000E+00
                       5.00000000E-01  2.50000000E-01  0.00000000E+00
                      -4.16666667E-01  2.50000000E-01  0.00000000E+00
                      -3.33333333E-01  2.50000000E-01  0.00000000E+00
                      -2.50000000E-01  2.50000000E-01  0.00000000E+00
                       3.33333333E-01  3.33333333E-01  0.00000000E+00
                       4.16666667E-01  3.33333333E-01  0.00000000E+00
                       5.00000000E-01  3.33333333E-01  0.00000000E+00
                      -4.16666667E-01  3.33333333E-01  0.00000000E+00
                      -3.33333333E-01  3.33333333E-01  0.00000000E+00
                       4.16666667E-01  4.16666667E-01  0.00000000E+00
                       5.00000000E-01  4.16666667E-01  0.00000000E+00
                      -4.16666667E-01  4.16666667E-01  0.00000000E+00
                       5.00000000E-01  5.00000000E-01  0.00000000E+00
                       8.33333333E-02  0.00000000E+00  8.33333333E-02
                       1.66666667E-01  0.00000000E+00  8.33333333E-02
                       2.50000000E-01  0.00000000E+00  8.33333333E-02
                       3.33333333E-01  0.00000000E+00  8.33333333E-02
                       4.16666667E-01  0.00000000E+00  8.33333333E-02
                       5.00000000E-01  0.00000000E+00  8.33333333E-02
                      -4.16666667E-01  0.00000000E+00  8.33333333E-02
                       outvar_i_n : Printing only first  50 k-points.
         kptrlatt       12    0    0      0   12    0      0    0   12
          kptrlen      1.84859468E+02
P           mkmem          28
            natom           9
            nband          42
            ngfft          60      60      60
          ngfftdg          90      90      90
             nkpt         163
            nstep        2500
             nsym          16
           ntypat           4
              occ      2.000000  2.000000  2.000000  2.000000  2.000000  2.000000
                       2.000000  2.000000  2.000000  2.000000  2.000000  2.000000
                       2.000000  2.000000  2.000000  2.000000  2.000000  2.000000
                       2.000000  2.000000  2.000000  2.000000  2.000000  2.000000
                       2.000000  2.000000  2.000000  2.000000  2.000000  2.000000
                       2.000000  2.000000  2.000000  2.000000  2.000000  2.000000
                       0.000000  0.000000  0.000000  0.000000  0.000000  0.000000
        pawecutdg      4.00000000E+01 Hartree
            prtwf           0
            rprim      0.0000000000E+00  7.0719688479E-01  7.0701666610E-01
                       7.0710678119E-01  0.0000000000E+00  7.0710678119E-01
                       7.0701666610E-01  7.0719688479E-01  0.0000000000E+00
          spgroup         139
           symrel      1  0  0   0  1  0   0  0  1      -1  0  0   0 -1  0   0  0 -1
                       0  0 -1   0 -1  0  -1  0  0       0  0  1   0  1  0   1  0  0
                       0 -1  1   0 -1  0   1 -1  0       0  1 -1   0  1  0  -1  1  0
                      -1  1  0   0  1  0   0  1 -1       1 -1  0   0 -1  0   0 -1  1
                       0 -1  1  -1  0  1   0  0  1       0  1 -1   1  0 -1   0  0 -1
                       0  0 -1   1  0 -1   0  1 -1       0  0  1  -1  0  1   0 -1  1
                       1  0  0   1  0 -1   1 -1  0      -1  0  0  -1  0  1  -1  1  0
                      -1  1  0  -1  0  1  -1  0  0       1 -1  0   1  0 -1   1  0  0
           toldfe      1.00000000E-08 Hartree
            typat      1  1  2  4  4  2  4  4  3
           useylm           1
              wtk        0.00058    0.00463    0.00463    0.00463    0.00463    0.00463
                         0.00231    0.00231    0.00926    0.00926    0.00926    0.00926
                         0.00926    0.00926    0.00926    0.00926    0.00926    0.00463
                         0.00231    0.00926    0.00926    0.00926    0.00926    0.00926
                         0.00926    0.00926    0.00463    0.00231    0.00926    0.00926
                         0.00926    0.00926    0.00926    0.00463    0.00231    0.00926
                         0.00926    0.00926    0.00463    0.00231    0.00926    0.00463
                         0.00116    0.00116    0.00463    0.00463    0.00463    0.00463
                         0.00463    0.00463
                       outvars : Printing only first  50 k-points.
           xangst      2.8821500652E+00  2.8828847259E+00  2.8821500652E+00
                       8.6464501957E+00  8.6486541778E+00  8.6464501957E+00
                       5.7643001306E+00  8.6454369555E+00  5.7643001306E+00
                       5.7643001306E+00  5.7657694519E+00  2.6185380066E+00
                       5.7643001304E+00  5.7657694519E+00  8.9100622544E+00
                       5.7643001304E+00  2.8861019483E+00  5.7643001304E+00
                       8.9100622544E+00  5.7657694519E+00  5.7643001304E+00
                       2.6185380066E+00  5.7657694519E+00  5.7643001306E+00
                       5.7060550859E-22  1.0136815942E-22 -7.8956711756E-23
            xcart      5.4464742972E+00  5.4478626047E+00  5.4464742972E+00
                       1.6339422892E+01  1.6343587814E+01  1.6339422892E+01
                       1.0892948595E+01  1.6337508145E+01  1.0892948595E+01
                       1.0892948595E+01  1.0895725209E+01  4.9483197010E+00
                       1.0892948594E+01  1.0895725209E+01  1.6837577488E+01
                       1.0892948594E+01  5.4539422738E+00  1.0892948594E+01
                       1.6837577488E+01  1.0895725209E+01  1.0892948594E+01
                       4.9483197010E+00  1.0895725209E+01  1.0892948595E+01
                       1.0782881411E-21  1.9155805990E-22 -1.4920656157E-22
             xred      2.5000000000E-01  2.5000000000E-01  2.5000000000E-01
                       7.5000000000E-01  7.5000000000E-01  7.5000000000E-01
                       7.4972100668E-01  2.5027899332E-01  7.4972100668E-01
                       2.2713407936E-01  2.2713407936E-01  7.7286592064E-01
                       7.7286592064E-01  7.7286592064E-01  2.2713407936E-01
                       2.5027899332E-01  7.4972100668E-01  2.5027899332E-01
                       2.2713407936E-01  7.7286592064E-01  7.7286592064E-01
[...]
   0.00000   0.00000   0.00000   0.00000   0.00000   0.00000   0.00000   0.00000   0.00000   0.00000   0.00000   0.48844 ...
   ...  only 12  components have been written...

 ----iterations are completed or convergence reached----

 Mean square residual over all n,k,spin=   20.249E-07; max=  89.906E-05
 reduced coordinates (array xred) for    9 atoms
       0.250000000000      0.250000000000      0.250000000000
       0.750000000000      0.750000000000      0.750000000000
       0.749721006680      0.250278993320      0.749721006680
       0.227134079360      0.227134079360      0.772865920640
       0.772865920640      0.772865920640      0.227134079360
       0.250278993320      0.749721006680      0.250278993320
       0.227134079360      0.772865920640      0.772865920640
       0.772865920640      0.227134079360      0.227134079360
      -0.000000000000      0.000000000000      0.000000000000
 rms dE/dt=  2.8193E-05; max dE/dt=  5.1102E-05; dE/dt below (all hartree)
    1       0.000000000000      0.000000000000      0.000000000000
    2      -0.000000000000     -0.000000000000      0.000000000000
    3       0.000011928994      0.000000000000      0.000011928994
    4      -0.000051102327     -0.000051102327      0.000000000000
    5       0.000051102327      0.000051102327      0.000000000000
    6      -0.000011928994      0.000000000000     -0.000011928994
    7       0.000000000000      0.000051102327      0.000051102327
    8      -0.000000000000     -0.000051102327     -0.000051102327
    9       0.000000000000      0.000000000000      0.000000000000

 cartesian coordinates (angstrom) at end:
    1      2.88215006524637     2.88288472594003     2.88215006524637
    2      8.64645019573912     8.64865417782008     8.64645019573912
    3      5.76430013055659     8.64543695549661     5.76430013055659
    4      5.76430013056251     5.76576945188005     2.61853800658840
    5      5.76430013042299     5.76576945188006     8.91006225439710
    6      5.76430013042891     2.88610194826350     5.76430013042891
    7      8.91006225439710     5.76576945188005     5.76430013042299
    8      2.61853800658840     5.76576945188005     5.76430013056251
    9      0.00000000000000     0.00000000000000    -0.00000000000000

 cartesian forces (hartree/bohr) at end:
    1     -0.00000000000000     0.00000000000000     0.00000000000000
    2     -0.00000000000000     0.00000000000000     0.00000000000000
    3     -0.00000000000000    -0.00000109483254     0.00000000000000
    4      0.00000000000000    -0.00000000000000     0.00000469132182
    5     -0.00000000000000     0.00000000000000    -0.00000469132182
    6      0.00000000000000     0.00000109483254    -0.00000000000000
    7     -0.00000469132182     0.00000000000000    -0.00000000000000
    8      0.00000469132182    -0.00000000000000     0.00000000000000
    9     -0.00000000000000     0.00000000000000     0.00000000000000
 frms,max,avg= 1.8301115E-06 4.6913218E-06   0.000E+00  0.000E+00  0.000E+00 h/b

 cartesian forces (eV/Angstrom) at end:
    1     -0.00000000000000     0.00000000000000     0.00000000000000
    2     -0.00000000000000     0.00000000000000     0.00000000000000
    3     -0.00000000000000    -0.00005629854785     0.00000000000000
    4      0.00000000000001    -0.00000000000001     0.00024123744709
    5     -0.00000000000001     0.00000000000001    -0.00024123744709
    6      0.00000000000000     0.00005629854785    -0.00000000000000
    7     -0.00024123744709     0.00000000000001    -0.00000000000001
    8      0.00024123744709    -0.00000000000001     0.00000000000001
    9     -0.00000000000000     0.00000000000000     0.00000000000000
 frms,max,avg= 9.4108109E-05 2.4123745E-04   0.000E+00  0.000E+00  0.000E+00 e/A
 length scales= 15.406919125000 15.404955636000 15.406919125000 bohr
              =  8.152990455539  8.151951421911  8.152990455539 angstroms
 prteigrs : about to open file Cs2TiI6o_EIG
 Fermi (or HOMO) energy (hartree) =  -0.09984   Average Vxc (hartree)=  -0.28213
 Eigenvalues (hartree) for nkpt= 163  k points:
 kpt#   1, nband= 42, wtk=  0.00058, kpt=  0.0000  0.0000  0.0000 (reduced coord)
  -2.38840   -1.23227   -1.23227   -1.23208   -0.84211   -0.84196   -0.60245   -0.59040
  -0.58994   -0.58994   -0.50120   -0.49764   -0.35933   -0.35933   -0.35894   -0.35728
  -0.35728   -0.35720   -0.23833   -0.18968   -0.18831   -0.18202   -0.18202   -0.17957
  -0.17957   -0.17941   -0.16295   -0.14072   -0.13444   -0.13444   -0.11714   -0.11084
  -0.11084   -0.10737   -0.09984   -0.09984    0.00182    0.00182    0.00929    0.05709
   0.07681    0.08327
 prteigrs : prtvol=0 or 1, do not print more k-points.

--- !EnergyTerms
iteration_state     : {dtset: 1, }
comment             : Components of total free energy in Hartree
kinetic             :  4.16624790318644E+01
hartree             :  4.05027285535317E+01
xc                  : -6.58333667217612E+01
Ewald energy        : -1.15121026988171E+02
psp_core            :  1.34328089638635E+01
local_psp           : -8.81586378367253E+01
spherical_terms     :  4.32724757696260E+00
total_energy        : -1.69187767420436E+02
total_energy_eV     : -4.60383328369388E+03
...

--- !EnergyTermsDC
iteration_state     : {dtset: 1, }
comment             : '"Double-counting" decomposition of free energy'
band_energy         : -3.21676201680586E+01
Ewald energy        : -1.15121026988171E+02
psp_core            :  1.34328089638635E+01
xc_dc               : -6.70212262578952E+01
spherical_terms     :  3.16893227198439E+01
total_energy_dc     : -1.69187741730418E+02
total_energy_dc_eV  : -4.60383258463294E+03
...

 Cartesian components of stress tensor (hartree/bohr^3)
  sigma(1 1)=  3.68039479E-06  sigma(3 2)= -1.15255534E-13
  sigma(2 2)=  3.69127718E-06  sigma(3 1)=  2.30570991E-13
  sigma(3 3)=  3.68039479E-06  sigma(2 1)= -1.15257574E-13

-Cartesian components of stress tensor (GPa)         [Pressure= -1.0839E-01 GPa]
- sigma(1 1)=  1.08280935E-01  sigma(3 2)= -3.39093430E-09
- sigma(2 2)=  1.08601106E-01  sigma(3 1)=  6.78363160E-09
- sigma(3 3)=  1.08280935E-01  sigma(2 1)= -3.39099434E-09

== END DATASET(S) ==============================================================

 -outvars: echo values of variables after computation  --------
            acell      1.5406919125E+01  1.5404955636E+01  1.5406919125E+01 Bohr
              amu      1.32905430E+02  1.26904470E+02  1.78490000E+02
                       7.99040000E+01
           diemac      1.20000000E+01
             ecut      1.60000000E+01 Hartree
           etotal     -1.6918774173E+02
            fcart     -1.4831495072E-28  9.4114475363E-23  5.3232697655E-24
                      -7.4157475348E-29  9.4114846056E-23  5.3237888679E-24
                      -4.7910762727E-23 -1.0948325359E-06  5.3234180808E-23
                       1.0403397909E-16 -1.0400744172E-16  4.6913218202E-06
                      -1.0403355557E-16  1.0400720643E-16 -4.6913218202E-06
                       4.7910762727E-23  1.0948325359E-06 -4.2587344647E-23
                      -4.6913218202E-06  1.0400731899E-16 -1.0403366273E-16
                       4.6913218202E-06 -1.0400755428E-16  1.0403367337E-16
                      -0.0000000000E+00  9.4114771917E-23  5.3234180805E-24
-          fftalg         112
           istwfk        2    0    0    0    0    0    3    0    0    0
                         0    0    0    0    0    0    0    0    0    0
                         0    0    0    0    0    0    0    0    0    0
                         0    0    0    0    0    0    0    0    0    0
                         0    0    7    0    0    0    0    0    0    0
                       outvar_i_n : Printing only first  50 k-points.
              ixc     -101130
              kpt      0.00000000E+00  0.00000000E+00  0.00000000E+00
                       8.33333333E-02  0.00000000E+00  0.00000000E+00
                       1.66666667E-01  0.00000000E+00  0.00000000E+00
                       2.50000000E-01  0.00000000E+00  0.00000000E+00
                       3.33333333E-01  0.00000000E+00  0.00000000E+00
                       4.16666667E-01  0.00000000E+00  0.00000000E+00
                       5.00000000E-01  0.00000000E+00  0.00000000E+00
                       8.33333333E-02  8.33333333E-02  0.00000000E+00
                       1.66666667E-01  8.33333333E-02  0.00000000E+00
                       2.50000000E-01  8.33333333E-02  0.00000000E+00
                       3.33333333E-01  8.33333333E-02  0.00000000E+00
                       4.16666667E-01  8.33333333E-02  0.00000000E+00
                       5.00000000E-01  8.33333333E-02  0.00000000E+00
                      -4.16666667E-01  8.33333333E-02  0.00000000E+00
                      -3.33333333E-01  8.33333333E-02  0.00000000E+00
                      -2.50000000E-01  8.33333333E-02  0.00000000E+00
                      -1.66666667E-01  8.33333333E-02  0.00000000E+00
                      -8.33333333E-02  8.33333333E-02  0.00000000E+00
                       1.66666667E-01  1.66666667E-01  0.00000000E+00
                       2.50000000E-01  1.66666667E-01  0.00000000E+00
                       3.33333333E-01  1.66666667E-01  0.00000000E+00
                       4.16666667E-01  1.66666667E-01  0.00000000E+00
                       5.00000000E-01  1.66666667E-01  0.00000000E+00
                      -4.16666667E-01  1.66666667E-01  0.00000000E+00
                      -3.33333333E-01  1.66666667E-01  0.00000000E+00
                      -2.50000000E-01  1.66666667E-01  0.00000000E+00
                      -1.66666667E-01  1.66666667E-01  0.00000000E+00
                       2.50000000E-01  2.50000000E-01  0.00000000E+00
                       3.33333333E-01  2.50000000E-01  0.00000000E+00
                       4.16666667E-01  2.50000000E-01  0.00000000E+00
                       5.00000000E-01  2.50000000E-01  0.00000000E+00
                      -4.16666667E-01  2.50000000E-01  0.00000000E+00
                      -3.33333333E-01  2.50000000E-01  0.00000000E+00
                      -2.50000000E-01  2.50000000E-01  0.00000000E+00
                       3.33333333E-01  3.33333333E-01  0.00000000E+00
                       4.16666667E-01  3.33333333E-01  0.00000000E+00
                       5.00000000E-01  3.33333333E-01  0.00000000E+00
                      -4.16666667E-01  3.33333333E-01  0.00000000E+00
                      -3.33333333E-01  3.33333333E-01  0.00000000E+00
                       4.16666667E-01  4.16666667E-01  0.00000000E+00
                       5.00000000E-01  4.16666667E-01  0.00000000E+00
                      -4.16666667E-01  4.16666667E-01  0.00000000E+00
                       5.00000000E-01  5.00000000E-01  0.00000000E+00
                       8.33333333E-02  0.00000000E+00  8.33333333E-02
                       1.66666667E-01  0.00000000E+00  8.33333333E-02
                       2.50000000E-01  0.00000000E+00  8.33333333E-02
                       3.33333333E-01  0.00000000E+00  8.33333333E-02
                       4.16666667E-01  0.00000000E+00  8.33333333E-02
                       5.00000000E-01  0.00000000E+00  8.33333333E-02
                      -4.16666667E-01  0.00000000E+00  8.33333333E-02
                       outvar_i_n : Printing only first  50 k-points.
         kptrlatt       12    0    0      0   12    0      0    0   12
          kptrlen      1.84859468E+02
P           mkmem          28
            natom           9
            nband          42
            ngfft          60      60      60
          ngfftdg          90      90      90
             nkpt         163
            nstep        2500
             nsym          16
           ntypat           4
              occ      2.000000  2.000000  2.000000  2.000000  2.000000  2.000000
                       2.000000  2.000000  2.000000  2.000000  2.000000  2.000000
                       2.000000  2.000000  2.000000  2.000000  2.000000  2.000000
                       2.000000  2.000000  2.000000  2.000000  2.000000  2.000000
                       2.000000  2.000000  2.000000  2.000000  2.000000  2.000000
                       2.000000  2.000000  2.000000  2.000000  2.000000  2.000000
                       0.000000  0.000000  0.000000  0.000000  0.000000  0.000000
        pawecutdg      4.00000000E+01 Hartree
            prtwf           0
            rprim      0.0000000000E+00  7.0719688479E-01  7.0701666610E-01
                       7.0710678119E-01  0.0000000000E+00  7.0710678119E-01
                       7.0701666610E-01  7.0719688479E-01  0.0000000000E+00
          spgroup         139
           strten      3.6803947926E-06  3.6912771841E-06  3.6803947926E-06
                      -1.1525553353E-13  2.3057099056E-13 -1.1525757449E-13
           symrel      1  0  0   0  1  0   0  0  1      -1  0  0   0 -1  0   0  0 -1
                       0  0 -1   0 -1  0  -1  0  0       0  0  1   0  1  0   1  0  0
                       0 -1  1   0 -1  0   1 -1  0       0  1 -1   0  1  0  -1  1  0
                      -1  1  0   0  1  0   0  1 -1       1 -1  0   0 -1  0   0 -1  1
                       0 -1  1  -1  0  1   0  0  1       0  1 -1   1  0 -1   0  0 -1
                       0  0 -1   1  0 -1   0  1 -1       0  0  1  -1  0  1   0 -1  1
                       1  0  0   1  0 -1   1 -1  0      -1  0  0  -1  0  1  -1  1  0
                      -1  1  0  -1  0  1  -1  0  0       1 -1  0   1  0 -1   1  0  0
           toldfe      1.00000000E-08 Hartree
            typat      1  1  2  4  4  2  4  4  3
           useylm           1
              wtk        0.00058    0.00463    0.00463    0.00463    0.00463    0.00463
                         0.00231    0.00231    0.00926    0.00926    0.00926    0.00926
                         0.00926    0.00926    0.00926    0.00926    0.00926    0.00463
                         0.00231    0.00926    0.00926    0.00926    0.00926    0.00926
                         0.00926    0.00926    0.00463    0.00231    0.00926    0.00926
                         0.00926    0.00926    0.00926    0.00463    0.00231    0.00926
                         0.00926    0.00926    0.00463    0.00231    0.00926    0.00463
                         0.00116    0.00116    0.00463    0.00463    0.00463    0.00463
                         0.00463    0.00463
                       outvars : Printing only first  50 k-points.
           xangst      2.8821500652E+00  2.8828847259E+00  2.8821500652E+00
                       8.6464501957E+00  8.6486541778E+00  8.6464501957E+00
                       5.7643001306E+00  8.6454369555E+00  5.7643001306E+00
                       5.7643001306E+00  5.7657694519E+00  2.6185380066E+00
                       5.7643001304E+00  5.7657694519E+00  8.9100622544E+00
                       5.7643001304E+00  2.8861019483E+00  5.7643001304E+00
                       8.9100622544E+00  5.7657694519E+00  5.7643001304E+00
                       2.6185380066E+00  5.7657694519E+00  5.7643001306E+00
                       5.7060550859E-22  1.0136815942E-22 -7.8956711756E-23
            xcart      5.4464742972E+00  5.4478626047E+00  5.4464742972E+00
                       1.6339422892E+01  1.6343587814E+01  1.6339422892E+01
                       1.0892948595E+01  1.6337508145E+01  1.0892948595E+01
                       1.0892948595E+01  1.0895725209E+01  4.9483197010E+00
                       1.0892948594E+01  1.0895725209E+01  1.6837577488E+01
                       1.0892948594E+01  5.4539422738E+00  1.0892948594E+01
                       1.6837577488E+01  1.0895725209E+01  1.0892948594E+01
                       4.9483197010E+00  1.0895725209E+01  1.0892948595E+01
                       1.0782881411E-21  1.9155805990E-22 -1.4920656157E-22
             xred      2.5000000000E-01  2.5000000000E-01  2.5000000000E-01
                       7.5000000000E-01  7.5000000000E-01  7.5000000000E-01
                       7.4972100668E-01  2.5027899332E-01  7.4972100668E-01
                       2.2713407936E-01  2.2713407936E-01  7.7286592064E-01
                       7.7286592064E-01  7.7286592064E-01  2.2713407936E-01
                       2.5027899332E-01  7.4972100668E-01  2.5027899332E-01
                       2.2713407936E-01  7.7286592064E-01  7.7286592064E-01
                       7.7286592064E-01  2.2713407936E-01  2.2713407936E-01
                      -4.7553031650E-23  3.3855495096E-23  6.5134060560E-23
            znucl       55.00000   53.00000   72.00000   35.00000

- Timing analysis has been suppressed with timopt=0

 Suggested references for the acknowledgment of ABINIT usage.

 Calculation completed.
.Delivered   0 WARNINGs and   0 COMMENTs to log file.